END_PSP
Begin PSP_UPF
<UPF version="2.0.1">
  <PP_INFO>

 This pseudopotential file has been produced using the code
 ONCVPSP  (Optimized Norm-Conservinng Vanderbilt PSeudopotential)
 scalar-relativistic version 4.0.1 06/04/2019 by D. R. Hamann
 The code is available through a link at URL www.mat-simresearch.com.
 Documentation with the package provides a full discription of the
 input data below.


 While it is not required under the terms of the GNU GPL, it is
 suggested that you cite D. R. Hamann, Phys. Rev. B 88, 085117 (2013)
 in any publication using these pseudopotentials.

    <PP_INPUTFILE>
# ATOM AND REFERENCE CONFIGURATION
# atsym  z   nc   nv     iexc    psfile
  Rn 86.00   12    3 -116133      both
#
#   n    l    f        energy (Ha)
    1    0    2.00
    2    0    2.00
    2    1    6.00
    3    0    2.00
    3    1    6.00
    3    2   10.00
    4    0    2.00
    4    1    6.00
    4    2   10.00
    5    0    2.00
    5    1    6.00
    4    3   14.00
    5    2   10.00
    6    0    2.00
    6    1    6.00
#
# PSEUDOPOTENTIAL AND OPTIMIZATION
# lmax
    3
#
#   l,   rc,      ep,       ncon, nbas, qcut
    0   2.20000   0.00000    4    7   3.60000
    1   2.00000   0.00000    4    7   4.60000
    2   1.80000   0.00000    4    8   8.40000
    3   2.00000   0.05000    4    7   4.00000
#
# LOCAL POTENTIAL
# lloc, lpopt,  rc(5),   dvloc0
    4    5   1.80000      0.00000
#
# VANDERBILT-KLEINMAN-BYLANDER PROJECTORs
# l, nproj, debl
    0    3   2.80000
    1    2   4.50000
    2    2   1.80000
    3    2   2.00000
#
# MODEL CORE CHARGE
# icmod, fcfact, rcfact
    3   6.00000   1.34000
#
# LOG DERIVATIVE ANALYSIS
# epsh1, epsh2, depsh
  -12.00   12.00    0.02
#
# OUTPUT GRID
# rlmax, drl
    6.00    0.01
#
# TEST CONFIGURATIONS
# ncnf
    0
# nvcnf
#   n    l    f
    </PP_INPUTFILE>
  </PP_INFO>
  <!--                               -->
  <!-- END OF HUMAN READABLE SECTION -->
  <!--                               -->
    <PP_HEADER
       generated="Generated using ONCVPSP code by D. R. Hamann"
       author="anonymous"
       date="251022"
       comment=""
       element="Rn"
       pseudo_type="NC"
       relativistic="scalar"
       is_ultrasoft="F"
       is_paw="F"
       is_coulomb="F"
       has_so="F"
       has_wfc="F"
       has_gipaw="F"
       core_correction="T"
       functional="PBESOL"
       z_valence="   18.00"
       total_psenergy="  -2.19944810558E+02"
       rho_cutoff="   1.14700000000E+01"
       l_max="3"
       l_local="-1"
       mesh_size="  1148"
       number_of_wfc="3"
       number_of_proj="9"/>
 <PP_MESH>
   <PP_R type="real"  size="1148" columns="8">
    0.0000    0.0100    0.0200    0.0300    0.0400    0.0500    0.0600    0.0700
    0.0800    0.0900    0.1000    0.1100    0.1200    0.1300    0.1400    0.1500
    0.1600    0.1700    0.1800    0.1900    0.2000    0.2100    0.2200    0.2300
    0.2400    0.2500    0.2600    0.2700    0.2800    0.2900    0.3000    0.3100
    0.3200    0.3300    0.3400    0.3500    0.3600    0.3700    0.3800    0.3900
    0.4000    0.4100    0.4200    0.4300    0.4400    0.4500    0.4600    0.4700
    0.4800    0.4900    0.5000    0.5100    0.5200    0.5300    0.5400    0.5500
    0.5600    0.5700    0.5800    0.5900    0.6000    0.6100    0.6200    0.6300
    0.6400    0.6500    0.6600    0.6700    0.6800    0.6900    0.7000    0.7100
    0.7200    0.7300    0.7400    0.7500    0.7600    0.7700    0.7800    0.7900
    0.8000    0.8100    0.8200    0.8300    0.8400    0.8500    0.8600    0.8700
    0.8800    0.8900    0.9000    0.9100    0.9200    0.9300    0.9400    0.9500
    0.9600    0.9700    0.9800    0.9900    1.0000    1.0100    1.0200    1.0300
    1.0400    1.0500    1.0600    1.0700    1.0800    1.0900    1.1000    1.1100
    1.1200    1.1300    1.1400    1.1500    1.1600    1.1700    1.1800    1.1900
    1.2000    1.2100    1.2200    1.2300    1.2400    1.2500    1.2600    1.2700
    1.2800    1.2900    1.3000    1.3100    1.3200    1.3300    1.3400    1.3500
    1.3600    1.3700    1.3800    1.3900    1.4000    1.4100    1.4200    1.4300
    1.4400    1.4500    1.4600    1.4700    1.4800    1.4900    1.5000    1.5100
    1.5200    1.5300    1.5400    1.5500    1.5600    1.5700    1.5800    1.5900
    1.6000    1.6100    1.6200    1.6300    1.6400    1.6500    1.6600    1.6700
    1.6800    1.6900    1.7000    1.7100    1.7200    1.7300    1.7400    1.7500
    1.7600    1.7700    1.7800    1.7900    1.8000    1.8100    1.8200    1.8300
    1.8400    1.8500    1.8600    1.8700    1.8800    1.8900    1.9000    1.9100
    1.9200    1.9300    1.9400    1.9500    1.9600    1.9700    1.9800    1.9900
    2.0000    2.0100    2.0200    2.0300    2.0400    2.0500    2.0600    2.0700
    2.0800    2.0900    2.1000    2.1100    2.1200    2.1300    2.1400    2.1500
    2.1600    2.1700    2.1800    2.1900    2.2000    2.2100    2.2200    2.2300
    2.2400    2.2500    2.2600    2.2700    2.2800    2.2900    2.3000    2.3100
    2.3200    2.3300    2.3400    2.3500    2.3600    2.3700    2.3800    2.3900
    2.4000    2.4100    2.4200    2.4300    2.4400    2.4500    2.4600    2.4700
    2.4800    2.4900    2.5000    2.5100    2.5200    2.5300    2.5400    2.5500
    2.5600    2.5700    2.5800    2.5900    2.6000    2.6100    2.6200    2.6300
    2.6400    2.6500    2.6600    2.6700    2.6800    2.6900    2.7000    2.7100
    2.7200    2.7300    2.7400    2.7500    2.7600    2.7700    2.7800    2.7900
    2.8000    2.8100    2.8200    2.8300    2.8400    2.8500    2.8600    2.8700
    2.8800    2.8900    2.9000    2.9100    2.9200    2.9300    2.9400    2.9500
    2.9600    2.9700    2.9800    2.9900    3.0000    3.0100    3.0200    3.0300
    3.0400    3.0500    3.0600    3.0700    3.0800    3.0900    3.1000    3.1100
    3.1200    3.1300    3.1400    3.1500    3.1600    3.1700    3.1800    3.1900
    3.2000    3.2100    3.2200    3.2300    3.2400    3.2500    3.2600    3.2700
    3.2800    3.2900    3.3000    3.3100    3.3200    3.3300    3.3400    3.3500
    3.3600    3.3700    3.3800    3.3900    3.4000    3.4100    3.4200    3.4300
    3.4400    3.4500    3.4600    3.4700    3.4800    3.4900    3.5000    3.5100
    3.5200    3.5300    3.5400    3.5500    3.5600    3.5700    3.5800    3.5900
    3.6000    3.6100    3.6200    3.6300    3.6400    3.6500    3.6600    3.6700
    3.6800    3.6900    3.7000    3.7100    3.7200    3.7300    3.7400    3.7500
    3.7600    3.7700    3.7800    3.7900    3.8000    3.8100    3.8200    3.8300
    3.8400    3.8500    3.8600    3.8700    3.8800    3.8900    3.9000    3.9100
    3.9200    3.9300    3.9400    3.9500    3.9600    3.9700    3.9800    3.9900
    4.0000    4.0100    4.0200    4.0300    4.0400    4.0500    4.0600    4.0700
    4.0800    4.0900    4.1000    4.1100    4.1200    4.1300    4.1400    4.1500
    4.1600    4.1700    4.1800    4.1900    4.2000    4.2100    4.2200    4.2300
    4.2400    4.2500    4.2600    4.2700    4.2800    4.2900    4.3000    4.3100
    4.3200    4.3300    4.3400    4.3500    4.3600    4.3700    4.3800    4.3900
    4.4000    4.4100    4.4200    4.4300    4.4400    4.4500    4.4600    4.4700
    4.4800    4.4900    4.5000    4.5100    4.5200    4.5300    4.5400    4.5500
    4.5600    4.5700    4.5800    4.5900    4.6000    4.6100    4.6200    4.6300
    4.6400    4.6500    4.6600    4.6700    4.6800    4.6900    4.7000    4.7100
    4.7200    4.7300    4.7400    4.7500    4.7600    4.7700    4.7800    4.7900
    4.8000    4.8100    4.8200    4.8300    4.8400    4.8500    4.8600    4.8700
    4.8800    4.8900    4.9000    4.9100    4.9200    4.9300    4.9400    4.9500
    4.9600    4.9700    4.9800    4.9900    5.0000    5.0100    5.0200    5.0300
    5.0400    5.0500    5.0600    5.0700    5.0800    5.0900    5.1000    5.1100
    5.1200    5.1300    5.1400    5.1500    5.1600    5.1700    5.1800    5.1900
    5.2000    5.2100    5.2200    5.2300    5.2400    5.2500    5.2600    5.2700
    5.2800    5.2900    5.3000    5.3100    5.3200    5.3300    5.3400    5.3500
    5.3600    5.3700    5.3800    5.3900    5.4000    5.4100    5.4200    5.4300
    5.4400    5.4500    5.4600    5.4700    5.4800    5.4900    5.5000    5.5100
    5.5200    5.5300    5.5400    5.5500    5.5600    5.5700    5.5800    5.5900
    5.6000    5.6100    5.6200    5.6300    5.6400    5.6500    5.6600    5.6700
    5.6800    5.6900    5.7000    5.7100    5.7200    5.7300    5.7400    5.7500
    5.7600    5.7700    5.7800    5.7900    5.8000    5.8100    5.8200    5.8300
    5.8400    5.8500    5.8600    5.8700    5.8800    5.8900    5.9000    5.9100
    5.9200    5.9300    5.9400    5.9500    5.9600    5.9700    5.9800    5.9900
    6.0000    6.0100    6.0200    6.0300    6.0400    6.0500    6.0600    6.0700
    6.0800    6.0900    6.1000    6.1100    6.1200    6.1300    6.1400    6.1500
    6.1600    6.1700    6.1800    6.1900    6.2000    6.2100    6.2200    6.2300
    6.2400    6.2500    6.2600    6.2700    6.2800    6.2900    6.3000    6.3100
    6.3200    6.3300    6.3400    6.3500    6.3600    6.3700    6.3800    6.3900
    6.4000    6.4100    6.4200    6.4300    6.4400    6.4500    6.4600    6.4700
    6.4800    6.4900    6.5000    6.5100    6.5200    6.5300    6.5400    6.5500
    6.5600    6.5700    6.5800    6.5900    6.6000    6.6100    6.6200    6.6300
    6.6400    6.6500    6.6600    6.6700    6.6800    6.6900    6.7000    6.7100
    6.7200    6.7300    6.7400    6.7500    6.7600    6.7700    6.7800    6.7900
    6.8000    6.8100    6.8200    6.8300    6.8400    6.8500    6.8600    6.8700
    6.8800    6.8900    6.9000    6.9100    6.9200    6.9300    6.9400    6.9500
    6.9600    6.9700    6.9800    6.9900    7.0000    7.0100    7.0200    7.0300
    7.0400    7.0500    7.0600    7.0700    7.0800    7.0900    7.1000    7.1100
    7.1200    7.1300    7.1400    7.1500    7.1600    7.1700    7.1800    7.1900
    7.2000    7.2100    7.2200    7.2300    7.2400    7.2500    7.2600    7.2700
    7.2800    7.2900    7.3000    7.3100    7.3200    7.3300    7.3400    7.3500
    7.3600    7.3700    7.3800    7.3900    7.4000    7.4100    7.4200    7.4300
    7.4400    7.4500    7.4600    7.4700    7.4800    7.4900    7.5000    7.5100
    7.5200    7.5300    7.5400    7.5500    7.5600    7.5700    7.5800    7.5900
    7.6000    7.6100    7.6200    7.6300    7.6400    7.6500    7.6600    7.6700
    7.6800    7.6900    7.7000    7.7100    7.7200    7.7300    7.7400    7.7500
    7.7600    7.7700    7.7800    7.7900    7.8000    7.8100    7.8200    7.8300
    7.8400    7.8500    7.8600    7.8700    7.8800    7.8900    7.9000    7.9100
    7.9200    7.9300    7.9400    7.9500    7.9600    7.9700    7.9800    7.9900
    8.0000    8.0100    8.0200    8.0300    8.0400    8.0500    8.0600    8.0700
    8.0800    8.0900    8.1000    8.1100    8.1200    8.1300    8.1400    8.1500
    8.1600    8.1700    8.1800    8.1900    8.2000    8.2100    8.2200    8.2300
    8.2400    8.2500    8.2600    8.2700    8.2800    8.2900    8.3000    8.3100
    8.3200    8.3300    8.3400    8.3500    8.3600    8.3700    8.3800    8.3900
    8.4000    8.4100    8.4200    8.4300    8.4400    8.4500    8.4600    8.4700
    8.4800    8.4900    8.5000    8.5100    8.5200    8.5300    8.5400    8.5500
    8.5600    8.5700    8.5800    8.5900    8.6000    8.6100    8.6200    8.6300
    8.6400    8.6500    8.6600    8.6700    8.6800    8.6900    8.7000    8.7100
    8.7200    8.7300    8.7400    8.7500    8.7600    8.7700    8.7800    8.7900
    8.8000    8.8100    8.8200    8.8300    8.8400    8.8500    8.8600    8.8700
    8.8800    8.8900    8.9000    8.9100    8.9200    8.9300    8.9400    8.9500
    8.9600    8.9700    8.9800    8.9900    9.0000    9.0100    9.0200    9.0300
    9.0400    9.0500    9.0600    9.0700    9.0800    9.0900    9.1000    9.1100
    9.1200    9.1300    9.1400    9.1500    9.1600    9.1700    9.1800    9.1900
    9.2000    9.2100    9.2200    9.2300    9.2400    9.2500    9.2600    9.2700
    9.2800    9.2900    9.3000    9.3100    9.3200    9.3300    9.3400    9.3500
    9.3600    9.3700    9.3800    9.3900    9.4000    9.4100    9.4200    9.4300
    9.4400    9.4500    9.4600    9.4700    9.4800    9.4900    9.5000    9.5100
    9.5200    9.5300    9.5400    9.5500    9.5600    9.5700    9.5800    9.5900
    9.6000    9.6100    9.6200    9.6300    9.6400    9.6500    9.6600    9.6700
    9.6800    9.6900    9.7000    9.7100    9.7200    9.7300    9.7400    9.7500
    9.7600    9.7700    9.7800    9.7900    9.8000    9.8100    9.8200    9.8300
    9.8400    9.8500    9.8600    9.8700    9.8800    9.8900    9.9000    9.9100
    9.9200    9.9300    9.9400    9.9500    9.9600    9.9700    9.9800    9.9900
   10.0000   10.0100   10.0200   10.0300   10.0400   10.0500   10.0600   10.0700
   10.0800   10.0900   10.1000   10.1100   10.1200   10.1300   10.1400   10.1500
   10.1600   10.1700   10.1800   10.1900   10.2000   10.2100   10.2200   10.2300
   10.2400   10.2500   10.2600   10.2700   10.2800   10.2900   10.3000   10.3100
   10.3200   10.3300   10.3400   10.3500   10.3600   10.3700   10.3800   10.3900
   10.4000   10.4100   10.4200   10.4300   10.4400   10.4500   10.4600   10.4700
   10.4800   10.4900   10.5000   10.5100   10.5200   10.5300   10.5400   10.5500
   10.5600   10.5700   10.5800   10.5900   10.6000   10.6100   10.6200   10.6300
   10.6400   10.6500   10.6600   10.6700   10.6800   10.6900   10.7000   10.7100
   10.7200   10.7300   10.7400   10.7500   10.7600   10.7700   10.7800   10.7900
   10.8000   10.8100   10.8200   10.8300   10.8400   10.8500   10.8600   10.8700
   10.8800   10.8900   10.9000   10.9100   10.9200   10.9300   10.9400   10.9500
   10.9600   10.9700   10.9800   10.9900   11.0000   11.0100   11.0200   11.0300
   11.0400   11.0500   11.0600   11.0700   11.0800   11.0900   11.1000   11.1100
   11.1200   11.1300   11.1400   11.1500   11.1600   11.1700   11.1800   11.1900
   11.2000   11.2100   11.2200   11.2300   11.2400   11.2500   11.2600   11.2700
   11.2800   11.2900   11.3000   11.3100   11.3200   11.3300   11.3400   11.3500
   11.3600   11.3700   11.3800   11.3900   11.4000   11.4100   11.4200   11.4300
   11.4400   11.4500   11.4600   11.4700
   </PP_R>
   <PP_RAB type="real"  size="1148" columns="8">
    0.0100    0.0100    0.0100    0.0100    0.0100    0.0100    0.0100    0.0100
    0.0100    0.0100    0.0100    0.0100    0.0100    0.0100    0.0100    0.0100
    0.0100    0.0100    0.0100    0.0100    0.0100    0.0100    0.0100    0.0100
    0.0100    0.0100    0.0100    0.0100    0.0100    0.0100    0.0100    0.0100
    0.0100    0.0100    0.0100    0.0100    0.0100    0.0100    0.0100    0.0100
    0.0100    0.0100    0.0100    0.0100    0.0100    0.0100    0.0100    0.0100
    0.0100    0.0100    0.0100    0.0100    0.0100    0.0100    0.0100    0.0100
    0.0100    0.0100    0.0100    0.0100    0.0100    0.0100    0.0100    0.0100
    0.0100    0.0100    0.0100    0.0100    0.0100    0.0100    0.0100    0.0100
    0.0100    0.0100    0.0100    0.0100    0.0100    0.0100    0.0100    0.0100
    0.0100    0.0100    0.0100    0.0100    0.0100    0.0100    0.0100    0.0100
    0.0100    0.0100    0.0100    0.0100    0.0100    0.0100    0.0100    0.0100
    0.0100    0.0100    0.0100    0.0100    0.0100    0.0100    0.0100    0.0100
    0.0100    0.0100    0.0100    0.0100    0.0100    0.0100    0.0100    0.0100
    0.0100    0.0100    0.0100    0.0100    0.0100    0.0100    0.0100    0.0100
    0.0100    0.0100    0.0100    0.0100    0.0100    0.0100    0.0100    0.0100
    0.0100    0.0100    0.0100    0.0100    0.0100    0.0100    0.0100    0.0100
    0.0100    0.0100    0.0100    0.0100    0.0100    0.0100    0.0100    0.0100
    0.0100    0.0100    0.0100    0.0100    0.0100    0.0100    0.0100    0.0100
    0.0100    0.0100    0.0100    0.0100    0.0100    0.0100    0.0100    0.0100
    0.0100    0.0100    0.0100    0.0100    0.0100    0.0100    0.0100    0.0100
    0.0100    0.0100    0.0100    0.0100    0.0100    0.0100    0.0100    0.0100
    0.0100    0.0100    0.0100    0.0100    0.0100    0.0100    0.0100    0.0100
    0.0100    0.0100    0.0100    0.0100    0.0100    0.0100    0.0100    0.0100
    0.0100    0.0100    0.0100    0.0100    0.0100    0.0100    0.0100    0.0100
    0.0100    0.0100    0.0100    0.0100    0.0100    0.0100    0.0100    0.0100
    0.0100    0.0100    0.0100    0.0100    0.0100    0.0100    0.0100    0.0100
    0.0100    0.0100    0.0100    0.0100    0.0100    0.0100    0.0100    0.0100
    0.0100    0.0100    0.0100    0.0100    0.0100    0.0100    0.0100    0.0100
    0.0100    0.0100    0.0100    0.0100    0.0100    0.0100    0.0100    0.0100
    0.0100    0.0100    0.0100    0.0100    0.0100    0.0100    0.0100    0.0100
    0.0100    0.0100    0.0100    0.0100    0.0100    0.0100    0.0100    0.0100
    0.0100    0.0100    0.0100    0.0100    0.0100    0.0100    0.0100    0.0100
    0.0100    0.0100    0.0100    0.0100    0.0100    0.0100    0.0100    0.0100
    0.0100    0.0100    0.0100    0.0100    0.0100    0.0100    0.0100    0.0100
    0.0100    0.0100    0.0100    0.0100    0.0100    0.0100    0.0100    0.0100
    0.0100    0.0100    0.0100    0.0100    0.0100    0.0100    0.0100    0.0100
    0.0100    0.0100    0.0100    0.0100    0.0100    0.0100    0.0100    0.0100
    0.0100    0.0100    0.0100    0.0100    0.0100    0.0100    0.0100    0.0100
    0.0100    0.0100    0.0100    0.0100    0.0100    0.0100    0.0100    0.0100
    0.0100    0.0100    0.0100    0.0100    0.0100    0.0100    0.0100    0.0100
    0.0100    0.0100    0.0100    0.0100    0.0100    0.0100    0.0100    0.0100
    0.0100    0.0100    0.0100    0.0100    0.0100    0.0100    0.0100    0.0100
    0.0100    0.0100    0.0100    0.0100    0.0100    0.0100    0.0100    0.0100
    0.0100    0.0100    0.0100    0.0100    0.0100    0.0100    0.0100    0.0100
    0.0100    0.0100    0.0100    0.0100    0.0100    0.0100    0.0100    0.0100
    0.0100    0.0100    0.0100    0.0100    0.0100    0.0100    0.0100    0.0100
    0.0100    0.0100    0.0100    0.0100    0.0100    0.0100    0.0100    0.0100
    0.0100    0.0100    0.0100    0.0100    0.0100    0.0100    0.0100    0.0100
    0.0100    0.0100    0.0100    0.0100    0.0100    0.0100    0.0100    0.0100
    0.0100    0.0100    0.0100    0.0100    0.0100    0.0100    0.0100    0.0100
    0.0100    0.0100    0.0100    0.0100    0.0100    0.0100    0.0100    0.0100
    0.0100    0.0100    0.0100    0.0100    0.0100    0.0100    0.0100    0.0100
    0.0100    0.0100    0.0100    0.0100    0.0100    0.0100    0.0100    0.0100
    0.0100    0.0100    0.0100    0.0100    0.0100    0.0100    0.0100    0.0100
    0.0100    0.0100    0.0100    0.0100    0.0100    0.0100    0.0100    0.0100
    0.0100    0.0100    0.0100    0.0100    0.0100    0.0100    0.0100    0.0100
    0.0100    0.0100    0.0100    0.0100    0.0100    0.0100    0.0100    0.0100
    0.0100    0.0100    0.0100    0.0100    0.0100    0.0100    0.0100    0.0100
    0.0100    0.0100    0.0100    0.0100    0.0100    0.0100    0.0100    0.0100
    0.0100    0.0100    0.0100    0.0100    0.0100    0.0100    0.0100    0.0100
    0.0100    0.0100    0.0100    0.0100    0.0100    0.0100    0.0100    0.0100
    0.0100    0.0100    0.0100    0.0100    0.0100    0.0100    0.0100    0.0100
    0.0100    0.0100    0.0100    0.0100    0.0100    0.0100    0.0100    0.0100
    0.0100    0.0100    0.0100    0.0100    0.0100    0.0100    0.0100    0.0100
    0.0100    0.0100    0.0100    0.0100    0.0100    0.0100    0.0100    0.0100
    0.0100    0.0100    0.0100    0.0100    0.0100    0.0100    0.0100    0.0100
    0.0100    0.0100    0.0100    0.0100    0.0100    0.0100    0.0100    0.0100
    0.0100    0.0100    0.0100    0.0100    0.0100    0.0100    0.0100    0.0100
    0.0100    0.0100    0.0100    0.0100    0.0100    0.0100    0.0100    0.0100
    0.0100    0.0100    0.0100    0.0100    0.0100    0.0100    0.0100    0.0100
    0.0100    0.0100    0.0100    0.0100    0.0100    0.0100    0.0100    0.0100
    0.0100    0.0100    0.0100    0.0100    0.0100    0.0100    0.0100    0.0100
    0.0100    0.0100    0.0100    0.0100    0.0100    0.0100    0.0100    0.0100
    0.0100    0.0100    0.0100    0.0100    0.0100    0.0100    0.0100    0.0100
    0.0100    0.0100    0.0100    0.0100    0.0100    0.0100    0.0100    0.0100
    0.0100    0.0100    0.0100    0.0100    0.0100    0.0100    0.0100    0.0100
    0.0100    0.0100    0.0100    0.0100    0.0100    0.0100    0.0100    0.0100
    0.0100    0.0100    0.0100    0.0100    0.0100    0.0100    0.0100    0.0100
    0.0100    0.0100    0.0100    0.0100    0.0100    0.0100    0.0100    0.0100
    0.0100    0.0100    0.0100    0.0100    0.0100    0.0100    0.0100    0.0100
    0.0100    0.0100    0.0100    0.0100    0.0100    0.0100    0.0100    0.0100
    0.0100    0.0100    0.0100    0.0100    0.0100    0.0100    0.0100    0.0100
    0.0100    0.0100    0.0100    0.0100    0.0100    0.0100    0.0100    0.0100
    0.0100    0.0100    0.0100    0.0100    0.0100    0.0100    0.0100    0.0100
    0.0100    0.0100    0.0100    0.0100    0.0100    0.0100    0.0100    0.0100
    0.0100    0.0100    0.0100    0.0100    0.0100    0.0100    0.0100    0.0100
    0.0100    0.0100    0.0100    0.0100    0.0100    0.0100    0.0100    0.0100
    0.0100    0.0100    0.0100    0.0100    0.0100    0.0100    0.0100    0.0100
    0.0100    0.0100    0.0100    0.0100    0.0100    0.0100    0.0100    0.0100
    0.0100    0.0100    0.0100    0.0100    0.0100    0.0100    0.0100    0.0100
    0.0100    0.0100    0.0100    0.0100    0.0100    0.0100    0.0100    0.0100
    0.0100    0.0100    0.0100    0.0100    0.0100    0.0100    0.0100    0.0100
    0.0100    0.0100    0.0100    0.0100    0.0100    0.0100    0.0100    0.0100
    0.0100    0.0100    0.0100    0.0100    0.0100    0.0100    0.0100    0.0100
    0.0100    0.0100    0.0100    0.0100    0.0100    0.0100    0.0100    0.0100
    0.0100    0.0100    0.0100    0.0100    0.0100    0.0100    0.0100    0.0100
    0.0100    0.0100    0.0100    0.0100    0.0100    0.0100    0.0100    0.0100
    0.0100    0.0100    0.0100    0.0100    0.0100    0.0100    0.0100    0.0100
    0.0100    0.0100    0.0100    0.0100    0.0100    0.0100    0.0100    0.0100
    0.0100    0.0100    0.0100    0.0100    0.0100    0.0100    0.0100    0.0100
    0.0100    0.0100    0.0100    0.0100    0.0100    0.0100    0.0100    0.0100
    0.0100    0.0100    0.0100    0.0100    0.0100    0.0100    0.0100    0.0100
    0.0100    0.0100    0.0100    0.0100    0.0100    0.0100    0.0100    0.0100
    0.0100    0.0100    0.0100    0.0100    0.0100    0.0100    0.0100    0.0100
    0.0100    0.0100    0.0100    0.0100    0.0100    0.0100    0.0100    0.0100
    0.0100    0.0100    0.0100    0.0100    0.0100    0.0100    0.0100    0.0100
    0.0100    0.0100    0.0100    0.0100    0.0100    0.0100    0.0100    0.0100
    0.0100    0.0100    0.0100    0.0100    0.0100    0.0100    0.0100    0.0100
    0.0100    0.0100    0.0100    0.0100    0.0100    0.0100    0.0100    0.0100
    0.0100    0.0100    0.0100    0.0100    0.0100    0.0100    0.0100    0.0100
    0.0100    0.0100    0.0100    0.0100    0.0100    0.0100    0.0100    0.0100
    0.0100    0.0100    0.0100    0.0100    0.0100    0.0100    0.0100    0.0100
    0.0100    0.0100    0.0100    0.0100    0.0100    0.0100    0.0100    0.0100
    0.0100    0.0100    0.0100    0.0100    0.0100    0.0100    0.0100    0.0100
    0.0100    0.0100    0.0100    0.0100    0.0100    0.0100    0.0100    0.0100
    0.0100    0.0100    0.0100    0.0100    0.0100    0.0100    0.0100    0.0100
    0.0100    0.0100    0.0100    0.0100    0.0100    0.0100    0.0100    0.0100
    0.0100    0.0100    0.0100    0.0100    0.0100    0.0100    0.0100    0.0100
    0.0100    0.0100    0.0100    0.0100    0.0100    0.0100    0.0100    0.0100
    0.0100    0.0100    0.0100    0.0100    0.0100    0.0100    0.0100    0.0100
    0.0100    0.0100    0.0100    0.0100    0.0100    0.0100    0.0100    0.0100
    0.0100    0.0100    0.0100    0.0100    0.0100    0.0100    0.0100    0.0100
    0.0100    0.0100    0.0100    0.0100    0.0100    0.0100    0.0100    0.0100
    0.0100    0.0100    0.0100    0.0100    0.0100    0.0100    0.0100    0.0100
    0.0100    0.0100    0.0100    0.0100    0.0100    0.0100    0.0100    0.0100
    0.0100    0.0100    0.0100    0.0100    0.0100    0.0100    0.0100    0.0100
    0.0100    0.0100    0.0100    0.0100    0.0100    0.0100    0.0100    0.0100
    0.0100    0.0100    0.0100    0.0100    0.0100    0.0100    0.0100    0.0100
    0.0100    0.0100    0.0100    0.0100    0.0100    0.0100    0.0100    0.0100
    0.0100    0.0100    0.0100    0.0100    0.0100    0.0100    0.0100    0.0100
    0.0100    0.0100    0.0100    0.0100    0.0100    0.0100    0.0100    0.0100
    0.0100    0.0100    0.0100    0.0100    0.0100    0.0100    0.0100    0.0100
    0.0100    0.0100    0.0100    0.0100    0.0100    0.0100    0.0100    0.0100
    0.0100    0.0100    0.0100    0.0100    0.0100    0.0100    0.0100    0.0100
    0.0100    0.0100    0.0100    0.0100    0.0100    0.0100    0.0100    0.0100
    0.0100    0.0100    0.0100    0.0100    0.0100    0.0100    0.0100    0.0100
    0.0100    0.0100    0.0100    0.0100    0.0100    0.0100    0.0100    0.0100
    0.0100    0.0100    0.0100    0.0100    0.0100    0.0100    0.0100    0.0100
    0.0100    0.0100    0.0100    0.0100    0.0100    0.0100    0.0100    0.0100
    0.0100    0.0100    0.0100    0.0100    0.0100    0.0100    0.0100    0.0100
    0.0100    0.0100    0.0100    0.0100    0.0100    0.0100    0.0100    0.0100
    0.0100    0.0100    0.0100    0.0100    0.0100    0.0100    0.0100    0.0100
    0.0100    0.0100    0.0100    0.0100
   </PP_RAB>
 </PP_MESH>
  <PP_LOCAL type="real"  size="1148" columns="4">
   -4.0784734578E+01   -4.0788621644E+01   -4.0786776814E+01   -4.0783701222E+01
   -4.0779393533E+01   -4.0773851836E+01   -4.0767073601E+01   -4.0759055627E+01
   -4.0749793979E+01   -4.0739283924E+01   -4.0727519854E+01   -4.0714495210E+01
   -4.0700202402E+01   -4.0684632733E+01   -4.0667776317E+01   -4.0649622014E+01
   -4.0630157363E+01   -4.0609368519E+01   -4.0587240215E+01   -4.0563755718E+01
   -4.0538896808E+01   -4.0512643770E+01   -4.0484975392E+01   -4.0455868986E+01
   -4.0425300422E+01   -4.0393244167E+01   -4.0359673355E+01   -4.0324559849E+01
   -4.0287874335E+01   -4.0249586410E+01   -4.0209664691E+01   -4.0168076927E+01
   -4.0124790118E+01   -4.0079770638E+01   -4.0032984365E+01   -3.9984396811E+01
   -3.9933973254E+01   -3.9881678868E+01   -3.9827478855E+01   -3.9771338575E+01
   -3.9713223674E+01   -3.9653100209E+01   -3.9590934770E+01   -3.9526694606E+01
   -3.9460347738E+01   -3.9391863083E+01   -3.9321210564E+01   -3.9248361227E+01
   -3.9173287358E+01   -3.9095962588E+01   -3.9016362013E+01   -3.8934462300E+01
   -3.8850241800E+01   -3.8763680663E+01   -3.8674760940E+01   -3.8583466700E+01
   -3.8489784138E+01   -3.8393701679E+01   -3.8295210088E+01   -3.8194302575E+01
   -3.8090974894E+01   -3.7985225443E+01   -3.7877055356E+01   -3.7766468596E+01
   -3.7653472034E+01   -3.7538075524E+01   -3.7420291970E+01   -3.7300137383E+01
   -3.7177630925E+01   -3.7052794940E+01   -3.6925654973E+01   -3.6796239776E+01
   -3.6664581291E+01   -3.6530714627E+01   -3.6394678008E+01   -3.6256512717E+01
   -3.6116263011E+01   -3.5973976025E+01   -3.5829701663E+01   -3.5683492466E+01
   -3.5535403471E+01   -3.5385492058E+01   -3.5233817779E+01   -3.5080442188E+01
   -3.4925428653E+01   -3.4768842167E+01   -3.4610749153E+01   -3.4451217267E+01
   -3.4290315202E+01   -3.4128112486E+01   -3.3964679289E+01   -3.3800086232E+01
   -3.3634404192E+01   -3.3467704126E+01   -3.3300056893E+01   -3.3131533076E+01
   -3.2962202829E+01   -3.2792135712E+01   -3.2621400547E+01   -3.2450065276E+01
   -3.2278196827E+01   -3.2105860987E+01   -3.1933122288E+01   -3.1760043890E+01
   -3.1586687485E+01   -3.1413113195E+01   -3.1239379486E+01   -3.1065543089E+01
   -3.0891658922E+01   -3.0717780029E+01   -3.0543957521E+01   -3.0370240528E+01
   -3.0196676157E+01   -3.0023309464E+01   -2.9850183434E+01   -2.9677338968E+01
   -2.9504814890E+01   -2.9332647957E+01   -2.9160872883E+01   -2.8989522376E+01
   -2.8818627188E+01   -2.8648216174E+01   -2.8478316357E+01   -2.8308953014E+01
   -2.8140149752E+01   -2.7971928606E+01   -2.7804310124E+01   -2.7637313463E+01
   -2.7470956475E+01   -2.7305255786E+01   -2.7140226869E+01   -2.6975884104E+01
   -2.6812240824E+01   -2.6649309346E+01   -2.6487100995E+01   -2.6325626113E+01
   -2.6164894063E+01   -2.6004913238E+01   -2.5845691071E+01   -2.5687234067E+01
   -2.5529547862E+01   -2.5372637311E+01   -2.5216506635E+01   -2.5061159607E+01
   -2.4906599802E+01   -2.4752830911E+01   -2.4599857097E+01   -2.4447683408E+01
   -2.4296316219E+01   -2.4145763681E+01   -2.3996036166E+01   -2.3847146668E+01
   -2.3699111144E+01   -2.3551948758E+01   -2.3405682011E+01   -2.3260336742E+01
   -2.3115941982E+01   -2.2972529666E+01   -2.2830134209E+01   -2.2688791961E+01
   -2.2548540569E+01   -2.2409418274E+01   -2.2271463170E+01   -2.2134712477E+01
   -2.1999201835E+01   -2.1864964670E+01   -2.1732031642E+01   -2.1600430187E+01
   -2.1470184178E+01   -2.1341313682E+01   -2.1213834832E+01   -2.1087759783E+01
   -2.0963096735E+01   -2.0839850047E+01   -2.0718020436E+01   -2.0597605176E+01
   -2.0478598253E+01   -2.0360990555E+01   -2.0244770124E+01   -2.0129922587E+01
   -2.0016430644E+01   -1.9904270618E+01   -1.9793413376E+01   -1.9683832738E+01
   -1.9575508939E+01   -1.9468423309E+01   -1.9362556301E+01   -1.9257888880E+01
   -1.9154402231E+01   -1.9052077811E+01   -1.8950897360E+01   -1.8850842901E+01
   -1.8751896742E+01   -1.8654041462E+01   -1.8557259886E+01   -1.8461535085E+01
   -1.8366850378E+01   -1.8273189313E+01   -1.8180535656E+01   -1.8088873623E+01
   -1.7998187581E+01   -1.7908460166E+01   -1.7819670044E+01   -1.7731794020E+01
   -1.7644812612E+01   -1.7558710558E+01   -1.7473473554E+01   -1.7389086111E+01
   -1.7305533028E+01   -1.7222799657E+01   -1.7140871624E+01   -1.7059734728E+01
   -1.6979375103E+01   -1.6899779173E+01   -1.6820933668E+01   -1.6742825625E+01
   -1.6665442402E+01   -1.6588771677E+01   -1.6512801454E+01   -1.6437519904E+01
   -1.6362915608E+01   -1.6288978505E+01   -1.6215701229E+01   -1.6143078144E+01
   -1.6071102640E+01   -1.5999765644E+01   -1.5929057038E+01   -1.5858967498E+01
   -1.5789488460E+01   -1.5720611467E+01   -1.5652328106E+01   -1.5584630223E+01
   -1.5517509937E+01   -1.5450959543E+01   -1.5384971542E+01   -1.5319538635E+01
   -1.5254653711E+01   -1.5190309842E+01   -1.5126500278E+01   -1.5063218436E+01
   -1.5000457894E+01   -1.4938212388E+01   -1.4876475798E+01   -1.4815242145E+01
   -1.4754505584E+01   -1.4694260395E+01   -1.4634500978E+01   -1.4575221846E+01
   -1.4516417614E+01   -1.4458083001E+01   -1.4400212817E+01   -1.4342801960E+01
   -1.4285845408E+01   -1.4229338216E+01   -1.4173275510E+01   -1.4117652482E+01
   -1.4062464386E+01   -1.4007706532E+01   -1.3953374285E+01   -1.3899463057E+01
   -1.3845968309E+01   -1.3792885545E+01   -1.3740210309E+01   -1.3687938185E+01
   -1.3636064794E+01   -1.3584585790E+01   -1.3533496863E+01   -1.3482793735E+01
   -1.3432472162E+01   -1.3382527929E+01   -1.3332956856E+01   -1.3283754793E+01
   -1.3234917622E+01   -1.3186441260E+01   -1.3138321655E+01   -1.3090554791E+01
   -1.3043136688E+01   -1.2996063404E+01   -1.2949331031E+01   -1.2902935707E+01
   -1.2856873606E+01   -1.2811140947E+01   -1.2765733994E+01   -1.2720649056E+01
   -1.2675882489E+01   -1.2631430699E+01   -1.2587290143E+01   -1.2543457327E+01
   -1.2499928813E+01   -1.2456701215E+01   -1.2413771205E+01   -1.2371135508E+01
   -1.2328790907E+01   -1.2286734242E+01   -1.2244962412E+01   -1.2203472373E+01
   -1.2162261139E+01   -1.2121325782E+01   -1.2080663432E+01   -1.2040271277E+01
   -1.2000146558E+01   -1.1960286576E+01   -1.1920688684E+01   -1.1881350290E+01
   -1.1842268853E+01   -1.1803441883E+01   -1.1764866940E+01   -1.1726541631E+01
   -1.1688463609E+01   -1.1650630570E+01   -1.1613040253E+01   -1.1575690437E+01
   -1.1538578938E+01   -1.1501703607E+01   -1.1465062332E+01   -1.1428653029E+01
   -1.1392473644E+01   -1.1356522153E+01   -1.1320796555E+01   -1.1285294874E+01
   -1.1250015153E+01   -1.1214955459E+01   -1.1180113875E+01   -1.1145488500E+01
   -1.1111077450E+01   -1.1076878854E+01   -1.1042890855E+01   -1.1009111606E+01
   -1.0975539274E+01   -1.0942172032E+01   -1.0909008068E+01   -1.0876045575E+01
   -1.0843282757E+01   -1.0810717828E+01   -1.0778349008E+01   -1.0746174530E+01
   -1.0714192633E+01   -1.0682401568E+01   -1.0650799595E+01   -1.0619384986E+01
   -1.0588156025E+01   -1.0557111006E+01   -1.0526248239E+01   -1.0495566046E+01
   -1.0465062764E+01   -1.0434736747E+01   -1.0404586364E+01   -1.0374610003E+01
   -1.0344806069E+01   -1.0315172987E+01   -1.0285709201E+01   -1.0256413177E+01
   -1.0227283401E+01   -1.0198318381E+01   -1.0169516649E+01   -1.0140876756E+01
   -1.0112397280E+01   -1.0084076820E+01   -1.0055913998E+01   -1.0027907462E+01
   -1.0000055881E+01   -9.9723579446E+00   -9.9448123924E+00   -9.9174179041E+00
   -9.8901731132E+00   -9.8630770735E+00   -9.8361292078E+00   -9.8093281592E+00
   -9.7826711455E+00   -9.7561555494E+00   -9.7297794678E+00   -9.7035418171E+00
   -9.6774445092E+00   -9.6514900562E+00   -9.6256786537E+00   -9.6000085620E+00
   -9.5744772922E+00   -9.5490820433E+00   -9.5238203419E+00   -9.4986913804E+00
   -9.4736947313E+00   -9.4488293486E+00   -9.4240941599E+00   -9.3994881399E+00
   -9.3750102814E+00   -9.3506595715E+00   -9.3264350267E+00   -9.3023356738E+00
   -9.2783605433E+00   -9.2545086769E+00   -9.2307791264E+00   -9.2071709536E+00
   -9.1836832295E+00   -9.1603150348E+00   -9.1370654593E+00   -9.1139336022E+00
   -9.0909185717E+00   -9.0680194851E+00   -9.0452354684E+00   -9.0225656565E+00
   -9.0000091929E+00   -8.9775652296E+00   -8.9552329271E+00   -8.9330114543E+00
   -8.9108999881E+00   -8.8888977137E+00   -8.8670038243E+00   -8.8452175211E+00
   -8.8235380130E+00   -8.8019645167E+00   -8.7804962565E+00   -8.7591324643E+00
   -8.7378723794E+00   -8.7167152485E+00   -8.6956603257E+00   -8.6747068720E+00
   -8.6538541558E+00   -8.6331014523E+00   -8.6124480438E+00   -8.5918932194E+00
   -8.5714362748E+00   -8.5510765127E+00   -8.5308132422E+00   -8.5106457789E+00
   -8.4905734450E+00   -8.4705955691E+00   -8.4507114859E+00   -8.4309205365E+00
   -8.4112220681E+00   -8.3916154340E+00   -8.3720999935E+00   -8.3526751119E+00
   -8.3333401603E+00   -8.3140945156E+00   -8.2949375606E+00   -8.2758686836E+00
   -8.2568872785E+00   -8.2379927449E+00   -8.2191844879E+00   -8.2004619177E+00
   -8.1818244503E+00   -8.1632715067E+00   -8.1448025131E+00   -8.1264169012E+00
   -8.1081141076E+00   -8.0898935738E+00   -8.0717547467E+00   -8.0536970778E+00
   -8.0357200238E+00   -8.0178230460E+00   -8.0000056105E+00   -7.9822671882E+00
   -7.9646072549E+00   -7.9470252906E+00   -7.9295207802E+00   -7.9120932129E+00
   -7.8947420827E+00   -7.8774668877E+00   -7.8602671305E+00   -7.8431423182E+00
   -7.8260919619E+00   -7.8091155771E+00   -7.7922126835E+00   -7.7753828049E+00
   -7.7586254693E+00   -7.7419402086E+00   -7.7253265588E+00   -7.7087840600E+00
   -7.6923122560E+00   -7.6759106946E+00   -7.6595789275E+00   -7.6433165102E+00
   -7.6271230018E+00   -7.6109979653E+00   -7.5949409674E+00   -7.5789515783E+00
   -7.5630293720E+00   -7.5471739259E+00   -7.5313848210E+00   -7.5156616418E+00
   -7.5000039763E+00   -7.4844114159E+00   -7.4688835554E+00   -7.4534199929E+00
   -7.4380203299E+00   -7.4226841711E+00   -7.4074111246E+00   -7.3922008014E+00
   -7.3770528162E+00   -7.3619667863E+00   -7.3469423326E+00   -7.3319790787E+00
   -7.3170766516E+00   -7.3022346810E+00   -7.2874527998E+00   -7.2727306438E+00
   -7.2580678519E+00   -7.2434640656E+00   -7.2289189295E+00   -7.2144320911E+00
   -7.2000032004E+00   -7.1856319106E+00   -7.1713178774E+00   -7.1570607592E+00
   -7.1428602174E+00   -7.1287159159E+00   -7.1146275211E+00   -7.1005947023E+00
   -7.0866171312E+00   -7.0726944823E+00   -7.0588264324E+00   -7.0450126611E+00
   -7.0312528503E+00   -7.0175466843E+00   -7.0038938502E+00   -6.9902940372E+00
   -6.9767469371E+00   -6.9632522440E+00   -6.9498096544E+00   -6.9364188671E+00
   -6.9230795832E+00   -6.9097915062E+00   -6.8965543417E+00   -6.8833677978E+00
   -6.8702315845E+00   -6.8571454144E+00   -6.8441090019E+00   -6.8311220639E+00
   -6.8181843192E+00   -6.8052954888E+00   -6.7924552959E+00   -6.7796634657E+00
   -6.7669197253E+00   -6.7542238043E+00   -6.7415754338E+00   -6.7289743473E+00
   -6.7164202801E+00   -6.7039129696E+00   -6.6914521549E+00   -6.6790375773E+00
   -6.6666689800E+00   -6.6543461079E+00   -6.6420687079E+00   -6.6298365289E+00
   -6.6176493214E+00   -6.6055068379E+00   -6.5934088326E+00   -6.5813550616E+00
   -6.5693452827E+00   -6.5573792556E+00   -6.5454567415E+00   -6.5335775036E+00
   -6.5217413067E+00   -6.5099479172E+00   -6.4981971033E+00   -6.4864886350E+00
   -6.4748222837E+00   -6.4631978225E+00   -6.4516150263E+00   -6.4400736714E+00
   -6.4285735359E+00   -6.4171143992E+00   -6.4056960426E+00   -6.3943182487E+00
   -6.3829808018E+00   -6.3716834876E+00   -6.3604260934E+00   -6.3492084080E+00
   -6.3380302216E+00   -6.3268913261E+00   -6.3157915145E+00   -6.3047305816E+00
   -6.2937083234E+00   -6.2827245374E+00   -6.2717790226E+00   -6.2608715793E+00
   -6.2500020092E+00   -6.2391701154E+00   -6.2283757022E+00   -6.2176185756E+00
   -6.2068985426E+00   -6.1962154118E+00   -6.1855689928E+00   -6.1749590968E+00
   -6.1643855361E+00   -6.1538481245E+00   -6.1433466768E+00   -6.1328810092E+00
   -6.1224509392E+00   -6.1120562855E+00   -6.1016968680E+00   -6.0913725078E+00
   -6.0810830272E+00   -6.0708282498E+00   -6.0606080004E+00   -6.0504221048E+00
   -6.0402703901E+00   -6.0301526845E+00   -6.0200688175E+00   -6.0100186195E+00
   -6.0000019221E+00   -5.9900185583E+00   -5.9800683618E+00   -5.9701511677E+00
   -5.9602668119E+00   -5.9504151318E+00   -5.9405959654E+00   -5.9308091522E+00
   -5.9210545325E+00   -5.9113319476E+00   -5.9016412401E+00   -5.8919822534E+00
   -5.8823548320E+00   -5.8727588214E+00   -5.8631940683E+00   -5.8536604200E+00
   -5.8441577251E+00   -5.8346858331E+00   -5.8252445945E+00   -5.8158338607E+00
   -5.8064534840E+00   -5.7971033180E+00   -5.7877832167E+00   -5.7784930355E+00
   -5.7692326305E+00   -5.7600018588E+00   -5.7508005784E+00   -5.7416286481E+00
   -5.7324859277E+00   -5.7233722780E+00   -5.7142875605E+00   -5.7052316376E+00
   -5.6962043727E+00   -5.6872056299E+00   -5.6782352743E+00   -5.6692931718E+00
   -5.6603791890E+00   -5.6514931936E+00   -5.6426350540E+00   -5.6338046393E+00
   -5.6250018197E+00   -5.6162264659E+00   -5.6074784496E+00   -5.5987576433E+00
   -5.5900639202E+00   -5.5813971544E+00   -5.5727572206E+00   -5.5641439944E+00
   -5.5555573523E+00   -5.5469971712E+00   -5.5384633291E+00   -5.5299557047E+00
   -5.5214741772E+00   -5.5130186268E+00   -5.5045889342E+00   -5.4961849812E+00
   -5.4878066499E+00   -5.4794538235E+00   -5.4711263854E+00   -5.4628242204E+00
   -5.4545472133E+00   -5.4462952501E+00   -5.4380682173E+00   -5.4298660020E+00
   -5.4216884921E+00   -5.4135355762E+00   -5.4054071435E+00   -5.3973030839E+00
   -5.3892232879E+00   -5.3811676467E+00   -5.3731360521E+00   -5.3651283967E+00
   -5.3571445735E+00   -5.3491844764E+00   -5.3412479997E+00   -5.3333350384E+00
   -5.3254454882E+00   -5.3175792454E+00   -5.3097362068E+00   -5.3019162699E+00
   -5.2941193327E+00   -5.2863452941E+00   -5.2785940531E+00   -5.2708655097E+00
   -5.2631595644E+00   -5.2554761181E+00   -5.2478150726E+00   -5.2401763298E+00
   -5.2325597927E+00   -5.2249653646E+00   -5.2173929492E+00   -5.2098424510E+00
   -5.2023137751E+00   -5.1948068269E+00   -5.1873215125E+00   -5.1798577385E+00
   -5.1724154122E+00   -5.1649944411E+00   -5.1575947335E+00   -5.1502161982E+00
   -5.1428587443E+00   -5.1355222817E+00   -5.1282067207E+00   -5.1209119721E+00
   -5.1136379471E+00   -5.1063845577E+00   -5.0991517161E+00   -5.0919393350E+00
   -5.0847473280E+00   -5.0775756086E+00   -5.0704240912E+00   -5.0632926906E+00
   -5.0561813220E+00   -5.0490899011E+00   -5.0420183440E+00   -5.0349665676E+00
   -5.0279344888E+00   -5.0209220252E+00   -5.0139290950E+00   -5.0069556165E+00
   -5.0000015088E+00   -4.9930666913E+00   -4.9861510837E+00   -4.9792546065E+00
   -4.9723771802E+00   -4.9655187261E+00   -4.9586791659E+00   -4.9518584214E+00
   -4.9450564152E+00   -4.9382730703E+00   -4.9315083097E+00   -4.9247620574E+00
   -4.9180342375E+00   -4.9113247745E+00   -4.9046335934E+00   -4.8979606195E+00
   -4.8913057788E+00   -4.8846689972E+00   -4.8780502015E+00   -4.8714493187E+00
   -4.8648662760E+00   -4.8583010013E+00   -4.8517534228E+00   -4.8452234689E+00
   -4.8387110687E+00   -4.8322161514E+00   -4.8257386467E+00   -4.8192784848E+00
   -4.8128355959E+00   -4.8064099111E+00   -4.8000013614E+00   -4.7936098783E+00
   -4.7872353939E+00   -4.7808778404E+00   -4.7745371504E+00   -4.7682132569E+00
   -4.7619060933E+00   -4.7556155933E+00   -4.7493416908E+00   -4.7430843204E+00
   -4.7368434167E+00   -4.7306189149E+00   -4.7244107503E+00   -4.7182188587E+00
   -4.7120431763E+00   -4.7058836395E+00   -4.6997401850E+00   -4.6936127499E+00
   -4.6875012716E+00   -4.6814056880E+00   -4.6753259370E+00   -4.6692619571E+00
   -4.6632136870E+00   -4.6571810657E+00   -4.6511640326E+00   -4.6451625273E+00
   -4.6391764898E+00   -4.6332058603E+00   -4.6272505795E+00   -4.6213105883E+00
   -4.6153858278E+00   -4.6094762395E+00   -4.6035817653E+00   -4.5977023471E+00
   -4.5918379275E+00   -4.5859884491E+00   -4.5801538549E+00   -4.5743340880E+00
   -4.5685290922E+00   -4.5627388111E+00   -4.5569631890E+00   -4.5512021703E+00
   -4.5454556996E+00   -4.5397237218E+00   -4.5340061823E+00   -4.5283030265E+00
   -4.5226142003E+00   -4.5169396496E+00   -4.5112793209E+00   -4.5056331607E+00
   -4.5000011159E+00   -4.4943831337E+00   -4.4887791614E+00   -4.4831891466E+00
   -4.4776130374E+00   -4.4720507819E+00   -4.4665023284E+00   -4.4609676258E+00
   -4.4554466230E+00   -4.4499392691E+00   -4.4444455136E+00   -4.4389653062E+00
   -4.4334985969E+00   -4.4280453358E+00   -4.4226054734E+00   -4.4171789603E+00
   -4.4117657475E+00   -4.4063657862E+00   -4.4009790277E+00   -4.3956054237E+00
   -4.3902449260E+00   -4.3848974868E+00   -4.3795630584E+00   -4.3742415933E+00
   -4.3689330445E+00   -4.3636373648E+00   -4.3583545077E+00   -4.3530844265E+00
   -4.3478270749E+00   -4.3425824070E+00   -4.3373503768E+00   -4.3321309387E+00
   -4.3269240474E+00   -4.3217296576E+00   -4.3165477244E+00   -4.3113782030E+00
   -4.3062210489E+00   -4.3010762177E+00   -4.2959436654E+00   -4.2908233480E+00
   -4.2857152218E+00   -4.2806192434E+00   -4.2755353695E+00   -4.2704635569E+00
   -4.2654037629E+00   -4.2603559447E+00   -4.2553200599E+00   -4.2502960662E+00
   -4.2452839216E+00   -4.2402835841E+00   -4.2352950121E+00   -4.2303181642E+00
   -4.2253529990E+00   -4.2203994755E+00   -4.2154575527E+00   -4.2105271900E+00
   -4.2056083468E+00   -4.2007009828E+00   -4.1958050580E+00   -4.1909205322E+00
   -4.1860473659E+00   -4.1811855193E+00   -4.1763349531E+00   -4.1714956281E+00
   -4.1666675052E+00   -4.1618505456E+00   -4.1570447107E+00   -4.1522499619E+00
   -4.1474662609E+00   -4.1426935695E+00   -4.1379318499E+00   -4.1331810642E+00
   -4.1284411748E+00   -4.1237121443E+00   -4.1189939353E+00   -4.1142865109E+00
   -4.1095898340E+00   -4.1049038678E+00   -4.1002285759E+00   -4.0955639217E+00
   -4.0909098690E+00   -4.0862663817E+00   -4.0816334239E+00   -4.0770109597E+00
   -4.0723989536E+00   -4.0677973701E+00   -4.0632061740E+00   -4.0586253300E+00
   -4.0540548033E+00   -4.0494945590E+00   -4.0449445624E+00   -4.0404047791E+00
   -4.0358751746E+00   -4.0313557149E+00   -4.0268463658E+00   -4.0223470935E+00
   -4.0178578642E+00   -4.0133786443E+00   -4.0089094005E+00   -4.0044500993E+00
   -4.0000007077E+00   -3.9955611927E+00   -3.9911315214E+00   -3.9867116611E+00
   -3.9823015793E+00   -3.9779012435E+00   -3.9735106215E+00   -3.9691296811E+00
   -3.9647583904E+00   -3.9603967175E+00   -3.9560446307E+00   -3.9517020984E+00
   -3.9473690893E+00   -3.9430455719E+00   -3.9387315152E+00   -3.9344268881E+00
   -3.9301316598E+00   -3.9258457995E+00   -3.9215692766E+00   -3.9173020607E+00
   -3.9130441212E+00   -3.9087954281E+00   -3.9045559513E+00   -3.9003256608E+00
   -3.8961045268E+00   -3.8918925195E+00   -3.8876896095E+00   -3.8834957672E+00
   -3.8793109634E+00   -3.8751351689E+00   -3.8709683546E+00   -3.8668104915E+00
   -3.8626615509E+00   -3.8585215041E+00   -3.8543903225E+00   -3.8502679777E+00
   -3.8461544412E+00   -3.8420496850E+00   -3.8379536810E+00   -3.8338664012E+00
   -3.8297878177E+00   -3.8257179028E+00   -3.8216566289E+00   -3.8176039686E+00
   -3.8135598944E+00   -3.8095243791E+00   -3.8054973956E+00   -3.8014789168E+00
   -3.7974689158E+00   -3.7934673658E+00   -3.7894742401E+00   -3.7854895122E+00
   -3.7815131555E+00   -3.7775451438E+00   -3.7735854508E+00   -3.7696340503E+00
   -3.7656909164E+00   -3.7617560231E+00   -3.7578293446E+00   -3.7539108552E+00
   -3.7500005294E+00   -3.7460983416E+00   -3.7422042664E+00   -3.7383182787E+00
   -3.7344403532E+00   -3.7305704648E+00   -3.7267085886E+00   -3.7228546998E+00
   -3.7190087735E+00   -3.7151707852E+00   -3.7113407103E+00   -3.7075185243E+00
   -3.7037042029E+00   -3.6998977218E+00   -3.6960990569E+00   -3.6923081842E+00
   -3.6885250796E+00   -3.6847497194E+00   -3.6809820798E+00   -3.6772221371E+00
   -3.6734698677E+00   -3.6697252482E+00   -3.6659882553E+00   -3.6622588656E+00
   -3.6585370560E+00   -3.6548228033E+00   -3.6511160846E+00   -3.6474168771E+00
   -3.6437251578E+00   -3.6400409041E+00   -3.6363640933E+00   -3.6326947029E+00
   -3.6290327105E+00   -3.6253780937E+00   -3.6217308303E+00   -3.6180908980E+00
   -3.6144582749E+00   -3.6108329389E+00   -3.6072148681E+00   -3.6036040407E+00
   -3.6000004349E+00   -3.5964040292E+00   -3.5928148019E+00   -3.5892327316E+00
   -3.5856577969E+00   -3.5820899766E+00   -3.5785292493E+00   -3.5749755939E+00
   -3.5714289895E+00   -3.5678894150E+00   -3.5643568496E+00   -3.5608312725E+00
   -3.5573126629E+00   -3.5538010002E+00   -3.5502962639E+00   -3.5467984334E+00
   -3.5433074885E+00   -3.5398234087E+00   -3.5363461740E+00   -3.5328757640E+00
   -3.5294121587E+00   -3.5259553382E+00   -3.5225052825E+00   -3.5190619718E+00
   -3.5156253863E+00   -3.5121955063E+00   -3.5087723123E+00   -3.5053557847E+00
   -3.5019459040E+00   -3.4985426509E+00   -3.4951460060E+00   -3.4917559502E+00
   -3.4883724643E+00   -3.4849955292E+00   -3.4816251258E+00   -3.4782612354E+00
   -3.4749038389E+00   -3.4715529176E+00   -3.4682084529E+00   -3.4648704260E+00
   -3.4615388184E+00   -3.4582136116E+00   -3.4548947871E+00   -3.4515823267E+00
   -3.4482762119E+00   -3.4449764247E+00   -3.4416829468E+00   -3.4383957602E+00
   -3.4351148468E+00   -3.4318401888E+00   -3.4285717682E+00   -3.4253095672E+00
   -3.4220535682E+00   -3.4188037534E+00   -3.4155601052E+00   -3.4123226061E+00
   -3.4090912387E+00   -3.4058659855E+00   -3.4026468292E+00   -3.3994337525E+00
   -3.3962267382E+00   -3.3930257692E+00   -3.3898308284E+00   -3.3866418988E+00
   -3.3834589634E+00   -3.3802820054E+00   -3.3771110078E+00   -3.3739459541E+00
   -3.3707868274E+00   -3.3676336112E+00   -3.3644862888E+00   -3.3613448438E+00
   -3.3582092597E+00   -3.3550795201E+00   -3.3519556087E+00   -3.3488375092E+00
   -3.3457252055E+00   -3.3426186814E+00   -3.3395179207E+00   -3.3364229076E+00
   -3.3333336259E+00   -3.3302500599E+00   -3.3271721936E+00   -3.3241000112E+00
   -3.3210334972E+00   -3.3179726356E+00   -3.3149174111E+00   -3.3118678079E+00
   -3.3088238106E+00   -3.3057854037E+00   -3.3027525720E+00   -3.2997252999E+00
   -3.2967035723E+00   -3.2936873740E+00   -3.2906766897E+00   -3.2876715044E+00
   -3.2846718030E+00   -3.2816775706E+00   -3.2786887921E+00   -3.2757054527E+00
   -3.2727275376E+00   -3.2697550320E+00   -3.2667879211E+00   -3.2638261902E+00
   -3.2608698249E+00   -3.2579188104E+00   -3.2549731323E+00   -3.2520327761E+00
   -3.2490977275E+00   -3.2461679719E+00   -3.2432434953E+00   -3.2403242832E+00
   -3.2374103215E+00   -3.2345015960E+00   -3.2315980927E+00   -3.2286997974E+00
   -3.2258066962E+00   -3.2229187752E+00   -3.2200360204E+00   -3.2171584179E+00
   -3.2142859541E+00   -3.2114186150E+00   -3.2085563871E+00   -3.2056992567E+00
   -3.2028472101E+00   -3.2000002339E+00   -3.1971583144E+00   -3.1943214383E+00
   -3.1914895921E+00   -3.1886627625E+00   -3.1858409361E+00   -3.1830240997E+00
   -3.1802122400E+00   -3.1774053439E+00   -3.1746033982E+00   -3.1718063899E+00
   -3.1690143059E+00   -3.1662271333E+00   -3.1634448590E+00   -3.1606674701E+00
   -3.1578949539E+00   -3.1551272975E+00   -3.1523644881E+00   -3.1496065131E+00
   -3.1468533596E+00   -3.1441050152E+00   -3.1413614672E+00   -3.1386227031E+00
  </PP_LOCAL>
 <PP_NONLOCAL>
   <PP_BETA.1
       type="real"
       size="1148"
       columns="4"
       index="1"
       angular_momentum="0"
       cutoff_radius_index=" 228"
       cutoff_radius="    2.2700000000E+00" >
   -1.6428330918E-10    3.5899150600E-02    7.1713347419E-02    1.0735827237E-01
    1.4275087344E-01    1.7780998449E-01    2.1245692926E-01    2.4661610452E-01
    2.8021553754E-01    3.1318741301E-01    3.4546856513E-01    3.7700093063E-01
    4.0773195875E-01    4.3761497478E-01    4.6660949394E-01    4.9468148282E-01
    5.2180356607E-01    5.4795517630E-01    5.7312264597E-01    5.9729923998E-01
    6.2048512871E-01    6.4268730128E-01    6.6391941961E-01    6.8420161407E-01
    7.0356022237E-01    7.2202747325E-01    7.3964111759E-01    7.5644400954E-01
    7.7248364101E-01    7.8781163289E-01    8.0248318728E-01    8.1655650479E-01
    8.3009217160E-01    8.4315252126E-01    8.5580097626E-01    8.6810137481E-01
    8.8011728821E-01    8.9191133459E-01    9.0354449453E-01    9.1507543449E-01
    9.2655984353E-01    9.3804978922E-01    9.4959309807E-01    9.6123276600E-01
    9.7300640409E-01    9.8494572441E-01    9.9707607088E-01    1.0094159993E+00
    1.0219769107E+00    1.0347627418E+00    1.0477697155E+00    1.0609861542E+00
    1.0743923589E+00    1.0879605548E+00    1.1016549059E+00    1.1154315980E+00
    1.1292389922E+00    1.1430178464E+00    1.1567016057E+00    1.1702167595E+00
    1.1834832637E+00    1.1964150249E+00    1.2089204447E+00    1.2209030192E+00
    1.2322619913E+00    1.2428930504E+00    1.2526890746E+00    1.2615409110E+00
    1.2693381880E+00    1.2759701534E+00    1.2813265335E+00    1.2852984051E+00
    1.2877790756E+00    1.2886649635E+00    1.2878564723E+00    1.2852588532E+00
    1.2807830469E+00    1.2743465004E+00    1.2658739508E+00    1.2552981711E+00
    1.2425606705E+00    1.2276123451E+00    1.2104140714E+00    1.1909372407E+00
    1.1691642261E+00    1.1450887810E+00    1.1187163635E+00    1.0900643851E+00
    1.0591623785E+00    1.0260520865E+00    9.9078746596E-01    9.5343460993E-01
    9.1407158503E-01    8.7278818603E-01    8.2968560785E-01    7.8487603706E-01
    7.3848216486E-01    6.9063662457E-01    6.4148135695E-01    5.9116690737E-01
    5.3985165931E-01    4.8770100920E-01    4.3488648807E-01    3.8158483579E-01
    3.2797703425E-01    2.7424730597E-01    2.2058208498E-01    1.6716896711E-01
    1.1419564677E-01    6.1848847845E-02    1.0313255758E-02   -4.0229541529E-02
   -8.9602096439E-02   -1.3763212127E-01   -1.8415347718E-01   -2.2900712578E-01
   -2.7204203675E-01   -3.1311604517E-01   -3.5209665265E-01   -3.8886176678E-01
   -4.2330037382E-01   -4.5531314014E-01   -4.8481293831E-01   -5.1172529442E-01
   -5.3598875376E-01   -5.5755516251E-01   -5.7638986396E-01   -5.9247180793E-01
   -6.0579357339E-01   -6.1636130415E-01   -6.2419455879E-01   -6.2932607618E-01
   -6.3180145873E-01   -6.3167877617E-01   -6.2902809299E-01   -6.2393092344E-01
   -6.1647961843E-01   -6.0677668902E-01   -5.9493407185E-01   -5.8107234197E-01
   -5.6531987913E-01   -5.4781199374E-01   -5.2869001894E-01   -5.0810037549E-01
   -4.8619361627E-01   -4.6312345736E-01   -4.3904580244E-01   -4.1411776763E-01
   -3.8849671344E-01   -3.6233929057E-01   -3.3580050610E-01   -3.0903281631E-01
   -2.8218525218E-01   -2.5540258326E-01   -2.2882452524E-01   -2.0258499620E-01
   -1.7681142603E-01   -1.5162412310E-01   -1.2713570180E-01   -1.0345057405E-01
   -8.0664507238E-02   -5.8864250843E-02   -3.8127233086E-02   -1.8521328676E-02
   -1.0469808850E-04    1.7074301700E-02    3.2977135619E-02    4.7575039123E-02
    6.0848898603E-02    7.2789065617E-02    8.3395107380E-02    9.2675496374E-02
    1.0064724231E-01    1.0733546999E-01    1.1277294686E-01    1.1699956451E-01
    1.2006177823E-01    1.2201200929E-01    1.2290801444E-01    1.2281222733E-01
    1.2179107881E-01    1.1991428876E-01    1.1725422075E-01    1.1388534221E-01
    1.0988366897E-01    1.0532614504E-01    1.0029004231E-01    9.4852375095E-02
    8.9089334260E-02    8.3075744124E-02    7.6884544720E-02    7.0586301877E-02
    6.4248747115E-02    5.7936349039E-02    5.1709917535E-02    4.5626241723E-02
    3.9737762239E-02    3.4092278087E-02    2.8732687950E-02    2.3696765519E-02
    1.9016968096E-02    1.4720277425E-02    1.0828071435E-02    7.3560253668E-03
    4.3140404777E-03    1.7061983936E-03   -4.6925970408E-04   -2.2199348751E-03
   -3.5593083215E-03   -4.5064366960E-03   -5.0865255018E-03   -5.3355506602E-03
   -5.2978529505E-03   -5.0089355500E-03   -4.5100823189E-03   -3.8499371390E-03
   -3.0834853919E-03   -2.2720428217E-03   -1.4838879717E-03   -7.8673965712E-04
   -2.7256946355E-04   -2.5589732637E-05    1.5182322448E-05   -4.2765246748E-06
    1.3559199115E-07    4.6108385413E-07   -3.4555397602E-09    0.0000000000E+00
 0. 0. 0. 0.
 0. 0. 0. 0.
 0. 0. 0. 0.
 0. 0. 0. 0.
 0. 0. 0. 0.
 0. 0. 0. 0.
 0. 0. 0. 0.
 0. 0. 0. 0.
 0. 0. 0. 0.
 0. 0. 0. 0.
 0. 0. 0. 0.
 0. 0. 0. 0.
 0. 0. 0. 0.
 0. 0. 0. 0.
 0. 0. 0. 0.
 0. 0. 0. 0.
 0. 0. 0. 0.
 0. 0. 0. 0.
 0. 0. 0. 0.
 0. 0. 0. 0.
 0. 0. 0. 0.
 0. 0. 0. 0.
 0. 0. 0. 0.
 0. 0. 0. 0.
 0. 0. 0. 0.
 0. 0. 0. 0.
 0. 0. 0. 0.
 0. 0. 0. 0.
 0. 0. 0. 0.
 0. 0. 0. 0.
 0. 0. 0. 0.
 0. 0. 0. 0.
 0. 0. 0. 0.
 0. 0. 0. 0.
 0. 0. 0. 0.
 0. 0. 0. 0.
 0. 0. 0. 0.
 0. 0. 0. 0.
 0. 0. 0. 0.
 0. 0. 0. 0.
 0. 0. 0. 0.
 0. 0. 0. 0.
 0. 0. 0. 0.
 0. 0. 0. 0.
 0. 0. 0. 0.
 0. 0. 0. 0.
 0. 0. 0. 0.
 0. 0. 0. 0.
 0. 0. 0. 0.
 0. 0. 0. 0.
 0. 0. 0. 0.
 0. 0. 0. 0.
 0. 0. 0. 0.
 0. 0. 0. 0.
 0. 0. 0. 0.
 0. 0. 0. 0.
 0. 0. 0. 0.
 0. 0. 0. 0.
 0. 0. 0. 0.
 0. 0. 0. 0.
 0. 0. 0. 0.
 0. 0. 0. 0.
 0. 0. 0. 0.
 0. 0. 0. 0.
 0. 0. 0. 0.
 0. 0. 0. 0.
 0. 0. 0. 0.
 0. 0. 0. 0.
 0. 0. 0. 0.
 0. 0. 0. 0.
 0. 0. 0. 0.
 0. 0. 0. 0.
 0. 0. 0. 0.
 0. 0. 0. 0.
 0. 0. 0. 0.
 0. 0. 0. 0.
 0. 0. 0. 0.
 0. 0. 0. 0.
 0. 0. 0. 0.
 0. 0. 0. 0.
 0. 0. 0. 0.
 0. 0. 0. 0.
 0. 0. 0. 0.
 0. 0. 0. 0.
 0. 0. 0. 0.
 0. 0. 0. 0.
 0. 0. 0. 0.
 0. 0. 0. 0.
 0. 0. 0. 0.
 0. 0. 0. 0.
 0. 0. 0. 0.
 0. 0. 0. 0.
 0. 0. 0. 0.
 0. 0. 0. 0.
 0. 0. 0. 0.
 0. 0. 0. 0.
 0. 0. 0. 0.
 0. 0. 0. 0.
 0. 0. 0. 0.
 0. 0. 0. 0.
 0. 0. 0. 0.
 0. 0. 0. 0.
 0. 0. 0. 0.
 0. 0. 0. 0.
 0. 0. 0. 0.
 0. 0. 0. 0.
 0. 0. 0. 0.
 0. 0. 0. 0.
 0. 0. 0. 0.
 0. 0. 0. 0.
 0. 0. 0. 0.
 0. 0. 0. 0.
 0. 0. 0. 0.
 0. 0. 0. 0.
 0. 0. 0. 0.
 0. 0. 0. 0.
 0. 0. 0. 0.
 0. 0. 0. 0.
 0. 0. 0. 0.
 0. 0. 0. 0.
 0. 0. 0. 0.
 0. 0. 0. 0.
 0. 0. 0. 0.
 0. 0. 0. 0.
 0. 0. 0. 0.
 0. 0. 0. 0.
 0. 0. 0. 0.
 0. 0. 0. 0.
 0. 0. 0. 0.
 0. 0. 0. 0.
 0. 0. 0. 0.
 0. 0. 0. 0.
 0. 0. 0. 0.
 0. 0. 0. 0.
 0. 0. 0. 0.
 0. 0. 0. 0.
 0. 0. 0. 0.
 0. 0. 0. 0.
 0. 0. 0. 0.
 0. 0. 0. 0.
 0. 0. 0. 0.
 0. 0. 0. 0.
 0. 0. 0. 0.
 0. 0. 0. 0.
 0. 0. 0. 0.
 0. 0. 0. 0.
 0. 0. 0. 0.
 0. 0. 0. 0.
 0. 0. 0. 0.
 0. 0. 0. 0.
 0. 0. 0. 0.
 0. 0. 0. 0.
 0. 0. 0. 0.
 0. 0. 0. 0.
 0. 0. 0. 0.
 0. 0. 0. 0.
 0. 0. 0. 0.
 0. 0. 0. 0.
 0. 0. 0. 0.
 0. 0. 0. 0.
 0. 0. 0. 0.
 0. 0. 0. 0.
 0. 0. 0. 0.
 0. 0. 0. 0.
 0. 0. 0. 0.
 0. 0. 0. 0.
 0. 0. 0. 0.
 0. 0. 0. 0.
 0. 0. 0. 0.
 0. 0. 0. 0.
 0. 0. 0. 0.
 0. 0. 0. 0.
 0. 0. 0. 0.
 0. 0. 0. 0.
 0. 0. 0. 0.
 0. 0. 0. 0.
 0. 0. 0. 0.
 0. 0. 0. 0.
 0. 0. 0. 0.
 0. 0. 0. 0.
 0. 0. 0. 0.
 0. 0. 0. 0.
 0. 0. 0. 0.
 0. 0. 0. 0.
 0. 0. 0. 0.
 0. 0. 0. 0.
 0. 0. 0. 0.
 0. 0. 0. 0.
 0. 0. 0. 0.
 0. 0. 0. 0.
 0. 0. 0. 0.
 0. 0. 0. 0.
 0. 0. 0. 0.
 0. 0. 0. 0.
 0. 0. 0. 0.
 0. 0. 0. 0.
 0. 0. 0. 0.
 0. 0. 0. 0.
 0. 0. 0. 0.
 0. 0. 0. 0.
 0. 0. 0. 0.
 0. 0. 0. 0.
 0. 0. 0. 0.
 0. 0. 0. 0.
 0. 0. 0. 0.
 0. 0. 0. 0.
 0. 0. 0. 0.
 0. 0. 0. 0.
 0. 0. 0. 0.
 0. 0. 0. 0.
 0. 0. 0. 0.
 0. 0. 0. 0.
 0. 0. 0. 0.
 0. 0. 0. 0.
 0. 0. 0. 0.
 0. 0. 0. 0.
 0. 0. 0. 0.
 0. 0. 0. 0.
 0. 0. 0. 0.
 0. 0. 0. 0.
 0. 0. 0. 0.
 0. 0. 0. 0.
 0. 0. 0. 0.
 0. 0. 0. 0.
 0. 0. 0. 0.
 0. 0. 0. 0.
 0. 0. 0. 0.
 0. 0. 0. 0.
 0. 0. 0. 0.
 0. 0. 0. 0.
   </PP_BETA.1>
   <PP_BETA.2
       type="real"
       size="1148"
       columns="4"
       index="2"
       angular_momentum="0"
       cutoff_radius_index=" 228"
       cutoff_radius="    2.2700000000E+00" >
    2.0031288434E-10   -6.8344205741E-03   -1.3606084230E-02   -2.0252840354E-02
   -2.6713745088E-02   -3.2929650123E-02   -3.8843774149E-02   -4.4402251390E-02
   -4.9554651894E-02   -5.4254468477E-02   -5.8459565494E-02   -6.2132584992E-02
   -6.5241306116E-02   -6.7758954104E-02   -6.9664455623E-02   -7.0942637669E-02
   -7.1584367789E-02   -7.1586633862E-02   -7.0952562259E-02   -6.9691373730E-02
   -6.7818276933E-02   -6.5354300112E-02   -6.2326061957E-02   -5.8765483287E-02
   -5.4709441703E-02   -5.0199371943E-02   -4.5280815139E-02   -4.0002920723E-02
   -3.4417905140E-02   -2.8580472014E-02   -2.2547198763E-02   -1.6375895058E-02
   -1.0124938799E-02   -3.8525955827E-03    2.3836721593E-03    8.5279000102E-03
    1.4526313927E-02    2.0328013585E-02    2.5885640169E-02    3.1156022120E-02
    3.6100792464E-02    4.0686971488E-02    4.4887508763E-02    4.8681778783E-02
    5.2056024791E-02    5.5003745772E-02    5.7526021967E-02    5.9631774769E-02
    6.1337957342E-02    6.2669672857E-02    6.3660217813E-02    6.4351048526E-02
    6.4791669478E-02    6.5039442897E-02    6.5159319594E-02    6.5223491724E-02
    6.5310968886E-02    6.5507079574E-02    6.5902900717E-02    6.6594618674E-02
    6.7682825689E-02    6.9271756428E-02    7.1468469798E-02    7.4381981795E-02
    7.8122355650E-02    8.2799755963E-02    8.8523474000E-02    9.5400931605E-02
    1.0353667156E-01    1.1303134244E-01    1.2398068610E-01    1.3647453637E-01
    1.5059583699E-01    1.6641968758E-01    1.8401242556E-01    2.0343075247E-01
    2.2472091232E-01    2.4791792992E-01    2.7304491610E-01    3.0011244696E-01
    3.2911802339E-01    3.6004561669E-01    3.9286530555E-01    4.2753300898E-01
    4.6399031904E-01    5.0216443671E-01    5.4196821303E-01    5.8330029741E-01
    6.2604539370E-01    6.7007462415E-01    7.1524600022E-01    7.6140499864E-01
    8.0838524014E-01    8.5600926738E-01    9.0408941793E-01    9.5242878731E-01
    1.0008222763E+00    1.0490577160E+00    1.0969170635E+00    1.1441776607E+00
    1.1906135468E+00    1.2359968176E+00    1.2800990199E+00    1.3226925731E+00
    1.3635522072E+00    1.4024564073E+00    1.4391888534E+00    1.4735398464E+00
    1.5053077088E+00    1.5343001494E+00    1.5603355837E+00    1.5832443976E+00
    1.6028701464E+00    1.6190706799E+00    1.6317191836E+00    1.6407051298E+00
    1.6459351293E+00    1.6473336775E+00    1.6448437897E+00    1.6384275188E+00
    1.6280663522E+00    1.6137614831E+00    1.5955339556E+00    1.5734246790E+00
    1.5474943136E+00    1.5178230258E+00    1.4845101151E+00    1.4476735146E+00
    1.4074491683E+00    1.3639902890E+00    1.3174665018E+00    1.2680628798E+00
    1.2159788762E+00    1.1614271641E+00    1.1046323875E+00    1.0458298365E+00
    9.8526405275E-01    9.2318737694E-01    8.5985844776E-01    7.9554066317E-01
    7.3050061478E-01    6.6500650653E-01    5.9932656871E-01    5.3372747855E-01
    4.6847279856E-01    4.0382144339E-01    3.4002618610E-01    2.7733221412E-01
    2.1597574484E-01    1.5618271035E-01    9.8167520246E-02    4.2131910827E-02
   -1.1736111749E-02   -6.3263227429E-02   -1.1229165126E-01   -1.5867987019E-01
   -2.0230326317E-01   -2.4305460122E-01   -2.8084442472E-01   -3.1560129629E-01
   -3.4727192859E-01   -3.7582118713E-01   -4.0123196928E-01   -4.2350496140E-01
   -4.4265827703E-01   -4.5872697975E-01   -4.7176249536E-01   -4.8183191849E-01
   -4.8901721965E-01   -4.9341435935E-01   -4.9513231637E-01   -4.9429203798E-01
   -4.9102532011E-01   -4.8547362604E-01   -4.7778685242E-01   -4.6812205148E-01
   -4.5664211874E-01   -4.4351445530E-01   -4.2890961377E-01   -4.1299993695E-01
   -3.9595820493E-01   -3.7795626076E-01   -3.5916390136E-01   -3.3974813237E-01
   -3.1987236683E-01   -2.9969542596E-01   -2.7937062310E-01   -2.5904490594E-01
   -2.3885806651E-01   -2.1894202265E-01   -1.9942017386E-01   -1.8040683379E-01
   -1.6200674077E-01   -1.4431464720E-01   -1.2741498773E-01   -1.1138162545E-01
   -9.6277674820E-02   -8.2155398934E-02   -6.9056178603E-02   -5.7010549717E-02
   -4.6038304981E-02   -3.6148655563E-02   -2.7340447708E-02   -1.9602428991E-02
   -1.2913558516E-02   -7.2433551037E-03   -2.5522785756E-03    1.2078657226E-03
    4.0935602886E-03    6.1688432461E-03    7.5056083865E-03    8.1874358719E-03
    8.3064376363E-03    7.9462026848E-03    7.1967893395E-03    6.1560135279E-03
    4.9280172832E-03    3.6229679786E-03    2.3578609685E-03    1.2446936049E-03
    4.2902902760E-04    4.0033446783E-05   -2.3736277162E-05    6.7082505726E-06
   -2.1343041892E-07   -7.2578815284E-07    5.4148742669E-09    0.0000000000E+00
 0. 0. 0. 0.
 0. 0. 0. 0.
 0. 0. 0. 0.
 0. 0. 0. 0.
 0. 0. 0. 0.
 0. 0. 0. 0.
 0. 0. 0. 0.
 0. 0. 0. 0.
 0. 0. 0. 0.
 0. 0. 0. 0.
 0. 0. 0. 0.
 0. 0. 0. 0.
 0. 0. 0. 0.
 0. 0. 0. 0.
 0. 0. 0. 0.
 0. 0. 0. 0.
 0. 0. 0. 0.
 0. 0. 0. 0.
 0. 0. 0. 0.
 0. 0. 0. 0.
 0. 0. 0. 0.
 0. 0. 0. 0.
 0. 0. 0. 0.
 0. 0. 0. 0.
 0. 0. 0. 0.
 0. 0. 0. 0.
 0. 0. 0. 0.
 0. 0. 0. 0.
 0. 0. 0. 0.
 0. 0. 0. 0.
 0. 0. 0. 0.
 0. 0. 0. 0.
 0. 0. 0. 0.
 0. 0. 0. 0.
 0. 0. 0. 0.
 0. 0. 0. 0.
 0. 0. 0. 0.
 0. 0. 0. 0.
 0. 0. 0. 0.
 0. 0. 0. 0.
 0. 0. 0. 0.
 0. 0. 0. 0.
 0. 0. 0. 0.
 0. 0. 0. 0.
 0. 0. 0. 0.
 0. 0. 0. 0.
 0. 0. 0. 0.
 0. 0. 0. 0.
 0. 0. 0. 0.
 0. 0. 0. 0.
 0. 0. 0. 0.
 0. 0. 0. 0.
 0. 0. 0. 0.
 0. 0. 0. 0.
 0. 0. 0. 0.
 0. 0. 0. 0.
 0. 0. 0. 0.
 0. 0. 0. 0.
 0. 0. 0. 0.
 0. 0. 0. 0.
 0. 0. 0. 0.
 0. 0. 0. 0.
 0. 0. 0. 0.
 0. 0. 0. 0.
 0. 0. 0. 0.
 0. 0. 0. 0.
 0. 0. 0. 0.
 0. 0. 0. 0.
 0. 0. 0. 0.
 0. 0. 0. 0.
 0. 0. 0. 0.
 0. 0. 0. 0.
 0. 0. 0. 0.
 0. 0. 0. 0.
 0. 0. 0. 0.
 0. 0. 0. 0.
 0. 0. 0. 0.
 0. 0. 0. 0.
 0. 0. 0. 0.
 0. 0. 0. 0.
 0. 0. 0. 0.
 0. 0. 0. 0.
 0. 0. 0. 0.
 0. 0. 0. 0.
 0. 0. 0. 0.
 0. 0. 0. 0.
 0. 0. 0. 0.
 0. 0. 0. 0.
 0. 0. 0. 0.
 0. 0. 0. 0.
 0. 0. 0. 0.
 0. 0. 0. 0.
 0. 0. 0. 0.
 0. 0. 0. 0.
 0. 0. 0. 0.
 0. 0. 0. 0.
 0. 0. 0. 0.
 0. 0. 0. 0.
 0. 0. 0. 0.
 0. 0. 0. 0.
 0. 0. 0. 0.
 0. 0. 0. 0.
 0. 0. 0. 0.
 0. 0. 0. 0.
 0. 0. 0. 0.
 0. 0. 0. 0.
 0. 0. 0. 0.
 0. 0. 0. 0.
 0. 0. 0. 0.
 0. 0. 0. 0.
 0. 0. 0. 0.
 0. 0. 0. 0.
 0. 0. 0. 0.
 0. 0. 0. 0.
 0. 0. 0. 0.
 0. 0. 0. 0.
 0. 0. 0. 0.
 0. 0. 0. 0.
 0. 0. 0. 0.
 0. 0. 0. 0.
 0. 0. 0. 0.
 0. 0. 0. 0.
 0. 0. 0. 0.
 0. 0. 0. 0.
 0. 0. 0. 0.
 0. 0. 0. 0.
 0. 0. 0. 0.
 0. 0. 0. 0.
 0. 0. 0. 0.
 0. 0. 0. 0.
 0. 0. 0. 0.
 0. 0. 0. 0.
 0. 0. 0. 0.
 0. 0. 0. 0.
 0. 0. 0. 0.
 0. 0. 0. 0.
 0. 0. 0. 0.
 0. 0. 0. 0.
 0. 0. 0. 0.
 0. 0. 0. 0.
 0. 0. 0. 0.
 0. 0. 0. 0.
 0. 0. 0. 0.
 0. 0. 0. 0.
 0. 0. 0. 0.
 0. 0. 0. 0.
 0. 0. 0. 0.
 0. 0. 0. 0.
 0. 0. 0. 0.
 0. 0. 0. 0.
 0. 0. 0. 0.
 0. 0. 0. 0.
 0. 0. 0. 0.
 0. 0. 0. 0.
 0. 0. 0. 0.
 0. 0. 0. 0.
 0. 0. 0. 0.
 0. 0. 0. 0.
 0. 0. 0. 0.
 0. 0. 0. 0.
 0. 0. 0. 0.
 0. 0. 0. 0.
 0. 0. 0. 0.
 0. 0. 0. 0.
 0. 0. 0. 0.
 0. 0. 0. 0.
 0. 0. 0. 0.
 0. 0. 0. 0.
 0. 0. 0. 0.
 0. 0. 0. 0.
 0. 0. 0. 0.
 0. 0. 0. 0.
 0. 0. 0. 0.
 0. 0. 0. 0.
 0. 0. 0. 0.
 0. 0. 0. 0.
 0. 0. 0. 0.
 0. 0. 0. 0.
 0. 0. 0. 0.
 0. 0. 0. 0.
 0. 0. 0. 0.
 0. 0. 0. 0.
 0. 0. 0. 0.
 0. 0. 0. 0.
 0. 0. 0. 0.
 0. 0. 0. 0.
 0. 0. 0. 0.
 0. 0. 0. 0.
 0. 0. 0. 0.
 0. 0. 0. 0.
 0. 0. 0. 0.
 0. 0. 0. 0.
 0. 0. 0. 0.
 0. 0. 0. 0.
 0. 0. 0. 0.
 0. 0. 0. 0.
 0. 0. 0. 0.
 0. 0. 0. 0.
 0. 0. 0. 0.
 0. 0. 0. 0.
 0. 0. 0. 0.
 0. 0. 0. 0.
 0. 0. 0. 0.
 0. 0. 0. 0.
 0. 0. 0. 0.
 0. 0. 0. 0.
 0. 0. 0. 0.
 0. 0. 0. 0.
 0. 0. 0. 0.
 0. 0. 0. 0.
 0. 0. 0. 0.
 0. 0. 0. 0.
 0. 0. 0. 0.
 0. 0. 0. 0.
 0. 0. 0. 0.
 0. 0. 0. 0.
 0. 0. 0. 0.
 0. 0. 0. 0.
 0. 0. 0. 0.
 0. 0. 0. 0.
 0. 0. 0. 0.
 0. 0. 0. 0.
 0. 0. 0. 0.
 0. 0. 0. 0.
 0. 0. 0. 0.
 0. 0. 0. 0.
 0. 0. 0. 0.
 0. 0. 0. 0.
 0. 0. 0. 0.
 0. 0. 0. 0.
   </PP_BETA.2>
   <PP_BETA.3
       type="real"
       size="1148"
       columns="4"
       index="3"
       angular_momentum="0"
       cutoff_radius_index=" 228"
       cutoff_radius="    2.2700000000E+00" >
    0.0000000000E+00    0.0000000000E+00    0.0000000000E+00    0.0000000000E+00
    0.0000000000E+00    0.0000000000E+00    0.0000000000E+00    0.0000000000E+00
    0.0000000000E+00    0.0000000000E+00    0.0000000000E+00    0.0000000000E+00
    0.0000000000E+00    0.0000000000E+00    0.0000000000E+00    0.0000000000E+00
    0.0000000000E+00    0.0000000000E+00    0.0000000000E+00    0.0000000000E+00
    0.0000000000E+00    0.0000000000E+00    0.0000000000E+00    0.0000000000E+00
    0.0000000000E+00    0.0000000000E+00    0.0000000000E+00    0.0000000000E+00
    0.0000000000E+00    0.0000000000E+00    0.0000000000E+00    0.0000000000E+00
    0.0000000000E+00    0.0000000000E+00    0.0000000000E+00    0.0000000000E+00
    0.0000000000E+00    0.0000000000E+00    0.0000000000E+00    0.0000000000E+00
    0.0000000000E+00    0.0000000000E+00    0.0000000000E+00    0.0000000000E+00
    0.0000000000E+00    0.0000000000E+00    0.0000000000E+00    0.0000000000E+00
    0.0000000000E+00    0.0000000000E+00    0.0000000000E+00    0.0000000000E+00
    0.0000000000E+00    0.0000000000E+00    0.0000000000E+00    0.0000000000E+00
    0.0000000000E+00    0.0000000000E+00    0.0000000000E+00    0.0000000000E+00
    0.0000000000E+00    0.0000000000E+00    0.0000000000E+00    0.0000000000E+00
    0.0000000000E+00    0.0000000000E+00    0.0000000000E+00    0.0000000000E+00
    0.0000000000E+00    0.0000000000E+00    0.0000000000E+00    0.0000000000E+00
    0.0000000000E+00    0.0000000000E+00    0.0000000000E+00    0.0000000000E+00
    0.0000000000E+00    0.0000000000E+00    0.0000000000E+00    0.0000000000E+00
    0.0000000000E+00    0.0000000000E+00    0.0000000000E+00    0.0000000000E+00
    0.0000000000E+00    0.0000000000E+00    0.0000000000E+00    0.0000000000E+00
    0.0000000000E+00    0.0000000000E+00    0.0000000000E+00    0.0000000000E+00
    0.0000000000E+00    0.0000000000E+00    0.0000000000E+00    0.0000000000E+00
    0.0000000000E+00    0.0000000000E+00    0.0000000000E+00    0.0000000000E+00
    0.0000000000E+00    0.0000000000E+00    0.0000000000E+00    0.0000000000E+00
    0.0000000000E+00    0.0000000000E+00    0.0000000000E+00    0.0000000000E+00
    0.0000000000E+00    0.0000000000E+00    0.0000000000E+00    0.0000000000E+00
    0.0000000000E+00    0.0000000000E+00    0.0000000000E+00    0.0000000000E+00
    0.0000000000E+00    0.0000000000E+00    0.0000000000E+00    0.0000000000E+00
    0.0000000000E+00    0.0000000000E+00    0.0000000000E+00    0.0000000000E+00
    0.0000000000E+00    0.0000000000E+00    0.0000000000E+00    0.0000000000E+00
    0.0000000000E+00    0.0000000000E+00    0.0000000000E+00    0.0000000000E+00
    0.0000000000E+00    0.0000000000E+00    0.0000000000E+00    0.0000000000E+00
    0.0000000000E+00    0.0000000000E+00    0.0000000000E+00    0.0000000000E+00
    0.0000000000E+00    0.0000000000E+00    0.0000000000E+00    0.0000000000E+00
    0.0000000000E+00    0.0000000000E+00    0.0000000000E+00    0.0000000000E+00
    0.0000000000E+00    0.0000000000E+00    0.0000000000E+00    0.0000000000E+00
    0.0000000000E+00    0.0000000000E+00    0.0000000000E+00    0.0000000000E+00
    0.0000000000E+00    0.0000000000E+00    0.0000000000E+00    0.0000000000E+00
    0.0000000000E+00    0.0000000000E+00    0.0000000000E+00    0.0000000000E+00
    0.0000000000E+00    0.0000000000E+00    0.0000000000E+00    0.0000000000E+00
    0.0000000000E+00    0.0000000000E+00    0.0000000000E+00    0.0000000000E+00
    0.0000000000E+00    0.0000000000E+00    0.0000000000E+00    0.0000000000E+00
    0.0000000000E+00    0.0000000000E+00    0.0000000000E+00    0.0000000000E+00
    0.0000000000E+00    0.0000000000E+00    0.0000000000E+00    0.0000000000E+00
    0.0000000000E+00    0.0000000000E+00    0.0000000000E+00    0.0000000000E+00
    0.0000000000E+00    0.0000000000E+00    0.0000000000E+00    0.0000000000E+00
    0.0000000000E+00    0.0000000000E+00    0.0000000000E+00    0.0000000000E+00
    0.0000000000E+00    0.0000000000E+00    0.0000000000E+00    0.0000000000E+00
    0.0000000000E+00    0.0000000000E+00    0.0000000000E+00    0.0000000000E+00
    0.0000000000E+00    0.0000000000E+00    0.0000000000E+00    0.0000000000E+00
    0.0000000000E+00    0.0000000000E+00    0.0000000000E+00    0.0000000000E+00
    0.0000000000E+00    0.0000000000E+00    0.0000000000E+00    0.0000000000E+00
    0.0000000000E+00    0.0000000000E+00    0.0000000000E+00    0.0000000000E+00
    0.0000000000E+00    0.0000000000E+00    0.0000000000E+00    0.0000000000E+00
    0.0000000000E+00    0.0000000000E+00    0.0000000000E+00    0.0000000000E+00
 0. 0. 0. 0.
 0. 0. 0. 0.
 0. 0. 0. 0.
 0. 0. 0. 0.
 0. 0. 0. 0.
 0. 0. 0. 0.
 0. 0. 0. 0.
 0. 0. 0. 0.
 0. 0. 0. 0.
 0. 0. 0. 0.
 0. 0. 0. 0.
 0. 0. 0. 0.
 0. 0. 0. 0.
 0. 0. 0. 0.
 0. 0. 0. 0.
 0. 0. 0. 0.
 0. 0. 0. 0.
 0. 0. 0. 0.
 0. 0. 0. 0.
 0. 0. 0. 0.
 0. 0. 0. 0.
 0. 0. 0. 0.
 0. 0. 0. 0.
 0. 0. 0. 0.
 0. 0. 0. 0.
 0. 0. 0. 0.
 0. 0. 0. 0.
 0. 0. 0. 0.
 0. 0. 0. 0.
 0. 0. 0. 0.
 0. 0. 0. 0.
 0. 0. 0. 0.
 0. 0. 0. 0.
 0. 0. 0. 0.
 0. 0. 0. 0.
 0. 0. 0. 0.
 0. 0. 0. 0.
 0. 0. 0. 0.
 0. 0. 0. 0.
 0. 0. 0. 0.
 0. 0. 0. 0.
 0. 0. 0. 0.
 0. 0. 0. 0.
 0. 0. 0. 0.
 0. 0. 0. 0.
 0. 0. 0. 0.
 0. 0. 0. 0.
 0. 0. 0. 0.
 0. 0. 0. 0.
 0. 0. 0. 0.
 0. 0. 0. 0.
 0. 0. 0. 0.
 0. 0. 0. 0.
 0. 0. 0. 0.
 0. 0. 0. 0.
 0. 0. 0. 0.
 0. 0. 0. 0.
 0. 0. 0. 0.
 0. 0. 0. 0.
 0. 0. 0. 0.
 0. 0. 0. 0.
 0. 0. 0. 0.
 0. 0. 0. 0.
 0. 0. 0. 0.
 0. 0. 0. 0.
 0. 0. 0. 0.
 0. 0. 0. 0.
 0. 0. 0. 0.
 0. 0. 0. 0.
 0. 0. 0. 0.
 0. 0. 0. 0.
 0. 0. 0. 0.
 0. 0. 0. 0.
 0. 0. 0. 0.
 0. 0. 0. 0.
 0. 0. 0. 0.
 0. 0. 0. 0.
 0. 0. 0. 0.
 0. 0. 0. 0.
 0. 0. 0. 0.
 0. 0. 0. 0.
 0. 0. 0. 0.
 0. 0. 0. 0.
 0. 0. 0. 0.
 0. 0. 0. 0.
 0. 0. 0. 0.
 0. 0. 0. 0.
 0. 0. 0. 0.
 0. 0. 0. 0.
 0. 0. 0. 0.
 0. 0. 0. 0.
 0. 0. 0. 0.
 0. 0. 0. 0.
 0. 0. 0. 0.
 0. 0. 0. 0.
 0. 0. 0. 0.
 0. 0. 0. 0.
 0. 0. 0. 0.
 0. 0. 0. 0.
 0. 0. 0. 0.
 0. 0. 0. 0.
 0. 0. 0. 0.
 0. 0. 0. 0.
 0. 0. 0. 0.
 0. 0. 0. 0.
 0. 0. 0. 0.
 0. 0. 0. 0.
 0. 0. 0. 0.
 0. 0. 0. 0.
 0. 0. 0. 0.
 0. 0. 0. 0.
 0. 0. 0. 0.
 0. 0. 0. 0.
 0. 0. 0. 0.
 0. 0. 0. 0.
 0. 0. 0. 0.
 0. 0. 0. 0.
 0. 0. 0. 0.
 0. 0. 0. 0.
 0. 0. 0. 0.
 0. 0. 0. 0.
 0. 0. 0. 0.
 0. 0. 0. 0.
 0. 0. 0. 0.
 0. 0. 0. 0.
 0. 0. 0. 0.
 0. 0. 0. 0.
 0. 0. 0. 0.
 0. 0. 0. 0.
 0. 0. 0. 0.
 0. 0. 0. 0.
 0. 0. 0. 0.
 0. 0. 0. 0.
 0. 0. 0. 0.
 0. 0. 0. 0.
 0. 0. 0. 0.
 0. 0. 0. 0.
 0. 0. 0. 0.
 0. 0. 0. 0.
 0. 0. 0. 0.
 0. 0. 0. 0.
 0. 0. 0. 0.
 0. 0. 0. 0.
 0. 0. 0. 0.
 0. 0. 0. 0.
 0. 0. 0. 0.
 0. 0. 0. 0.
 0. 0. 0. 0.
 0. 0. 0. 0.
 0. 0. 0. 0.
 0. 0. 0. 0.
 0. 0. 0. 0.
 0. 0. 0. 0.
 0. 0. 0. 0.
 0. 0. 0. 0.
 0. 0. 0. 0.
 0. 0. 0. 0.
 0. 0. 0. 0.
 0. 0. 0. 0.
 0. 0. 0. 0.
 0. 0. 0. 0.
 0. 0. 0. 0.
 0. 0. 0. 0.
 0. 0. 0. 0.
 0. 0. 0. 0.
 0. 0. 0. 0.
 0. 0. 0. 0.
 0. 0. 0. 0.
 0. 0. 0. 0.
 0. 0. 0. 0.
 0. 0. 0. 0.
 0. 0. 0. 0.
 0. 0. 0. 0.
 0. 0. 0. 0.
 0. 0. 0. 0.
 0. 0. 0. 0.
 0. 0. 0. 0.
 0. 0. 0. 0.
 0. 0. 0. 0.
 0. 0. 0. 0.
 0. 0. 0. 0.
 0. 0. 0. 0.
 0. 0. 0. 0.
 0. 0. 0. 0.
 0. 0. 0. 0.
 0. 0. 0. 0.
 0. 0. 0. 0.
 0. 0. 0. 0.
 0. 0. 0. 0.
 0. 0. 0. 0.
 0. 0. 0. 0.
 0. 0. 0. 0.
 0. 0. 0. 0.
 0. 0. 0. 0.
 0. 0. 0. 0.
 0. 0. 0. 0.
 0. 0. 0. 0.
 0. 0. 0. 0.
 0. 0. 0. 0.
 0. 0. 0. 0.
 0. 0. 0. 0.
 0. 0. 0. 0.
 0. 0. 0. 0.
 0. 0. 0. 0.
 0. 0. 0. 0.
 0. 0. 0. 0.
 0. 0. 0. 0.
 0. 0. 0. 0.
 0. 0. 0. 0.
 0. 0. 0. 0.
 0. 0. 0. 0.
 0. 0. 0. 0.
 0. 0. 0. 0.
 0. 0. 0. 0.
 0. 0. 0. 0.
 0. 0. 0. 0.
 0. 0. 0. 0.
 0. 0. 0. 0.
 0. 0. 0. 0.
 0. 0. 0. 0.
 0. 0. 0. 0.
 0. 0. 0. 0.
 0. 0. 0. 0.
 0. 0. 0. 0.
 0. 0. 0. 0.
 0. 0. 0. 0.
 0. 0. 0. 0.
 0. 0. 0. 0.
 0. 0. 0. 0.
 0. 0. 0. 0.
   </PP_BETA.3>
   <PP_BETA.4
       type="real"
       size="1148"
       columns="4"
       index="4"
       angular_momentum="1"
       cutoff_radius_index=" 228"
       cutoff_radius="    2.2700000000E+00" >
   -2.1646437073E-10    2.4222944192E-04    9.6985688451E-04    2.1856872343E-03
    3.8943539719E-03    6.1022575123E-03    8.8174797183E-03    1.2049675365E-02
    1.5809941576E-02    2.0110666446E-02    2.4965358284E-02    3.0388457071E-02
    3.6395129909E-02    4.3001052402E-02    5.0222178018E-02    5.8074497641E-02
    6.6573791583E-02    7.5735376431E-02    8.5573849158E-02    9.6102830953E-02
    1.0733471326E-01    1.1928040848E-01    1.3194910781E-01    1.4534804858E-01
    1.5948229340E-01    1.7435452342E-01    1.8996484765E-01    2.0631063056E-01
    2.2338633948E-01    2.4118341378E-01    2.5969015701E-01    2.7889165347E-01
    2.9876971017E-01    3.1930282504E-01    3.4046618197E-01    3.6223167314E-01
    3.8456794860E-01    4.0744049309E-01    4.3081172976E-01    4.5464115004E-01
    4.7888546893E-01    5.0349880452E-01    5.2843288055E-01    5.5363725033E-01
    5.7905954038E-01    6.0464571183E-01    6.3034033745E-01    6.5608689218E-01
    6.8182805452E-01    7.0750601657E-01    7.3306279982E-01    7.5844057430E-01
    7.8358197807E-01    8.0843043455E-01    8.3293046483E-01    8.5702799217E-01
    8.8067063619E-01    9.0380799401E-01    9.2639190590E-01    9.4837670303E-01
    9.6971943520E-01    9.9038007631E-01    1.0103217059E+00    1.0295106650E+00
    1.0479166845E+00    1.0655129861E+00    1.0822763528E+00    1.0981871702E+00
    1.1132294374E+00    1.1273907469E+00    1.1406622347E+00    1.1530385004E+00
    1.1645174974E+00    1.1751003962E+00    1.1847914191E+00    1.1935976512E+00
    1.2015288267E+00    1.2085970935E+00    1.2148167596E+00    1.2202040210E+00
    1.2247766769E+00    1.2285538320E+00    1.2315555916E+00    1.2338027498E+00
    1.2353164767E+00    1.2361180054E+00    1.2362283230E+00    1.2356678696E+00
    1.2344562467E+00    1.2326119397E+00    1.2301520561E+00    1.2270920840E+00
    1.2234456717E+00    1.2192244322E+00    1.2144377751E+00    1.2090927663E+00
    1.2031940202E+00    1.1967436223E+00    1.1897410878E+00    1.1821833525E+00
    1.1740648009E+00    1.1653773289E+00    1.1561104423E+00    1.1462513903E+00
    1.1357853338E+00    1.1246955468E+00    1.1129636497E+00    1.1005698729E+00
    1.0874933483E+00    1.0737124266E+00    1.0592050175E+00    1.0439489502E+00
    1.0279223502E+00    1.0111040300E+00    9.9347388944E-01    9.7501332186E-01
    9.5570562248E-01    9.3553639486E-01    9.1449395133E-01    8.9256970329E-01
    8.6975853732E-01    8.4605917316E-01    8.2147449940E-01    7.9601188325E-01
    7.6968345067E-01    7.4250633337E-01    7.1450287950E-01    6.8570082508E-01
    6.5613342341E-01    6.2583953026E-01    5.9486364285E-01    5.6325589081E-01
    5.3107197824E-01    4.9837307582E-01    4.6522566270E-01    4.3170131823E-01
    3.9787646412E-01    3.6383205786E-01    3.2965323889E-01    2.9542892943E-01
    2.6125139210E-01    2.2721574717E-01    1.9341945247E-01    1.5996174943E-01
    1.2694307913E-01    9.4464472464E-02    6.2626918918E-02    3.1530718608E-02
    1.2748225906E-03   -2.8043833484E-02   -5.6330997106E-02   -8.3495762657E-02
   -1.0945122577E-01   -1.3411512288E-01   -1.5741045053E-01   -1.7926605921E-01
   -1.9961721651E-01   -2.1840613449E-01   -2.3558245670E-01   -2.5110370011E-01
   -2.6493564788E-01   -2.7705268896E-01   -2.8743810117E-01   -2.9608427455E-01
   -3.0299287237E-01   -3.0817492766E-01   -3.1165087347E-01   -3.1345050581E-01
   -3.1361287848E-01   -3.1218612977E-01   -3.0922724139E-01   -3.0480173063E-01
   -2.9898327716E-01   -2.9185328662E-01   -2.8350039345E-01   -2.7401990605E-01
   -2.6351319776E-01   -2.5208704765E-01   -2.3985293553E-01   -2.2692629593E-01
   -2.1342573820E-01   -1.9947222659E-01   -1.8518831089E-01   -1.7069743389E-01
   -1.5612318572E-01   -1.4158847047E-01   -1.2721467860E-01   -1.1312086148E-01
   -9.9422911073E-02   -8.6232803991E-02   -7.3657683298E-02   -6.1799449156E-02
   -5.0759114754E-02   -4.0630704886E-02   -3.1491949084E-02   -2.3413071790E-02
   -1.6455648514E-02   -1.0672352532E-02   -6.1086161118E-03   -2.7837172425E-03
   -7.6288964507E-04   -1.9780410514E-05    2.3161919963E-05   -1.2705509818E-05
    2.4063899077E-06    3.7757154092E-10    0.0000000000E+00    0.0000000000E+00
    0.0000000000E+00    0.0000000000E+00    0.0000000000E+00    0.0000000000E+00
    0.0000000000E+00    0.0000000000E+00    0.0000000000E+00    0.0000000000E+00
    0.0000000000E+00    0.0000000000E+00    0.0000000000E+00    0.0000000000E+00
    0.0000000000E+00    0.0000000000E+00    0.0000000000E+00    0.0000000000E+00
    0.0000000000E+00    0.0000000000E+00    0.0000000000E+00    0.0000000000E+00
 0. 0. 0. 0.
 0. 0. 0. 0.
 0. 0. 0. 0.
 0. 0. 0. 0.
 0. 0. 0. 0.
 0. 0. 0. 0.
 0. 0. 0. 0.
 0. 0. 0. 0.
 0. 0. 0. 0.
 0. 0. 0. 0.
 0. 0. 0. 0.
 0. 0. 0. 0.
 0. 0. 0. 0.
 0. 0. 0. 0.
 0. 0. 0. 0.
 0. 0. 0. 0.
 0. 0. 0. 0.
 0. 0. 0. 0.
 0. 0. 0. 0.
 0. 0. 0. 0.
 0. 0. 0. 0.
 0. 0. 0. 0.
 0. 0. 0. 0.
 0. 0. 0. 0.
 0. 0. 0. 0.
 0. 0. 0. 0.
 0. 0. 0. 0.
 0. 0. 0. 0.
 0. 0. 0. 0.
 0. 0. 0. 0.
 0. 0. 0. 0.
 0. 0. 0. 0.
 0. 0. 0. 0.
 0. 0. 0. 0.
 0. 0. 0. 0.
 0. 0. 0. 0.
 0. 0. 0. 0.
 0. 0. 0. 0.
 0. 0. 0. 0.
 0. 0. 0. 0.
 0. 0. 0. 0.
 0. 0. 0. 0.
 0. 0. 0. 0.
 0. 0. 0. 0.
 0. 0. 0. 0.
 0. 0. 0. 0.
 0. 0. 0. 0.
 0. 0. 0. 0.
 0. 0. 0. 0.
 0. 0. 0. 0.
 0. 0. 0. 0.
 0. 0. 0. 0.
 0. 0. 0. 0.
 0. 0. 0. 0.
 0. 0. 0. 0.
 0. 0. 0. 0.
 0. 0. 0. 0.
 0. 0. 0. 0.
 0. 0. 0. 0.
 0. 0. 0. 0.
 0. 0. 0. 0.
 0. 0. 0. 0.
 0. 0. 0. 0.
 0. 0. 0. 0.
 0. 0. 0. 0.
 0. 0. 0. 0.
 0. 0. 0. 0.
 0. 0. 0. 0.
 0. 0. 0. 0.
 0. 0. 0. 0.
 0. 0. 0. 0.
 0. 0. 0. 0.
 0. 0. 0. 0.
 0. 0. 0. 0.
 0. 0. 0. 0.
 0. 0. 0. 0.
 0. 0. 0. 0.
 0. 0. 0. 0.
 0. 0. 0. 0.
 0. 0. 0. 0.
 0. 0. 0. 0.
 0. 0. 0. 0.
 0. 0. 0. 0.
 0. 0. 0. 0.
 0. 0. 0. 0.
 0. 0. 0. 0.
 0. 0. 0. 0.
 0. 0. 0. 0.
 0. 0. 0. 0.
 0. 0. 0. 0.
 0. 0. 0. 0.
 0. 0. 0. 0.
 0. 0. 0. 0.
 0. 0. 0. 0.
 0. 0. 0. 0.
 0. 0. 0. 0.
 0. 0. 0. 0.
 0. 0. 0. 0.
 0. 0. 0. 0.
 0. 0. 0. 0.
 0. 0. 0. 0.
 0. 0. 0. 0.
 0. 0. 0. 0.
 0. 0. 0. 0.
 0. 0. 0. 0.
 0. 0. 0. 0.
 0. 0. 0. 0.
 0. 0. 0. 0.
 0. 0. 0. 0.
 0. 0. 0. 0.
 0. 0. 0. 0.
 0. 0. 0. 0.
 0. 0. 0. 0.
 0. 0. 0. 0.
 0. 0. 0. 0.
 0. 0. 0. 0.
 0. 0. 0. 0.
 0. 0. 0. 0.
 0. 0. 0. 0.
 0. 0. 0. 0.
 0. 0. 0. 0.
 0. 0. 0. 0.
 0. 0. 0. 0.
 0. 0. 0. 0.
 0. 0. 0. 0.
 0. 0. 0. 0.
 0. 0. 0. 0.
 0. 0. 0. 0.
 0. 0. 0. 0.
 0. 0. 0. 0.
 0. 0. 0. 0.
 0. 0. 0. 0.
 0. 0. 0. 0.
 0. 0. 0. 0.
 0. 0. 0. 0.
 0. 0. 0. 0.
 0. 0. 0. 0.
 0. 0. 0. 0.
 0. 0. 0. 0.
 0. 0. 0. 0.
 0. 0. 0. 0.
 0. 0. 0. 0.
 0. 0. 0. 0.
 0. 0. 0. 0.
 0. 0. 0. 0.
 0. 0. 0. 0.
 0. 0. 0. 0.
 0. 0. 0. 0.
 0. 0. 0. 0.
 0. 0. 0. 0.
 0. 0. 0. 0.
 0. 0. 0. 0.
 0. 0. 0. 0.
 0. 0. 0. 0.
 0. 0. 0. 0.
 0. 0. 0. 0.
 0. 0. 0. 0.
 0. 0. 0. 0.
 0. 0. 0. 0.
 0. 0. 0. 0.
 0. 0. 0. 0.
 0. 0. 0. 0.
 0. 0. 0. 0.
 0. 0. 0. 0.
 0. 0. 0. 0.
 0. 0. 0. 0.
 0. 0. 0. 0.
 0. 0. 0. 0.
 0. 0. 0. 0.
 0. 0. 0. 0.
 0. 0. 0. 0.
 0. 0. 0. 0.
 0. 0. 0. 0.
 0. 0. 0. 0.
 0. 0. 0. 0.
 0. 0. 0. 0.
 0. 0. 0. 0.
 0. 0. 0. 0.
 0. 0. 0. 0.
 0. 0. 0. 0.
 0. 0. 0. 0.
 0. 0. 0. 0.
 0. 0. 0. 0.
 0. 0. 0. 0.
 0. 0. 0. 0.
 0. 0. 0. 0.
 0. 0. 0. 0.
 0. 0. 0. 0.
 0. 0. 0. 0.
 0. 0. 0. 0.
 0. 0. 0. 0.
 0. 0. 0. 0.
 0. 0. 0. 0.
 0. 0. 0. 0.
 0. 0. 0. 0.
 0. 0. 0. 0.
 0. 0. 0. 0.
 0. 0. 0. 0.
 0. 0. 0. 0.
 0. 0. 0. 0.
 0. 0. 0. 0.
 0. 0. 0. 0.
 0. 0. 0. 0.
 0. 0. 0. 0.
 0. 0. 0. 0.
 0. 0. 0. 0.
 0. 0. 0. 0.
 0. 0. 0. 0.
 0. 0. 0. 0.
 0. 0. 0. 0.
 0. 0. 0. 0.
 0. 0. 0. 0.
 0. 0. 0. 0.
 0. 0. 0. 0.
 0. 0. 0. 0.
 0. 0. 0. 0.
 0. 0. 0. 0.
 0. 0. 0. 0.
 0. 0. 0. 0.
 0. 0. 0. 0.
 0. 0. 0. 0.
 0. 0. 0. 0.
 0. 0. 0. 0.
 0. 0. 0. 0.
 0. 0. 0. 0.
 0. 0. 0. 0.
 0. 0. 0. 0.
 0. 0. 0. 0.
 0. 0. 0. 0.
 0. 0. 0. 0.
   </PP_BETA.4>
   <PP_BETA.5
       type="real"
       size="1148"
       columns="4"
       index="5"
       angular_momentum="1"
       cutoff_radius_index=" 228"
       cutoff_radius="    2.2700000000E+00" >
    4.5094821215E-10    2.2012829320E-05    8.5781115081E-05    1.8452022273E-04
    3.0700875930E-04    4.3771722494E-04    5.5698644174E-04    6.4125409417E-04
    6.6332726458E-04    5.9269841463E-04    3.9590185338E-04    3.6907348396E-05
   -5.2245281881E-04   -1.3220273747E-03   -2.4028644614E-03   -3.8067094897E-03
   -5.5754872034E-03   -7.7507728926E-03   -1.0373257812E-02   -1.3482213947E-02
   -1.7114963287E-02   -2.1306356781E-02   -2.6088268057E-02   -3.1489106905E-02
   -3.7533357371E-02   -4.4241145094E-02   -5.1627838316E-02   -5.9703686681E-02
   -6.8473501649E-02   -7.7936381983E-02   -8.8085487387E-02   -9.8907862958E-02
   -1.1038431668E-01   -1.2248935171E-01   -1.3519115472E-01   -1.4845164106E-01
   -1.6222655712E-01   -1.7646563942E-01   -1.9111282989E-01   -2.0610654598E-01
   -2.2138000374E-01   -2.3686159178E-01   -2.5247529313E-01   -2.6814115204E-01
   -2.8377578193E-01   -2.9929291041E-01   -3.1460395720E-01   -3.2961863996E-01
   -3.4424560313E-01   -3.5839306450E-01   -3.7196947398E-01   -3.8488417901E-01
   -3.9704809072E-01   -4.0837434525E-01   -4.1877895416E-01   -4.2818143839E-01
   -4.3650543999E-01   -4.4367930606E-01   -4.4963663973E-01   -4.5431681294E-01
   -4.5766543637E-01   -4.5963478204E-01   -4.6018415451E-01   -4.5928020718E-01
   -4.5689720035E-01   -4.5301719857E-01   -4.4763020502E-01   -4.4073423135E-01
   -4.3233530205E-01   -4.2244739278E-01   -4.1109230291E-01   -3.9829946297E-01
   -3.8410567840E-01   -3.6855481144E-01   -3.5169740383E-01   -3.3359024321E-01
   -3.1429587695E-01   -2.9388207745E-01   -2.7242126358E-01   -2.4998988319E-01
   -2.2666776222E-01   -2.0253742611E-01   -1.7768339968E-01   -1.5219149171E-01
   -1.2614807087E-01   -9.9639339555E-02   -7.2750612451E-02   -4.5565606586E-02
   -1.8165749534E-02    9.3704875818E-03    3.6968225847E-02    6.4556776889E-02
    9.2070197856E-02    1.1944779749E-01    1.4663458810E-01    1.7358167882E-01
    2.0024660583E-01    2.2659359596E-01    2.5259376071E-01    2.7822521803E-01
    3.0347314034E-01    3.2832972755E-01    3.5279410467E-01    3.7687214443E-01
    4.0057621588E-01    4.2392486070E-01    4.4694239974E-01    4.6965847284E-01
    4.9210751592E-01    5.1432817960E-01    5.3636269461E-01    5.5825618957E-01
    5.8005596729E-01    6.0181074641E-01    6.2356987521E-01    6.4538252532E-01
    6.6729687287E-01    6.8935927515E-01    7.1161345095E-01    7.3409967262E-01
    7.5685397842E-01    7.7990741291E-01    8.0328530381E-01    8.2700658282E-01
    8.5108315816E-01    8.7551934582E-01    9.0031136631E-01    9.2544691312E-01
    9.5090479855E-01    9.7665468188E-01    1.0026568842E+00    1.0288622937E+00
    1.0552123638E+00    1.0816392068E+00    1.1080657836E+00    1.1344061901E+00
    1.1605660396E+00    1.1864429400E+00    1.2119270632E+00    1.2369018033E+00
    1.2612445203E+00    1.2848273630E+00    1.3075181671E+00    1.3291814211E+00
    1.3496792916E+00    1.3688727032E+00    1.3866224614E+00    1.4027904114E+00
    1.4172406223E+00    1.4298405880E+00    1.4404624329E+00    1.4489841144E+00
    1.4552906090E+00    1.4592750741E+00    1.4608399723E+00    1.4598981506E+00
    1.4563738623E+00    1.4502037226E+00    1.4413375888E+00    1.4297393552E+00
    1.4153876560E+00    1.3982764665E+00    1.3784155978E+00    1.3558310771E+00
    1.3305654095E+00    1.3026777163E+00    1.2722437466E+00    1.2393557601E+00
    1.2041222791E+00    1.1666677101E+00    1.1271318347E+00    1.0856691730E+00
    1.0424482209E+00    9.9765056666E-01    9.5146988984E-01    9.0411085053E-01
    8.5578787412E-01    8.0672384020E-01    7.5714868360E-01    7.0729791715E-01
    6.5741110089E-01    6.0773018049E-01    5.5849835805E-01    5.0995957486E-01
    4.6235752642E-01    4.1593400220E-01    3.7092728726E-01    3.2757055627E-01
    2.8609027581E-01    2.4670474617E-01    2.0962226642E-01    1.7504047200E-01
    1.4315612429E-01    1.1415157016E-01    8.8174347174E-02    6.5357241222E-02
    4.5815795263E-02    2.9647844284E-02    1.6938374238E-02    7.7074924016E-03
    2.1097802659E-03    5.4498853579E-05   -6.3999759359E-05    3.5122022739E-05
   -6.6595520240E-06   -7.6414418128E-10    0.0000000000E+00    0.0000000000E+00
    0.0000000000E+00    0.0000000000E+00    0.0000000000E+00    0.0000000000E+00
    0.0000000000E+00    0.0000000000E+00    0.0000000000E+00    0.0000000000E+00
    0.0000000000E+00    0.0000000000E+00    0.0000000000E+00    0.0000000000E+00
    0.0000000000E+00    0.0000000000E+00    0.0000000000E+00    0.0000000000E+00
    0.0000000000E+00    0.0000000000E+00    0.0000000000E+00    0.0000000000E+00
 0. 0. 0. 0.
 0. 0. 0. 0.
 0. 0. 0. 0.
 0. 0. 0. 0.
 0. 0. 0. 0.
 0. 0. 0. 0.
 0. 0. 0. 0.
 0. 0. 0. 0.
 0. 0. 0. 0.
 0. 0. 0. 0.
 0. 0. 0. 0.
 0. 0. 0. 0.
 0. 0. 0. 0.
 0. 0. 0. 0.
 0. 0. 0. 0.
 0. 0. 0. 0.
 0. 0. 0. 0.
 0. 0. 0. 0.
 0. 0. 0. 0.
 0. 0. 0. 0.
 0. 0. 0. 0.
 0. 0. 0. 0.
 0. 0. 0. 0.
 0. 0. 0. 0.
 0. 0. 0. 0.
 0. 0. 0. 0.
 0. 0. 0. 0.
 0. 0. 0. 0.
 0. 0. 0. 0.
 0. 0. 0. 0.
 0. 0. 0. 0.
 0. 0. 0. 0.
 0. 0. 0. 0.
 0. 0. 0. 0.
 0. 0. 0. 0.
 0. 0. 0. 0.
 0. 0. 0. 0.
 0. 0. 0. 0.
 0. 0. 0. 0.
 0. 0. 0. 0.
 0. 0. 0. 0.
 0. 0. 0. 0.
 0. 0. 0. 0.
 0. 0. 0. 0.
 0. 0. 0. 0.
 0. 0. 0. 0.
 0. 0. 0. 0.
 0. 0. 0. 0.
 0. 0. 0. 0.
 0. 0. 0. 0.
 0. 0. 0. 0.
 0. 0. 0. 0.
 0. 0. 0. 0.
 0. 0. 0. 0.
 0. 0. 0. 0.
 0. 0. 0. 0.
 0. 0. 0. 0.
 0. 0. 0. 0.
 0. 0. 0. 0.
 0. 0. 0. 0.
 0. 0. 0. 0.
 0. 0. 0. 0.
 0. 0. 0. 0.
 0. 0. 0. 0.
 0. 0. 0. 0.
 0. 0. 0. 0.
 0. 0. 0. 0.
 0. 0. 0. 0.
 0. 0. 0. 0.
 0. 0. 0. 0.
 0. 0. 0. 0.
 0. 0. 0. 0.
 0. 0. 0. 0.
 0. 0. 0. 0.
 0. 0. 0. 0.
 0. 0. 0. 0.
 0. 0. 0. 0.
 0. 0. 0. 0.
 0. 0. 0. 0.
 0. 0. 0. 0.
 0. 0. 0. 0.
 0. 0. 0. 0.
 0. 0. 0. 0.
 0. 0. 0. 0.
 0. 0. 0. 0.
 0. 0. 0. 0.
 0. 0. 0. 0.
 0. 0. 0. 0.
 0. 0. 0. 0.
 0. 0. 0. 0.
 0. 0. 0. 0.
 0. 0. 0. 0.
 0. 0. 0. 0.
 0. 0. 0. 0.
 0. 0. 0. 0.
 0. 0. 0. 0.
 0. 0. 0. 0.
 0. 0. 0. 0.
 0. 0. 0. 0.
 0. 0. 0. 0.
 0. 0. 0. 0.
 0. 0. 0. 0.
 0. 0. 0. 0.
 0. 0. 0. 0.
 0. 0. 0. 0.
 0. 0. 0. 0.
 0. 0. 0. 0.
 0. 0. 0. 0.
 0. 0. 0. 0.
 0. 0. 0. 0.
 0. 0. 0. 0.
 0. 0. 0. 0.
 0. 0. 0. 0.
 0. 0. 0. 0.
 0. 0. 0. 0.
 0. 0. 0. 0.
 0. 0. 0. 0.
 0. 0. 0. 0.
 0. 0. 0. 0.
 0. 0. 0. 0.
 0. 0. 0. 0.
 0. 0. 0. 0.
 0. 0. 0. 0.
 0. 0. 0. 0.
 0. 0. 0. 0.
 0. 0. 0. 0.
 0. 0. 0. 0.
 0. 0. 0. 0.
 0. 0. 0. 0.
 0. 0. 0. 0.
 0. 0. 0. 0.
 0. 0. 0. 0.
 0. 0. 0. 0.
 0. 0. 0. 0.
 0. 0. 0. 0.
 0. 0. 0. 0.
 0. 0. 0. 0.
 0. 0. 0. 0.
 0. 0. 0. 0.
 0. 0. 0. 0.
 0. 0. 0. 0.
 0. 0. 0. 0.
 0. 0. 0. 0.
 0. 0. 0. 0.
 0. 0. 0. 0.
 0. 0. 0. 0.
 0. 0. 0. 0.
 0. 0. 0. 0.
 0. 0. 0. 0.
 0. 0. 0. 0.
 0. 0. 0. 0.
 0. 0. 0. 0.
 0. 0. 0. 0.
 0. 0. 0. 0.
 0. 0. 0. 0.
 0. 0. 0. 0.
 0. 0. 0. 0.
 0. 0. 0. 0.
 0. 0. 0. 0.
 0. 0. 0. 0.
 0. 0. 0. 0.
 0. 0. 0. 0.
 0. 0. 0. 0.
 0. 0. 0. 0.
 0. 0. 0. 0.
 0. 0. 0. 0.
 0. 0. 0. 0.
 0. 0. 0. 0.
 0. 0. 0. 0.
 0. 0. 0. 0.
 0. 0. 0. 0.
 0. 0. 0. 0.
 0. 0. 0. 0.
 0. 0. 0. 0.
 0. 0. 0. 0.
 0. 0. 0. 0.
 0. 0. 0. 0.
 0. 0. 0. 0.
 0. 0. 0. 0.
 0. 0. 0. 0.
 0. 0. 0. 0.
 0. 0. 0. 0.
 0. 0. 0. 0.
 0. 0. 0. 0.
 0. 0. 0. 0.
 0. 0. 0. 0.
 0. 0. 0. 0.
 0. 0. 0. 0.
 0. 0. 0. 0.
 0. 0. 0. 0.
 0. 0. 0. 0.
 0. 0. 0. 0.
 0. 0. 0. 0.
 0. 0. 0. 0.
 0. 0. 0. 0.
 0. 0. 0. 0.
 0. 0. 0. 0.
 0. 0. 0. 0.
 0. 0. 0. 0.
 0. 0. 0. 0.
 0. 0. 0. 0.
 0. 0. 0. 0.
 0. 0. 0. 0.
 0. 0. 0. 0.
 0. 0. 0. 0.
 0. 0. 0. 0.
 0. 0. 0. 0.
 0. 0. 0. 0.
 0. 0. 0. 0.
 0. 0. 0. 0.
 0. 0. 0. 0.
 0. 0. 0. 0.
 0. 0. 0. 0.
 0. 0. 0. 0.
 0. 0. 0. 0.
 0. 0. 0. 0.
 0. 0. 0. 0.
 0. 0. 0. 0.
 0. 0. 0. 0.
 0. 0. 0. 0.
 0. 0. 0. 0.
 0. 0. 0. 0.
 0. 0. 0. 0.
 0. 0. 0. 0.
 0. 0. 0. 0.
 0. 0. 0. 0.
 0. 0. 0. 0.
 0. 0. 0. 0.
 0. 0. 0. 0.
 0. 0. 0. 0.
   </PP_BETA.5>
   <PP_BETA.6
       type="real"
       size="1148"
       columns="4"
       index="6"
       angular_momentum="2"
       cutoff_radius_index=" 228"
       cutoff_radius="    2.2700000000E+00" >
   -1.2878475890E-10    1.4331326666E-05    1.1458855770E-04    3.8638722637E-04
    9.1472169747E-04    1.7836535515E-03    3.0759988251E-03    4.8730138828E-03
    7.2540798208E-03    1.0296385465E-02    1.4074609195E-02    1.8660600041E-02
    2.4123058692E-02    3.0527219299E-02    3.7934533182E-02    4.6402355768E-02
    5.5983638324E-02    6.6726626279E-02    7.8674566080E-02    9.1865422768E-02
    1.0633161057E-01    1.2209973893E-01    1.3919037655E-01    1.5761783591E-01
    1.7738998101E-01    1.9850806080E-01    2.2096657074E-01    2.4475314508E-01
    2.6984848177E-01    2.9622630238E-01    3.2385334850E-01    3.5268941637E-01
    3.8268743073E-01    4.1379355898E-01    4.4594736595E-01    4.7908200942E-01
    5.1312447623E-01    5.4799585807E-01    5.8361166595E-01    6.1988218178E-01
    6.5671284508E-01    6.9400467256E-01    7.3165470776E-01    7.6955649786E-01
    8.0760059412E-01    8.4567507254E-01    8.8366607074E-01    9.2145833716E-01
    9.5893578825E-01    9.9598206968E-01    1.0324811170E+00    1.0683177120E+00
    1.1033780297E+00    1.1375501731E+00    1.1707246911E+00    1.2027950762E+00
    1.2336582382E+00    1.2632149521E+00    1.2913702760E+00    1.3180339371E+00
    1.3431206856E+00    1.3665506117E+00    1.3882494282E+00    1.4081487147E+00
    1.4261861265E+00    1.4423055657E+00    1.4564573161E+00    1.4685981434E+00
    1.4786913615E+00    1.4867068657E+00    1.4926211365E+00    1.4964172148E+00
    1.4980846506E+00    1.4976194290E+00    1.4950238748E+00    1.4903065384E+00
    1.4834820660E+00    1.4745710565E+00    1.4635999069E+00    1.4506006493E+00
    1.4356107802E+00    1.4186730854E+00    1.3998354611E+00    1.3791507321E+00
    1.3566764692E+00    1.3324748053E+00    1.3066122510E+00    1.2791595095E+00
    1.2501912908E+00    1.2197861244E+00    1.1880261689E+00    1.1549970190E+00
    1.1207875072E+00    1.0854894991E+00    1.0491976813E+00    1.0120093391E+00
    9.7402412403E-01    9.3534380767E-01    8.9607202188E-01    8.5631398318E-01
    8.1617620037E-01    7.7576616447E-01    7.3519202039E-01    6.9456221991E-01
    6.5398515623E-01    6.1356878037E-01    5.7342020044E-01    5.3364526511E-01
    4.9434813295E-01    4.5563082997E-01    4.1759279785E-01    3.8033043614E-01
    3.4393664157E-01    3.0850034855E-01    2.7410607469E-01    2.4083347589E-01
    2.0875691542E-01    1.7794505176E-01    1.4846044983E-01    1.2035922054E-01
    9.3690693176E-02    6.8497125204E-02    4.4813453863E-02    2.2667093429E-02
    2.0777818656E-03   -1.6942519979E-02   -3.4389673932E-02   -5.0267352693E-02
   -6.4586969152E-02   -7.7367545960E-02   -8.8635525188E-02   -9.8424518605E-02
   -1.0677499984E-01   -1.1373394043E-01   -1.1935439243E-01   -1.2369502102E-01
   -1.2681959122E-01   -1.2879641336E-01   -1.2969775263E-01   -1.2959920852E-01
   -1.2857907040E-01   -1.2671765585E-01   -1.2409663867E-01   -1.2079837374E-01
   -1.1690522575E-01   -1.1249890926E-01   -1.0765984704E-01   -1.0246655373E-01
   -9.6995051325E-02   -9.1318322889E-02   -8.5505810228E-02   -7.9622960700E-02
   -7.3730827828E-02   -6.7885729580E-02   -6.2138967459E-02   -5.6536608742E-02
   -5.1119333360E-02   -4.5922346048E-02   -4.0975353538E-02   -3.6302605659E-02
   -3.1922998398E-02   -2.7850236111E-02   -2.4093049310E-02   -2.0655463707E-02
   -1.7537115523E-02   -1.4733607484E-02   -1.2236899411E-02   -1.0035726881E-02
   -8.1160411287E-03   -6.4614637534E-03   -5.0537414855E-03   -3.8732371463E-03
   -2.8983331769E-03   -2.1032459336E-03   -1.4679489680E-03   -9.7398955060E-04
   -6.0293396174E-04   -3.3696449535E-04   -1.5919390986E-04   -5.3401942371E-05
   -7.1991433504E-06    1.0788229273E-06   -3.2024508336E-07    5.0035294019E-08
    4.8897829344E-12    0.0000000000E+00    0.0000000000E+00    0.0000000000E+00
    0.0000000000E+00    0.0000000000E+00    0.0000000000E+00    0.0000000000E+00
    0.0000000000E+00    0.0000000000E+00    0.0000000000E+00    0.0000000000E+00
    0.0000000000E+00    0.0000000000E+00    0.0000000000E+00    0.0000000000E+00
    0.0000000000E+00    0.0000000000E+00    0.0000000000E+00    0.0000000000E+00
    0.0000000000E+00    0.0000000000E+00    0.0000000000E+00    0.0000000000E+00
    0.0000000000E+00    0.0000000000E+00    0.0000000000E+00    0.0000000000E+00
    0.0000000000E+00    0.0000000000E+00    0.0000000000E+00    0.0000000000E+00
    0.0000000000E+00    0.0000000000E+00    0.0000000000E+00    0.0000000000E+00
    0.0000000000E+00    0.0000000000E+00    0.0000000000E+00    0.0000000000E+00
    0.0000000000E+00    0.0000000000E+00    0.0000000000E+00    0.0000000000E+00
 0. 0. 0. 0.
 0. 0. 0. 0.
 0. 0. 0. 0.
 0. 0. 0. 0.
 0. 0. 0. 0.
 0. 0. 0. 0.
 0. 0. 0. 0.
 0. 0. 0. 0.
 0. 0. 0. 0.
 0. 0. 0. 0.
 0. 0. 0. 0.
 0. 0. 0. 0.
 0. 0. 0. 0.
 0. 0. 0. 0.
 0. 0. 0. 0.
 0. 0. 0. 0.
 0. 0. 0. 0.
 0. 0. 0. 0.
 0. 0. 0. 0.
 0. 0. 0. 0.
 0. 0. 0. 0.
 0. 0. 0. 0.
 0. 0. 0. 0.
 0. 0. 0. 0.
 0. 0. 0. 0.
 0. 0. 0. 0.
 0. 0. 0. 0.
 0. 0. 0. 0.
 0. 0. 0. 0.
 0. 0. 0. 0.
 0. 0. 0. 0.
 0. 0. 0. 0.
 0. 0. 0. 0.
 0. 0. 0. 0.
 0. 0. 0. 0.
 0. 0. 0. 0.
 0. 0. 0. 0.
 0. 0. 0. 0.
 0. 0. 0. 0.
 0. 0. 0. 0.
 0. 0. 0. 0.
 0. 0. 0. 0.
 0. 0. 0. 0.
 0. 0. 0. 0.
 0. 0. 0. 0.
 0. 0. 0. 0.
 0. 0. 0. 0.
 0. 0. 0. 0.
 0. 0. 0. 0.
 0. 0. 0. 0.
 0. 0. 0. 0.
 0. 0. 0. 0.
 0. 0. 0. 0.
 0. 0. 0. 0.
 0. 0. 0. 0.
 0. 0. 0. 0.
 0. 0. 0. 0.
 0. 0. 0. 0.
 0. 0. 0. 0.
 0. 0. 0. 0.
 0. 0. 0. 0.
 0. 0. 0. 0.
 0. 0. 0. 0.
 0. 0. 0. 0.
 0. 0. 0. 0.
 0. 0. 0. 0.
 0. 0. 0. 0.
 0. 0. 0. 0.
 0. 0. 0. 0.
 0. 0. 0. 0.
 0. 0. 0. 0.
 0. 0. 0. 0.
 0. 0. 0. 0.
 0. 0. 0. 0.
 0. 0. 0. 0.
 0. 0. 0. 0.
 0. 0. 0. 0.
 0. 0. 0. 0.
 0. 0. 0. 0.
 0. 0. 0. 0.
 0. 0. 0. 0.
 0. 0. 0. 0.
 0. 0. 0. 0.
 0. 0. 0. 0.
 0. 0. 0. 0.
 0. 0. 0. 0.
 0. 0. 0. 0.
 0. 0. 0. 0.
 0. 0. 0. 0.
 0. 0. 0. 0.
 0. 0. 0. 0.
 0. 0. 0. 0.
 0. 0. 0. 0.
 0. 0. 0. 0.
 0. 0. 0. 0.
 0. 0. 0. 0.
 0. 0. 0. 0.
 0. 0. 0. 0.
 0. 0. 0. 0.
 0. 0. 0. 0.
 0. 0. 0. 0.
 0. 0. 0. 0.
 0. 0. 0. 0.
 0. 0. 0. 0.
 0. 0. 0. 0.
 0. 0. 0. 0.
 0. 0. 0. 0.
 0. 0. 0. 0.
 0. 0. 0. 0.
 0. 0. 0. 0.
 0. 0. 0. 0.
 0. 0. 0. 0.
 0. 0. 0. 0.
 0. 0. 0. 0.
 0. 0. 0. 0.
 0. 0. 0. 0.
 0. 0. 0. 0.
 0. 0. 0. 0.
 0. 0. 0. 0.
 0. 0. 0. 0.
 0. 0. 0. 0.
 0. 0. 0. 0.
 0. 0. 0. 0.
 0. 0. 0. 0.
 0. 0. 0. 0.
 0. 0. 0. 0.
 0. 0. 0. 0.
 0. 0. 0. 0.
 0. 0. 0. 0.
 0. 0. 0. 0.
 0. 0. 0. 0.
 0. 0. 0. 0.
 0. 0. 0. 0.
 0. 0. 0. 0.
 0. 0. 0. 0.
 0. 0. 0. 0.
 0. 0. 0. 0.
 0. 0. 0. 0.
 0. 0. 0. 0.
 0. 0. 0. 0.
 0. 0. 0. 0.
 0. 0. 0. 0.
 0. 0. 0. 0.
 0. 0. 0. 0.
 0. 0. 0. 0.
 0. 0. 0. 0.
 0. 0. 0. 0.
 0. 0. 0. 0.
 0. 0. 0. 0.
 0. 0. 0. 0.
 0. 0. 0. 0.
 0. 0. 0. 0.
 0. 0. 0. 0.
 0. 0. 0. 0.
 0. 0. 0. 0.
 0. 0. 0. 0.
 0. 0. 0. 0.
 0. 0. 0. 0.
 0. 0. 0. 0.
 0. 0. 0. 0.
 0. 0. 0. 0.
 0. 0. 0. 0.
 0. 0. 0. 0.
 0. 0. 0. 0.
 0. 0. 0. 0.
 0. 0. 0. 0.
 0. 0. 0. 0.
 0. 0. 0. 0.
 0. 0. 0. 0.
 0. 0. 0. 0.
 0. 0. 0. 0.
 0. 0. 0. 0.
 0. 0. 0. 0.
 0. 0. 0. 0.
 0. 0. 0. 0.
 0. 0. 0. 0.
 0. 0. 0. 0.
 0. 0. 0. 0.
 0. 0. 0. 0.
 0. 0. 0. 0.
 0. 0. 0. 0.
 0. 0. 0. 0.
 0. 0. 0. 0.
 0. 0. 0. 0.
 0. 0. 0. 0.
 0. 0. 0. 0.
 0. 0. 0. 0.
 0. 0. 0. 0.
 0. 0. 0. 0.
 0. 0. 0. 0.
 0. 0. 0. 0.
 0. 0. 0. 0.
 0. 0. 0. 0.
 0. 0. 0. 0.
 0. 0. 0. 0.
 0. 0. 0. 0.
 0. 0. 0. 0.
 0. 0. 0. 0.
 0. 0. 0. 0.
 0. 0. 0. 0.
 0. 0. 0. 0.
 0. 0. 0. 0.
 0. 0. 0. 0.
 0. 0. 0. 0.
 0. 0. 0. 0.
 0. 0. 0. 0.
 0. 0. 0. 0.
 0. 0. 0. 0.
 0. 0. 0. 0.
 0. 0. 0. 0.
 0. 0. 0. 0.
 0. 0. 0. 0.
 0. 0. 0. 0.
 0. 0. 0. 0.
 0. 0. 0. 0.
 0. 0. 0. 0.
 0. 0. 0. 0.
 0. 0. 0. 0.
 0. 0. 0. 0.
 0. 0. 0. 0.
 0. 0. 0. 0.
 0. 0. 0. 0.
 0. 0. 0. 0.
 0. 0. 0. 0.
 0. 0. 0. 0.
 0. 0. 0. 0.
 0. 0. 0. 0.
 0. 0. 0. 0.
 0. 0. 0. 0.
 0. 0. 0. 0.
   </PP_BETA.6>
   <PP_BETA.7
       type="real"
       size="1148"
       columns="4"
       index="7"
       angular_momentum="2"
       cutoff_radius_index=" 228"
       cutoff_radius="    2.2700000000E+00" >
    6.5334352338E-10   -1.1723051237E-05   -9.3751985750E-05   -3.1622923369E-04
   -7.4896413954E-04   -1.4612511428E-03   -2.5216701048E-03   -3.9978636178E-03
   -5.9562867830E-03   -8.4619257400E-03   -1.1577982137E-02   -1.5365521753E-02
   -1.9883086572E-02   -2.5186270775E-02   -3.1327262293E-02   -3.8354352779E-02
   -4.6311420022E-02   -5.5237387984E-02   -6.5165670694E-02   -7.6123607244E-02
   -8.8131895970E-02   -1.0120403666E-01   -1.1534579019E-01   -1.3055466544E-01
   -1.4681944350E-01   -1.6411974938E-01   -1.8242568101E-01   -2.0169750530E-01
   -2.2188543026E-01   -2.4292946140E-01   -2.6475935004E-01   -2.8729463966E-01
   -3.1044481546E-01   -3.3410956083E-01   -3.5817912302E-01   -3.8253478854E-01
   -4.0704946753E-01   -4.3158838425E-01   -4.5600986957E-01   -4.8016624949E-01
   -5.0390482206E-01   -5.2706891383E-01   -5.4949900533E-01   -5.7103391390E-01
   -5.9151202118E-01   -6.1077253154E-01   -6.2865674704E-01   -6.4500934417E-01
   -6.5967963717E-01   -6.7252281275E-01   -6.8340112142E-01   -6.9218501084E-01
   -6.9875418746E-01   -7.0299859370E-01   -7.0481928873E-01   -7.0412922280E-01
   -7.0085389592E-01   -6.9493189392E-01   -6.8631529634E-01   -6.7496995273E-01
   -6.6087562557E-01   -6.4402600041E-01   -6.2442856547E-01   -6.0210436501E-01
   -5.7708763259E-01   -5.4942531236E-01   -5.1917647755E-01   -4.8641165767E-01
   -4.5121208626E-01   -4.1366888284E-01   -3.7388218321E-01   -3.3196023271E-01
   -2.8801845768E-01   -2.4217853011E-01   -1.9456744048E-01   -1.4531659302E-01
   -9.4560937189E-02   -4.2438147746E-02    1.0912134962E-02    6.5348994835E-02
    1.2073085160E-01    1.7691598776E-01    2.3376298632E-01    2.9113107700E-01
    3.4888039024E-01    4.0687212101E-01    4.6496860596E-01    5.2303331982E-01
    5.8093079865E-01    6.3852649952E-01    6.9568660752E-01    7.5227780272E-01
    8.0816700056E-01    8.6322108019E-01    9.1730661590E-01    9.7028962707E-01
    1.0220353619E+00    1.0724081301E+00    1.1212711992E+00    1.1684867676E+00
    1.2139160265E+00    1.2574193219E+00    1.2988564258E+00    1.3380869216E+00
    1.3749707113E+00    1.4093686436E+00    1.4411432652E+00    1.4701596901E+00
    1.4962865836E+00    1.5193972501E+00    1.5393708164E+00    1.5560934957E+00
    1.5694599162E+00    1.5793744990E+00    1.5857528618E+00    1.5885232308E+00
    1.5876278361E+00    1.5830242672E+00    1.5746867653E+00    1.5626074274E+00
    1.5467972991E+00    1.5272873307E+00    1.5041291772E+00    1.4773958181E+00
    1.4471819810E+00    1.4136043498E+00    1.3768015447E+00    1.3369338625E+00
    1.2941827685E+00    1.2487501362E+00    1.2008572328E+00    1.1507434532E+00
    1.0986648101E+00    1.0448921883E+00    9.8970937856E-01    9.3341090802E-01
    8.7629968839E-01    8.1868450578E-01    7.6087737958E-01    7.0319082009E-01
    6.4593501694E-01    5.8941499212E-01    5.3392775269E-01    4.7975947939E-01
    4.2718278735E-01    3.7645409517E-01    3.2781113781E-01    2.8147065755E-01
    2.3762630549E-01    1.9644678369E-01    1.5807425541E-01    1.2262304780E-01
    9.0178667453E-02    6.0797145697E-02    3.4504726024E-02    1.1297901530E-02
   -8.8561942450E-03   -2.6019044608E-02   -4.0279661394E-02   -5.1753162096E-02
   -6.0579028166E-02   -6.6919064680E-02   -7.0955085842E-02   -7.2886354687E-02
   -7.2926808956E-02   -7.1302108204E-02   -6.8246539901E-02   -6.3999824388E-02
   -5.8803860142E-02   -5.2899449018E-02   -4.6523077653E-02   -3.9903608055E-02
   -3.3263829194E-02   -2.6829244300E-02   -2.0783438596E-02   -1.5285506378E-02
   -1.0476230951E-02   -6.4749578451E-03   -3.3793623134E-03   -1.2489077831E-03
   -1.8692557289E-04    2.9936121574E-05   -8.4969637118E-06    1.2286851717E-06
   -1.6551681866E-11    0.0000000000E+00    0.0000000000E+00    0.0000000000E+00
    0.0000000000E+00    0.0000000000E+00    0.0000000000E+00    0.0000000000E+00
    0.0000000000E+00    0.0000000000E+00    0.0000000000E+00    0.0000000000E+00
    0.0000000000E+00    0.0000000000E+00    0.0000000000E+00    0.0000000000E+00
    0.0000000000E+00    0.0000000000E+00    0.0000000000E+00    0.0000000000E+00
    0.0000000000E+00    0.0000000000E+00    0.0000000000E+00    0.0000000000E+00
    0.0000000000E+00    0.0000000000E+00    0.0000000000E+00    0.0000000000E+00
    0.0000000000E+00    0.0000000000E+00    0.0000000000E+00    0.0000000000E+00
    0.0000000000E+00    0.0000000000E+00    0.0000000000E+00    0.0000000000E+00
    0.0000000000E+00    0.0000000000E+00    0.0000000000E+00    0.0000000000E+00
    0.0000000000E+00    0.0000000000E+00    0.0000000000E+00    0.0000000000E+00
 0. 0. 0. 0.
 0. 0. 0. 0.
 0. 0. 0. 0.
 0. 0. 0. 0.
 0. 0. 0. 0.
 0. 0. 0. 0.
 0. 0. 0. 0.
 0. 0. 0. 0.
 0. 0. 0. 0.
 0. 0. 0. 0.
 0. 0. 0. 0.
 0. 0. 0. 0.
 0. 0. 0. 0.
 0. 0. 0. 0.
 0. 0. 0. 0.
 0. 0. 0. 0.
 0. 0. 0. 0.
 0. 0. 0. 0.
 0. 0. 0. 0.
 0. 0. 0. 0.
 0. 0. 0. 0.
 0. 0. 0. 0.
 0. 0. 0. 0.
 0. 0. 0. 0.
 0. 0. 0. 0.
 0. 0. 0. 0.
 0. 0. 0. 0.
 0. 0. 0. 0.
 0. 0. 0. 0.
 0. 0. 0. 0.
 0. 0. 0. 0.
 0. 0. 0. 0.
 0. 0. 0. 0.
 0. 0. 0. 0.
 0. 0. 0. 0.
 0. 0. 0. 0.
 0. 0. 0. 0.
 0. 0. 0. 0.
 0. 0. 0. 0.
 0. 0. 0. 0.
 0. 0. 0. 0.
 0. 0. 0. 0.
 0. 0. 0. 0.
 0. 0. 0. 0.
 0. 0. 0. 0.
 0. 0. 0. 0.
 0. 0. 0. 0.
 0. 0. 0. 0.
 0. 0. 0. 0.
 0. 0. 0. 0.
 0. 0. 0. 0.
 0. 0. 0. 0.
 0. 0. 0. 0.
 0. 0. 0. 0.
 0. 0. 0. 0.
 0. 0. 0. 0.
 0. 0. 0. 0.
 0. 0. 0. 0.
 0. 0. 0. 0.
 0. 0. 0. 0.
 0. 0. 0. 0.
 0. 0. 0. 0.
 0. 0. 0. 0.
 0. 0. 0. 0.
 0. 0. 0. 0.
 0. 0. 0. 0.
 0. 0. 0. 0.
 0. 0. 0. 0.
 0. 0. 0. 0.
 0. 0. 0. 0.
 0. 0. 0. 0.
 0. 0. 0. 0.
 0. 0. 0. 0.
 0. 0. 0. 0.
 0. 0. 0. 0.
 0. 0. 0. 0.
 0. 0. 0. 0.
 0. 0. 0. 0.
 0. 0. 0. 0.
 0. 0. 0. 0.
 0. 0. 0. 0.
 0. 0. 0. 0.
 0. 0. 0. 0.
 0. 0. 0. 0.
 0. 0. 0. 0.
 0. 0. 0. 0.
 0. 0. 0. 0.
 0. 0. 0. 0.
 0. 0. 0. 0.
 0. 0. 0. 0.
 0. 0. 0. 0.
 0. 0. 0. 0.
 0. 0. 0. 0.
 0. 0. 0. 0.
 0. 0. 0. 0.
 0. 0. 0. 0.
 0. 0. 0. 0.
 0. 0. 0. 0.
 0. 0. 0. 0.
 0. 0. 0. 0.
 0. 0. 0. 0.
 0. 0. 0. 0.
 0. 0. 0. 0.
 0. 0. 0. 0.
 0. 0. 0. 0.
 0. 0. 0. 0.
 0. 0. 0. 0.
 0. 0. 0. 0.
 0. 0. 0. 0.
 0. 0. 0. 0.
 0. 0. 0. 0.
 0. 0. 0. 0.
 0. 0. 0. 0.
 0. 0. 0. 0.
 0. 0. 0. 0.
 0. 0. 0. 0.
 0. 0. 0. 0.
 0. 0. 0. 0.
 0. 0. 0. 0.
 0. 0. 0. 0.
 0. 0. 0. 0.
 0. 0. 0. 0.
 0. 0. 0. 0.
 0. 0. 0. 0.
 0. 0. 0. 0.
 0. 0. 0. 0.
 0. 0. 0. 0.
 0. 0. 0. 0.
 0. 0. 0. 0.
 0. 0. 0. 0.
 0. 0. 0. 0.
 0. 0. 0. 0.
 0. 0. 0. 0.
 0. 0. 0. 0.
 0. 0. 0. 0.
 0. 0. 0. 0.
 0. 0. 0. 0.
 0. 0. 0. 0.
 0. 0. 0. 0.
 0. 0. 0. 0.
 0. 0. 0. 0.
 0. 0. 0. 0.
 0. 0. 0. 0.
 0. 0. 0. 0.
 0. 0. 0. 0.
 0. 0. 0. 0.
 0. 0. 0. 0.
 0. 0. 0. 0.
 0. 0. 0. 0.
 0. 0. 0. 0.
 0. 0. 0. 0.
 0. 0. 0. 0.
 0. 0. 0. 0.
 0. 0. 0. 0.
 0. 0. 0. 0.
 0. 0. 0. 0.
 0. 0. 0. 0.
 0. 0. 0. 0.
 0. 0. 0. 0.
 0. 0. 0. 0.
 0. 0. 0. 0.
 0. 0. 0. 0.
 0. 0. 0. 0.
 0. 0. 0. 0.
 0. 0. 0. 0.
 0. 0. 0. 0.
 0. 0. 0. 0.
 0. 0. 0. 0.
 0. 0. 0. 0.
 0. 0. 0. 0.
 0. 0. 0. 0.
 0. 0. 0. 0.
 0. 0. 0. 0.
 0. 0. 0. 0.
 0. 0. 0. 0.
 0. 0. 0. 0.
 0. 0. 0. 0.
 0. 0. 0. 0.
 0. 0. 0. 0.
 0. 0. 0. 0.
 0. 0. 0. 0.
 0. 0. 0. 0.
 0. 0. 0. 0.
 0. 0. 0. 0.
 0. 0. 0. 0.
 0. 0. 0. 0.
 0. 0. 0. 0.
 0. 0. 0. 0.
 0. 0. 0. 0.
 0. 0. 0. 0.
 0. 0. 0. 0.
 0. 0. 0. 0.
 0. 0. 0. 0.
 0. 0. 0. 0.
 0. 0. 0. 0.
 0. 0. 0. 0.
 0. 0. 0. 0.
 0. 0. 0. 0.
 0. 0. 0. 0.
 0. 0. 0. 0.
 0. 0. 0. 0.
 0. 0. 0. 0.
 0. 0. 0. 0.
 0. 0. 0. 0.
 0. 0. 0. 0.
 0. 0. 0. 0.
 0. 0. 0. 0.
 0. 0. 0. 0.
 0. 0. 0. 0.
 0. 0. 0. 0.
 0. 0. 0. 0.
 0. 0. 0. 0.
 0. 0. 0. 0.
 0. 0. 0. 0.
 0. 0. 0. 0.
 0. 0. 0. 0.
 0. 0. 0. 0.
 0. 0. 0. 0.
 0. 0. 0. 0.
 0. 0. 0. 0.
 0. 0. 0. 0.
 0. 0. 0. 0.
 0. 0. 0. 0.
 0. 0. 0. 0.
 0. 0. 0. 0.
 0. 0. 0. 0.
 0. 0. 0. 0.
 0. 0. 0. 0.
 0. 0. 0. 0.
 0. 0. 0. 0.
   </PP_BETA.7>
   <PP_BETA.8
       type="real"
       size="1148"
       columns="4"
       index="8"
       angular_momentum="3"
       cutoff_radius_index=" 228"
       cutoff_radius="    2.2700000000E+00" >
    1.9321893291E-09   -4.9665074638E-07   -7.9340797680E-06   -4.0062395337E-05
   -1.2615842206E-04   -3.0656933514E-04   -6.3208104569E-04   -1.1631185449E-03
   -1.9687873471E-03   -3.1257670093E-03   -4.7170694336E-03   -6.8306762492E-03
   -9.5580710258E-03   -1.2992683351E-02   -1.7228262917E-02   -2.2357202691E-02
   -2.8468830949E-02   -3.5647692514E-02   -4.3971839794E-02   -5.3511154360E-02
   -6.4325719643E-02   -7.6464265015E-02   -8.9962700940E-02   -1.0484276415E-01
   -1.2111079076E-01   -1.3875663423E-01   -1.5775274350E-01   -1.7805341533E-01
   -1.9959423306E-01   -2.2229170235E-01   -2.4604309222E-01   -2.7072648804E-01
   -2.9620106075E-01   -3.2230755443E-01   -3.4886899215E-01   -3.7569159779E-01
   -4.0256592920E-01   -4.2926821590E-01   -4.5556189216E-01   -4.8119931457E-01
   -5.0592365070E-01   -5.2947092387E-01   -5.5157219708E-01   -5.7195587766E-01
   -5.9035012249E-01   -6.0648532263E-01   -6.2009664476E-01   -6.3092660628E-01
   -6.3872765996E-01   -6.4326476367E-01   -6.4431791053E-01   -6.4168459484E-01
   -6.3518218918E-01   -6.2465020890E-01   -6.0995244067E-01   -5.9097891268E-01
   -5.6764768552E-01   -5.3990644381E-01   -5.0773387041E-01   -4.7114078681E-01
   -4.3017104502E-01   -3.8490215877E-01   -3.3544566350E-01   -2.8194719744E-01
   -2.2458629830E-01   -1.6357591246E-01   -9.9161616446E-02   -3.1620552685E-02
    3.8739915683E-02    1.1158382360E-01    1.8654848677E-01    2.6324663590E-01
    3.4126878803E-01    4.2018583801E-01    4.9955185128E-01    5.7890703710E-01
    6.5778087945E-01    7.3569540168E-01    8.1216853891E-01    8.8671759184E-01
    9.5886273402E-01    1.0281305443E+00    1.0940575359E+00    1.1561936524E+00
    1.2141057029E+00    1.2673807068E+00    1.3156291202E+00    1.3584879176E+00
    1.3956235020E+00    1.4267344186E+00    1.4515538492E+00    1.4698518655E+00
    1.4814374216E+00    1.4861600681E+00    1.4839113729E+00    1.4746260348E+00
    1.4582826808E+00    1.4349043383E+00    1.4045585771E+00    1.3673573196E+00
    1.3234563182E+00    1.2730543042E+00    1.2163918135E+00    1.1537496968E+00
    1.0854473266E+00    1.0118405140E+00    9.3331915052E-01    8.5030459433E-01
    7.6324682023E-01    6.7262135601E-01    5.7892602880E-01    4.8267754714E-01
    3.8440794514E-01    2.8466091693E-01    1.8398806964E-01    8.2945124450E-02
   -1.7911904792E-02   -1.1803052577E-01   -2.1686554505E-01   -3.1388277953E-01
   -4.0856267334E-01   -5.0040379272E-01   -5.8892617215E-01   -6.7367448657E-01
   -7.5422102593E-01   -8.3016845009E-01   -9.0115230379E-01   -9.6684327368E-01
   -1.0269491714E+00   -1.0812166288E+00   -1.1294324948E+00   -1.1714249238E+00
   -1.2070641500E+00   -1.2362629449E+00   -1.2589767538E+00   -1.2752035166E+00
   -1.2849831731E+00   -1.2883968615E+00   -1.2855658175E+00   -1.2766499866E+00
   -1.2618463603E+00   -1.2413870542E+00   -1.2155371437E+00   -1.1845922759E+00
   -1.1488760807E+00   -1.1087373997E+00   -1.0645473591E+00   -1.0166963095E+00
   -9.6559065805E-01   -9.1164961855E-01   -8.5530190618E-01   -7.9698240261E-01
   -7.3712881831E-01   -6.7617837806E-01   -6.1456455532E-01   -5.5271388067E-01
   -4.9104284857E-01   -4.2995494564E-01   -3.6983782276E-01   -3.1106063153E-01
   -2.5397154457E-01   -1.9889547730E-01   -1.4613202706E-01   -9.5953643798E-02
   -4.8604044395E-02   -4.2968808066E-03    3.6785329855E-02    7.4492007343E-02
    1.0870503854E-01    1.3933903429E-01    1.6634131308E-01    1.8969161434E-01
    2.0940154574E-01    2.2551377110E-01    2.3810094768E-01    2.4726442301E-01
    2.5313270352E-01    2.5585970894E-01    2.5562282746E-01    2.5262078868E-01
    2.4707138028E-01    2.3920898028E-01    2.2928227571E-01    2.1755222871E-01
    2.0428972829E-01    1.8977283102E-01    1.7428400165E-01    1.5810733291E-01
    1.4152577144E-01    1.2481840685E-01    1.0825768935E-01    9.2107070924E-02
    7.6621592254E-02    6.2041922150E-02    4.8586756477E-02    3.6456933629E-02
    2.5833020589E-02    1.6873664536E-02    9.7172982228E-03    4.4507228977E-03
    1.2247222178E-03    3.1600006379E-05   -3.7461758949E-05    2.0494488749E-05
   -3.8686517608E-06   -5.9728846382E-11    0.0000000000E+00    0.0000000000E+00
    0.0000000000E+00    0.0000000000E+00    0.0000000000E+00    0.0000000000E+00
    0.0000000000E+00    0.0000000000E+00    0.0000000000E+00    0.0000000000E+00
    0.0000000000E+00    0.0000000000E+00    0.0000000000E+00    0.0000000000E+00
    0.0000000000E+00    0.0000000000E+00    0.0000000000E+00    0.0000000000E+00
    0.0000000000E+00    0.0000000000E+00    0.0000000000E+00    0.0000000000E+00
 0. 0. 0. 0.
 0. 0. 0. 0.
 0. 0. 0. 0.
 0. 0. 0. 0.
 0. 0. 0. 0.
 0. 0. 0. 0.
 0. 0. 0. 0.
 0. 0. 0. 0.
 0. 0. 0. 0.
 0. 0. 0. 0.
 0. 0. 0. 0.
 0. 0. 0. 0.
 0. 0. 0. 0.
 0. 0. 0. 0.
 0. 0. 0. 0.
 0. 0. 0. 0.
 0. 0. 0. 0.
 0. 0. 0. 0.
 0. 0. 0. 0.
 0. 0. 0. 0.
 0. 0. 0. 0.
 0. 0. 0. 0.
 0. 0. 0. 0.
 0. 0. 0. 0.
 0. 0. 0. 0.
 0. 0. 0. 0.
 0. 0. 0. 0.
 0. 0. 0. 0.
 0. 0. 0. 0.
 0. 0. 0. 0.
 0. 0. 0. 0.
 0. 0. 0. 0.
 0. 0. 0. 0.
 0. 0. 0. 0.
 0. 0. 0. 0.
 0. 0. 0. 0.
 0. 0. 0. 0.
 0. 0. 0. 0.
 0. 0. 0. 0.
 0. 0. 0. 0.
 0. 0. 0. 0.
 0. 0. 0. 0.
 0. 0. 0. 0.
 0. 0. 0. 0.
 0. 0. 0. 0.
 0. 0. 0. 0.
 0. 0. 0. 0.
 0. 0. 0. 0.
 0. 0. 0. 0.
 0. 0. 0. 0.
 0. 0. 0. 0.
 0. 0. 0. 0.
 0. 0. 0. 0.
 0. 0. 0. 0.
 0. 0. 0. 0.
 0. 0. 0. 0.
 0. 0. 0. 0.
 0. 0. 0. 0.
 0. 0. 0. 0.
 0. 0. 0. 0.
 0. 0. 0. 0.
 0. 0. 0. 0.
 0. 0. 0. 0.
 0. 0. 0. 0.
 0. 0. 0. 0.
 0. 0. 0. 0.
 0. 0. 0. 0.
 0. 0. 0. 0.
 0. 0. 0. 0.
 0. 0. 0. 0.
 0. 0. 0. 0.
 0. 0. 0. 0.
 0. 0. 0. 0.
 0. 0. 0. 0.
 0. 0. 0. 0.
 0. 0. 0. 0.
 0. 0. 0. 0.
 0. 0. 0. 0.
 0. 0. 0. 0.
 0. 0. 0. 0.
 0. 0. 0. 0.
 0. 0. 0. 0.
 0. 0. 0. 0.
 0. 0. 0. 0.
 0. 0. 0. 0.
 0. 0. 0. 0.
 0. 0. 0. 0.
 0. 0. 0. 0.
 0. 0. 0. 0.
 0. 0. 0. 0.
 0. 0. 0. 0.
 0. 0. 0. 0.
 0. 0. 0. 0.
 0. 0. 0. 0.
 0. 0. 0. 0.
 0. 0. 0. 0.
 0. 0. 0. 0.
 0. 0. 0. 0.
 0. 0. 0. 0.
 0. 0. 0. 0.
 0. 0. 0. 0.
 0. 0. 0. 0.
 0. 0. 0. 0.
 0. 0. 0. 0.
 0. 0. 0. 0.
 0. 0. 0. 0.
 0. 0. 0. 0.
 0. 0. 0. 0.
 0. 0. 0. 0.
 0. 0. 0. 0.
 0. 0. 0. 0.
 0. 0. 0. 0.
 0. 0. 0. 0.
 0. 0. 0. 0.
 0. 0. 0. 0.
 0. 0. 0. 0.
 0. 0. 0. 0.
 0. 0. 0. 0.
 0. 0. 0. 0.
 0. 0. 0. 0.
 0. 0. 0. 0.
 0. 0. 0. 0.
 0. 0. 0. 0.
 0. 0. 0. 0.
 0. 0. 0. 0.
 0. 0. 0. 0.
 0. 0. 0. 0.
 0. 0. 0. 0.
 0. 0. 0. 0.
 0. 0. 0. 0.
 0. 0. 0. 0.
 0. 0. 0. 0.
 0. 0. 0. 0.
 0. 0. 0. 0.
 0. 0. 0. 0.
 0. 0. 0. 0.
 0. 0. 0. 0.
 0. 0. 0. 0.
 0. 0. 0. 0.
 0. 0. 0. 0.
 0. 0. 0. 0.
 0. 0. 0. 0.
 0. 0. 0. 0.
 0. 0. 0. 0.
 0. 0. 0. 0.
 0. 0. 0. 0.
 0. 0. 0. 0.
 0. 0. 0. 0.
 0. 0. 0. 0.
 0. 0. 0. 0.
 0. 0. 0. 0.
 0. 0. 0. 0.
 0. 0. 0. 0.
 0. 0. 0. 0.
 0. 0. 0. 0.
 0. 0. 0. 0.
 0. 0. 0. 0.
 0. 0. 0. 0.
 0. 0. 0. 0.
 0. 0. 0. 0.
 0. 0. 0. 0.
 0. 0. 0. 0.
 0. 0. 0. 0.
 0. 0. 0. 0.
 0. 0. 0. 0.
 0. 0. 0. 0.
 0. 0. 0. 0.
 0. 0. 0. 0.
 0. 0. 0. 0.
 0. 0. 0. 0.
 0. 0. 0. 0.
 0. 0. 0. 0.
 0. 0. 0. 0.
 0. 0. 0. 0.
 0. 0. 0. 0.
 0. 0. 0. 0.
 0. 0. 0. 0.
 0. 0. 0. 0.
 0. 0. 0. 0.
 0. 0. 0. 0.
 0. 0. 0. 0.
 0. 0. 0. 0.
 0. 0. 0. 0.
 0. 0. 0. 0.
 0. 0. 0. 0.
 0. 0. 0. 0.
 0. 0. 0. 0.
 0. 0. 0. 0.
 0. 0. 0. 0.
 0. 0. 0. 0.
 0. 0. 0. 0.
 0. 0. 0. 0.
 0. 0. 0. 0.
 0. 0. 0. 0.
 0. 0. 0. 0.
 0. 0. 0. 0.
 0. 0. 0. 0.
 0. 0. 0. 0.
 0. 0. 0. 0.
 0. 0. 0. 0.
 0. 0. 0. 0.
 0. 0. 0. 0.
 0. 0. 0. 0.
 0. 0. 0. 0.
 0. 0. 0. 0.
 0. 0. 0. 0.
 0. 0. 0. 0.
 0. 0. 0. 0.
 0. 0. 0. 0.
 0. 0. 0. 0.
 0. 0. 0. 0.
 0. 0. 0. 0.
 0. 0. 0. 0.
 0. 0. 0. 0.
 0. 0. 0. 0.
 0. 0. 0. 0.
 0. 0. 0. 0.
 0. 0. 0. 0.
 0. 0. 0. 0.
 0. 0. 0. 0.
 0. 0. 0. 0.
 0. 0. 0. 0.
 0. 0. 0. 0.
 0. 0. 0. 0.
 0. 0. 0. 0.
 0. 0. 0. 0.
 0. 0. 0. 0.
 0. 0. 0. 0.
 0. 0. 0. 0.
 0. 0. 0. 0.
   </PP_BETA.8>
   <PP_BETA.9
       type="real"
       size="1148"
       columns="4"
       index="9"
       angular_momentum="3"
       cutoff_radius_index=" 228"
       cutoff_radius="    2.2700000000E+00" >
    7.3092021823E-10   -1.4068420711E-07   -2.2469511122E-06   -1.1341537574E-05
   -3.5696391794E-05   -8.6685171823E-05   -1.7857956139E-04   -3.2829217734E-04
   -5.5506957377E-04   -8.8013953397E-04   -1.3263174723E-03   -1.9175773380E-03
   -2.6785929116E-03   -3.6342558090E-03   -4.8091768472E-03   -6.2271776840E-03
   -7.9107798041E-03   -9.8806980009E-03   -1.2155345479E-02   -1.4750357589E-02
   -1.7678141001E-02   -2.0947454818E-02   -2.4563029767E-02   -2.8525231110E-02
   -3.2829770404E-02   -3.7467470618E-02   -4.2424088438E-02   -4.7680196866E-02
   -5.3211130462E-02   -5.8986994754E-02   -6.4972740537E-02   -7.1128302900E-02
   -7.7408804025E-02   -8.3764817932E-02   -9.0142694522E-02   -9.6484939513E-02
   -1.0273064608E-01   -1.0881597336E-01   -1.1467466625E-01   -1.2023861051E-01
   -1.2543841651E-01   -1.3020402474E-01   -1.3446532565E-01   -1.3815278643E-01
   -1.4119807692E-01   -1.4353468716E-01   -1.4509852871E-01   -1.4582851252E-01
   -1.4566709604E-01   -1.4456079280E-01   -1.4246063814E-01   -1.3932260528E-01
   -1.3510796655E-01   -1.2978359536E-01   -1.2332220521E-01   -1.1570252289E-01
   -1.0690939385E-01   -9.6933818709E-02   -8.5772920725E-02   -7.3429845050E-02
   -5.9913591443E-02   -4.5238783148E-02   -2.9425375465E-02   -1.2498308433E-02
    5.5128911524E-03    2.4574552428E-02    4.4649341206E-02    6.5696771549E-02
    8.7673740438E-02    1.1053507741E-01    1.3423410076E-01    1.5872317162E-01
    1.8395423745E-01    2.0987935603E-01    2.3645119187E-01    2.6362347658E-01
    2.9135142572E-01    3.1959210479E-01    3.4830473793E-01    3.7745095334E-01
    4.0699496073E-01    4.3690365644E-01    4.6714665342E-01    4.9769623398E-01
    5.2852722445E-01    5.5961679210E-01    5.9094416567E-01    6.2249028225E-01
    6.5423736425E-01    6.8616843152E-01    7.1826675457E-01    7.5051525618E-01
    7.8289586943E-01    8.1538886117E-01    8.4797213090E-01    8.8062049546E-01
    9.1330497072E-01    9.4599206188E-01    9.7864307412E-01    1.0112134558E+00
    1.0436521861E+00    1.0759012188E+00    1.1078949947E+00    1.1395600319E+00
    1.1708146064E+00    1.2015685318E+00    1.2317230462E+00    1.2611708149E+00
    1.2897960555E+00    1.3174747894E+00    1.3440752240E+00    1.3694582687E+00
    1.3934781836E+00    1.4159833607E+00    1.4368172357E+00    1.4558193236E+00
    1.4728263752E+00    1.4876736435E+00    1.5001962524E+00    1.5102306567E+00
    1.5176161798E+00    1.5221966161E+00    1.5238218824E+00    1.5223497028E+00
    1.5176473085E+00    1.5095931361E+00    1.4980785047E+00    1.4830092524E+00
    1.4643073146E+00    1.4419122231E+00    1.4157825078E+00    1.3858969827E+00
    1.3522558980E+00    1.3148819406E+00    1.2738210692E+00    1.2291431665E+00
    1.1809424987E+00    1.1293379677E+00    1.0744731494E+00    1.0165161079E+00
    9.5565898303E-01    8.9211734533E-01    8.2612931953E-01    7.5795447753E-01
    6.8787250474E-01    6.1618164648E-01    5.4319694322E-01    4.6924826603E-01
    3.9467816563E-01    3.1983955108E-01    2.4509321590E-01    1.7080523146E-01
    9.7344229324E-02    2.5078595781E-02   -4.5626396834E-02   -1.1441149631E-01
   -1.8092638751E-01   -2.4483259288E-01   -3.0580632879E-01   -3.6354129001E-01
   -4.1775133478E-01   -4.6817304338E-01   -5.1456812396E-01   -5.5672564037E-01
   -5.9446403805E-01   -6.2763294572E-01   -6.5611473243E-01   -6.7982580141E-01
   -6.9871760482E-01   -7.1277736562E-01   -7.2202849567E-01   -7.2653070192E-01
   -7.2637977533E-01   -7.2170706041E-01   -7.1267860609E-01   -6.9949400191E-01
   -6.8238490637E-01   -6.6161327769E-01   -6.3746931973E-01   -6.1026915917E-01
   -5.8035227163E-01   -5.4807868176E-01   -5.1382593650E-01   -4.7798585379E-01
   -4.4096110352E-01   -4.0316168038E-01   -3.6500128516E-01   -3.2689364734E-01
   -2.8924882316E-01   -2.5246948120E-01   -2.1694729890E-01   -1.8305925002E-01
   -1.5116207878E-01   -1.2159108535E-01   -9.4660436030E-02   -7.0656514185E-02
   -4.9835390848E-02   -3.2420226729E-02   -1.8605210029E-02   -8.4964905444E-03
   -2.3321032179E-03   -5.9913910814E-05    7.1126698338E-05   -3.8963438282E-05
    7.3715225230E-06   -8.5341234210E-11    0.0000000000E+00    0.0000000000E+00
    0.0000000000E+00    0.0000000000E+00    0.0000000000E+00    0.0000000000E+00
    0.0000000000E+00    0.0000000000E+00    0.0000000000E+00    0.0000000000E+00
    0.0000000000E+00    0.0000000000E+00    0.0000000000E+00    0.0000000000E+00
    0.0000000000E+00    0.0000000000E+00    0.0000000000E+00    0.0000000000E+00
    0.0000000000E+00    0.0000000000E+00    0.0000000000E+00    0.0000000000E+00
 0. 0. 0. 0.
 0. 0. 0. 0.
 0. 0. 0. 0.
 0. 0. 0. 0.
 0. 0. 0. 0.
 0. 0. 0. 0.
 0. 0. 0. 0.
 0. 0. 0. 0.
 0. 0. 0. 0.
 0. 0. 0. 0.
 0. 0. 0. 0.
 0. 0. 0. 0.
 0. 0. 0. 0.
 0. 0. 0. 0.
 0. 0. 0. 0.
 0. 0. 0. 0.
 0. 0. 0. 0.
 0. 0. 0. 0.
 0. 0. 0. 0.
 0. 0. 0. 0.
 0. 0. 0. 0.
 0. 0. 0. 0.
 0. 0. 0. 0.
 0. 0. 0. 0.
 0. 0. 0. 0.
 0. 0. 0. 0.
 0. 0. 0. 0.
 0. 0. 0. 0.
 0. 0. 0. 0.
 0. 0. 0. 0.
 0. 0. 0. 0.
 0. 0. 0. 0.
 0. 0. 0. 0.
 0. 0. 0. 0.
 0. 0. 0. 0.
 0. 0. 0. 0.
 0. 0. 0. 0.
 0. 0. 0. 0.
 0. 0. 0. 0.
 0. 0. 0. 0.
 0. 0. 0. 0.
 0. 0. 0. 0.
 0. 0. 0. 0.
 0. 0. 0. 0.
 0. 0. 0. 0.
 0. 0. 0. 0.
 0. 0. 0. 0.
 0. 0. 0. 0.
 0. 0. 0. 0.
 0. 0. 0. 0.
 0. 0. 0. 0.
 0. 0. 0. 0.
 0. 0. 0. 0.
 0. 0. 0. 0.
 0. 0. 0. 0.
 0. 0. 0. 0.
 0. 0. 0. 0.
 0. 0. 0. 0.
 0. 0. 0. 0.
 0. 0. 0. 0.
 0. 0. 0. 0.
 0. 0. 0. 0.
 0. 0. 0. 0.
 0. 0. 0. 0.
 0. 0. 0. 0.
 0. 0. 0. 0.
 0. 0. 0. 0.
 0. 0. 0. 0.
 0. 0. 0. 0.
 0. 0. 0. 0.
 0. 0. 0. 0.
 0. 0. 0. 0.
 0. 0. 0. 0.
 0. 0. 0. 0.
 0. 0. 0. 0.
 0. 0. 0. 0.
 0. 0. 0. 0.
 0. 0. 0. 0.
 0. 0. 0. 0.
 0. 0. 0. 0.
 0. 0. 0. 0.
 0. 0. 0. 0.
 0. 0. 0. 0.
 0. 0. 0. 0.
 0. 0. 0. 0.
 0. 0. 0. 0.
 0. 0. 0. 0.
 0. 0. 0. 0.
 0. 0. 0. 0.
 0. 0. 0. 0.
 0. 0. 0. 0.
 0. 0. 0. 0.
 0. 0. 0. 0.
 0. 0. 0. 0.
 0. 0. 0. 0.
 0. 0. 0. 0.
 0. 0. 0. 0.
 0. 0. 0. 0.
 0. 0. 0. 0.
 0. 0. 0. 0.
 0. 0. 0. 0.
 0. 0. 0. 0.
 0. 0. 0. 0.
 0. 0. 0. 0.
 0. 0. 0. 0.
 0. 0. 0. 0.
 0. 0. 0. 0.
 0. 0. 0. 0.
 0. 0. 0. 0.
 0. 0. 0. 0.
 0. 0. 0. 0.
 0. 0. 0. 0.
 0. 0. 0. 0.
 0. 0. 0. 0.
 0. 0. 0. 0.
 0. 0. 0. 0.
 0. 0. 0. 0.
 0. 0. 0. 0.
 0. 0. 0. 0.
 0. 0. 0. 0.
 0. 0. 0. 0.
 0. 0. 0. 0.
 0. 0. 0. 0.
 0. 0. 0. 0.
 0. 0. 0. 0.
 0. 0. 0. 0.
 0. 0. 0. 0.
 0. 0. 0. 0.
 0. 0. 0. 0.
 0. 0. 0. 0.
 0. 0. 0. 0.
 0. 0. 0. 0.
 0. 0. 0. 0.
 0. 0. 0. 0.
 0. 0. 0. 0.
 0. 0. 0. 0.
 0. 0. 0. 0.
 0. 0. 0. 0.
 0. 0. 0. 0.
 0. 0. 0. 0.
 0. 0. 0. 0.
 0. 0. 0. 0.
 0. 0. 0. 0.
 0. 0. 0. 0.
 0. 0. 0. 0.
 0. 0. 0. 0.
 0. 0. 0. 0.
 0. 0. 0. 0.
 0. 0. 0. 0.
 0. 0. 0. 0.
 0. 0. 0. 0.
 0. 0. 0. 0.
 0. 0. 0. 0.
 0. 0. 0. 0.
 0. 0. 0. 0.
 0. 0. 0. 0.
 0. 0. 0. 0.
 0. 0. 0. 0.
 0. 0. 0. 0.
 0. 0. 0. 0.
 0. 0. 0. 0.
 0. 0. 0. 0.
 0. 0. 0. 0.
 0. 0. 0. 0.
 0. 0. 0. 0.
 0. 0. 0. 0.
 0. 0. 0. 0.
 0. 0. 0. 0.
 0. 0. 0. 0.
 0. 0. 0. 0.
 0. 0. 0. 0.
 0. 0. 0. 0.
 0. 0. 0. 0.
 0. 0. 0. 0.
 0. 0. 0. 0.
 0. 0. 0. 0.
 0. 0. 0. 0.
 0. 0. 0. 0.
 0. 0. 0. 0.
 0. 0. 0. 0.
 0. 0. 0. 0.
 0. 0. 0. 0.
 0. 0. 0. 0.
 0. 0. 0. 0.
 0. 0. 0. 0.
 0. 0. 0. 0.
 0. 0. 0. 0.
 0. 0. 0. 0.
 0. 0. 0. 0.
 0. 0. 0. 0.
 0. 0. 0. 0.
 0. 0. 0. 0.
 0. 0. 0. 0.
 0. 0. 0. 0.
 0. 0. 0. 0.
 0. 0. 0. 0.
 0. 0. 0. 0.
 0. 0. 0. 0.
 0. 0. 0. 0.
 0. 0. 0. 0.
 0. 0. 0. 0.
 0. 0. 0. 0.
 0. 0. 0. 0.
 0. 0. 0. 0.
 0. 0. 0. 0.
 0. 0. 0. 0.
 0. 0. 0. 0.
 0. 0. 0. 0.
 0. 0. 0. 0.
 0. 0. 0. 0.
 0. 0. 0. 0.
 0. 0. 0. 0.
 0. 0. 0. 0.
 0. 0. 0. 0.
 0. 0. 0. 0.
 0. 0. 0. 0.
 0. 0. 0. 0.
 0. 0. 0. 0.
 0. 0. 0. 0.
 0. 0. 0. 0.
 0. 0. 0. 0.
 0. 0. 0. 0.
 0. 0. 0. 0.
 0. 0. 0. 0.
 0. 0. 0. 0.
 0. 0. 0. 0.
 0. 0. 0. 0.
 0. 0. 0. 0.
 0. 0. 0. 0.
 0. 0. 0. 0.
   </PP_BETA.9>
   <PP_DIJ type="real"  size="  81" columns="4">
    2.5152898408E+01    0.0000000000E+00    0.0000000000E+00    0.0000000000E+00
    0.0000000000E+00    0.0000000000E+00    0.0000000000E+00    0.0000000000E+00
    0.0000000000E+00    0.0000000000E+00    7.8325728241E+00    0.0000000000E+00
    0.0000000000E+00    0.0000000000E+00    0.0000000000E+00    0.0000000000E+00
    0.0000000000E+00    0.0000000000E+00    0.0000000000E+00    0.0000000000E+00
    1.7175881581E+00    0.0000000000E+00    0.0000000000E+00    0.0000000000E+00
    0.0000000000E+00    0.0000000000E+00    0.0000000000E+00    0.0000000000E+00
    0.0000000000E+00    0.0000000000E+00    1.3189579442E+01    0.0000000000E+00
    0.0000000000E+00    0.0000000000E+00    0.0000000000E+00    0.0000000000E+00
    0.0000000000E+00    0.0000000000E+00    0.0000000000E+00    0.0000000000E+00
    1.8928280154E+00    0.0000000000E+00    0.0000000000E+00    0.0000000000E+00
    0.0000000000E+00    0.0000000000E+00    0.0000000000E+00    0.0000000000E+00
    0.0000000000E+00    0.0000000000E+00   -7.4898351512E+00    0.0000000000E+00
    0.0000000000E+00    0.0000000000E+00    0.0000000000E+00    0.0000000000E+00
    0.0000000000E+00    0.0000000000E+00    0.0000000000E+00    0.0000000000E+00
   -1.7338075572E+00    0.0000000000E+00    0.0000000000E+00    0.0000000000E+00
    0.0000000000E+00    0.0000000000E+00    0.0000000000E+00    0.0000000000E+00
    0.0000000000E+00    0.0000000000E+00   -1.3605332238E+01    0.0000000000E+00
    0.0000000000E+00    0.0000000000E+00    0.0000000000E+00    0.0000000000E+00
    0.0000000000E+00    0.0000000000E+00    0.0000000000E+00    0.0000000000E+00
   -4.6974728799E+00
   </PP_DIJ>
 </PP_NONLOCAL>
 <PP_PSWFC>
   <PP_CHI.1
       type="real"
       size="1148"
       columns="4"
       index="1"
       occupation="10.000"
       pseudo_energy="   -0.3398816402E+01"
       label="5D"
       l="2" >
    6.1437786282E-12    5.8533726557E-06    4.6803077033E-05    1.5782601323E-04
    3.7366063904E-04    7.2868880089E-04    1.2568188231E-03    1.9913702675E-03
    2.9649607702E-03    4.2093953524E-03    5.7555585964E-03    7.6333100634E-03
    9.8713833220E-03    1.2497288939E-02    1.5537221769E-02    1.9015972876E-02
    2.2956846371E-02    2.7381581479E-02    3.2310280082E-02    3.7761339994E-02
    4.3751394192E-02    5.0295256210E-02    5.7405871863E-02    6.5094277477E-02
    7.3369564736E-02    8.2238852264E-02    9.1707264029E-02    1.0177791460E-01
    1.1245190132E-01    1.2372830336E-01    1.3560418767E-01    1.4807462173E-01
    1.6113269310E-01    1.7476953556E-01    1.8897436183E-01    2.0373450263E-01
    2.1903545194E-01    2.3486091827E-01    2.5119288175E-01    2.6801165664E-01
    2.8529595924E-01    3.0302298076E-01    3.2116846480E-01    3.3970678933E-01
    3.5861105263E-01    3.7785316296E-01    3.9740393155E-01    4.1723316856E-01
    4.3730978171E-01    4.5760187695E-01    4.7807686113E-01    4.9870154595E-01
    5.1944225303E-01    5.4026491952E-01    5.6113520401E-01    5.8201859222E-01
    6.0288050217E-01    6.2368638840E-01    6.4440184488E-01    6.6499270623E-01
    6.8542514693E-01    7.0566577818E-01    7.2568174198E-01    7.4544080231E-01
    7.6491143291E-01    7.8406290158E-01    8.0286535053E-01    8.2128987275E-01
    8.3930858404E-01    8.5689469054E-01    8.7402255163E-01    8.9066773798E-01
    9.0680708466E-01    9.2241873919E-01    9.3748220445E-01    9.5197837640E-01
    9.6588957651E-01    9.7919957895E-01    9.9189363256E-01    1.0039584775E+00
    1.0153823569E+00    1.0261550230E+00    1.0362677387E+00    1.0457132740E+00
    1.0544858976E+00    1.0625813638E+00    1.0699968948E+00    1.0767311592E+00
    1.0827842457E+00    1.0881576329E+00    1.0928541558E+00    1.0968779682E+00
    1.1002345023E+00    1.1029304247E+00    1.1049735899E+00    1.1063729910E+00
    1.1071387081E+00    1.1072818547E+00    1.1068145218E+00    1.1057497208E+00
    1.1041013251E+00    1.1018840098E+00    1.0991131917E+00    1.0958049675E+00
    1.0919760521E+00    1.0876437169E+00    1.0828257278E+00    1.0775402835E+00
    1.0718059541E+00    1.0656416210E+00    1.0590664166E+00    1.0520996659E+00
    1.0447608290E+00    1.0370694449E+00    1.0290450764E+00    1.0207072579E+00
    1.0120754433E+00    1.0031689573E+00    9.9400694742E-01    9.8460833950E-01
    9.7499179409E-01    9.6517566595E-01    9.5517796562E-01    9.4501632346E-01
    9.3470795610E-01    9.2426963545E-01    9.1371766022E-01    9.0306783002E-01
    8.9233542200E-01    8.8153517012E-01    8.7068124688E-01    8.5978724778E-01
    8.4886617814E-01    8.3793044257E-01    8.2699183683E-01    8.1606154216E-01
    8.0515012197E-01    7.9426752087E-01    7.8342306595E-01    7.7262547026E-01
    7.6188283838E-01    7.5120267407E-01    7.4059188979E-01    7.3005681816E-01
    7.1960322514E-01    7.0923632482E-01    6.9896079582E-01    6.8878079912E-01
    6.7869999720E-01    6.6872157438E-01    6.5884825826E-01    6.4908234215E-01
    6.3942570830E-01    6.2987985187E-01    6.2044590550E-01    6.1112466427E-01
    6.0191661110E-01    5.9282194225E-01    5.8384059294E-01    5.7497226289E-01
    5.6621644170E-01    5.5757243386E-01    5.4903938343E-01    5.4061629802E-01
    5.3230207225E-01    5.2409551026E-01    5.1599534750E-01    5.0800027135E-01
    5.0010894077E-01    4.9232000464E-01    4.8463211894E-01    4.7704396244E-01
    4.6955425101E-01    4.6216175032E-01    4.5486528683E-01    4.4766375733E-01
    4.4055613719E-01    4.3354148673E-01    4.2661895590E-01    4.1978778696E-01
    4.1304731577E-01    4.0639696964E-01    3.9983624327E-01    3.9336463538E-01
    3.8698160575E-01    3.8068658812E-01    3.7447898888E-01    3.6835818930E-01
    3.6232354728E-01    3.5637439899E-01    3.5051006047E-01    3.4472982913E-01
    3.3903298519E-01    3.3341879310E-01    3.2788650282E-01    3.2243535108E-01
    3.1706456257E-01    3.1177335112E-01    3.0656092072E-01    3.0142646662E-01
    2.9636917628E-01    2.9138823029E-01    2.8648280332E-01    2.8165206491E-01
    2.7689518033E-01    2.7221131130E-01    2.6759961674E-01    2.6305925347E-01
    2.5858937685E-01    2.5418914141E-01    2.4985770146E-01    2.4559421160E-01
    2.4139782731E-01    2.3726770540E-01    2.3320300451E-01    2.2920288556E-01
    2.2526651215E-01    2.2139305099E-01    2.1758167225E-01    2.1383154991E-01
    2.1014186212E-01    2.0651179148E-01    2.0294052536E-01    1.9942725615E-01
    1.9597118153E-01    1.9257150470E-01    1.8922743463E-01    1.8593818622E-01
    1.8270298052E-01    1.7952104493E-01    1.7639161331E-01    1.7331392620E-01
    1.7028723089E-01    1.6731078160E-01    1.6438383957E-01    1.6150567317E-01
    1.5867555802E-01    1.5589277702E-01    1.5315662050E-01    1.5046638623E-01
    1.4782137948E-01    1.4522091314E-01    1.4266430766E-01    1.4015089118E-01
    1.3767999951E-01    1.3525097614E-01    1.3286317232E-01    1.3051594700E-01
    1.2820866687E-01    1.2594070639E-01    1.2371144770E-01    1.2152028069E-01
    1.1936660297E-01    1.1724981982E-01    1.1516934419E-01    1.1312459666E-01
    1.1111500546E-01    1.0914000635E-01    1.0719904266E-01    1.0529156522E-01
    1.0341703232E-01    1.0157490965E-01    9.9764670280E-02    9.7985794607E-02
    9.6237770286E-02    9.4520092187E-02    9.2832262341E-02    9.1173789878E-02
    8.9544190975E-02    8.7942988788E-02    8.6369713397E-02    8.4823901741E-02
    8.3305097553E-02    8.1812851296E-02    8.0346720099E-02    7.8906267688E-02
    7.7491064319E-02    7.6100686711E-02    7.4734717977E-02    7.3392747555E-02
    7.2074371139E-02    7.0779190605E-02    6.9506813949E-02    6.8256855207E-02
    6.7028934391E-02    6.5822677417E-02    6.4637716031E-02    6.3473687742E-02
    6.2330235749E-02    6.1207008870E-02    6.0103661474E-02    5.9019853405E-02
    5.7955249919E-02    5.6909521605E-02    5.5882344325E-02    5.4873399136E-02
    5.3882372224E-02    5.2908954838E-02    5.1952843215E-02    5.1013738518E-02
    5.0091346764E-02    4.9185378759E-02    4.8295550029E-02    4.7421580758E-02
    4.6563195716E-02    4.5720124199E-02    4.4892099960E-02    4.4078861149E-02
    4.3280150246E-02    4.2495713997E-02    4.1725303356E-02    4.0968673419E-02
    4.0225583363E-02    3.9495796388E-02    3.8779079653E-02    3.8075204219E-02
    3.7383944990E-02    3.6705080654E-02    3.6038393625E-02    3.5383669985E-02
    3.4740699433E-02    3.4109275221E-02    3.3489194107E-02    3.2880256294E-02
    3.2282265380E-02    3.1695028305E-02    3.1118355295E-02    3.0552059816E-02
    2.9995958516E-02    2.9449871180E-02    2.8913620677E-02    2.8387032913E-02
    2.7869936780E-02    2.7362164109E-02    2.6863549624E-02    2.6373930895E-02
    2.5893148287E-02    2.5421044924E-02    2.4957466635E-02    2.4502261917E-02
    2.4055281884E-02    2.3616380233E-02    2.3185413193E-02    2.2762239490E-02
    2.2346720301E-02    2.1938719216E-02    2.1538102198E-02    2.1144737544E-02
    2.0758495843E-02    2.0379249942E-02    2.0006874905E-02    1.9641247980E-02
    1.9282248556E-02    1.8929758135E-02    1.8583660288E-02    1.8243840630E-02
    1.7910186774E-02    1.7582588308E-02    1.7260936756E-02    1.6945125544E-02
    1.6635049973E-02    1.6330607182E-02    1.6031696120E-02    1.5738217513E-02
    1.5450073836E-02    1.5167169282E-02    1.4889409730E-02    1.4616702723E-02
    1.4348957431E-02    1.4086084631E-02    1.3827996673E-02    1.3574607457E-02
    1.3325832405E-02    1.3081588436E-02    1.2841793937E-02    1.2606368741E-02
    1.2375234102E-02    1.2148312666E-02    1.1925528455E-02    1.1706806834E-02
    1.1492074495E-02    1.1281259431E-02    1.1074290912E-02    1.0871099466E-02
    1.0671616856E-02    1.0475776057E-02    1.0283511237E-02    1.0094757736E-02
    9.9094520420E-03    9.7275317780E-03    9.5489356760E-03    9.3736035604E-03
    9.2014763283E-03    9.0324959313E-03    8.8666053562E-03    8.7037486077E-03
    8.5438706904E-03    8.3869175911E-03    8.2328362616E-03    8.0815746023E-03
    7.9330814448E-03    7.7873065365E-03    7.6442005236E-03    7.5037149361E-03
    7.3658021717E-03    7.2304154812E-03    7.0975089529E-03    6.9670374982E-03
    6.8389568371E-03    6.7132234840E-03    6.5897947336E-03    6.4686286473E-03
    6.3496840397E-03    6.2329204652E-03    6.1182982052E-03    6.0057782548E-03
    5.8953223109E-03    5.7868927593E-03    5.6804526629E-03    5.5759657492E-03
    5.4733963992E-03    5.3727096355E-03    5.2738711111E-03    5.1768470979E-03
    5.0816044764E-03    4.9881107243E-03    4.8963339063E-03    4.8062426636E-03
    4.7178062035E-03    4.6309942899E-03    4.5457772327E-03    4.4621258786E-03
    4.3800116016E-03    4.2994062933E-03    4.2202823540E-03    4.1426126836E-03
    4.0663706725E-03    3.9915301933E-03    3.9180655917E-03    3.8459516786E-03
    3.7751637214E-03    3.7056774363E-03    3.6374689796E-03    3.5705149407E-03
    3.5047923337E-03    3.4402785903E-03    3.3769515520E-03    3.3147894629E-03
    3.2537709626E-03    3.1938750790E-03    3.1350812214E-03    3.0773691737E-03
    3.0207190877E-03    2.9651114764E-03    2.9105272077E-03    2.8569474980E-03
    2.8043539057E-03    2.7527283255E-03    2.7020529820E-03    2.6523104240E-03
    2.6034835185E-03    2.5555554451E-03    2.5085096903E-03    2.4623300422E-03
    2.4170005848E-03    2.3725056926E-03    2.3288300258E-03    2.2859585249E-03
    2.2438764053E-03    2.2025691532E-03    2.1620225197E-03    2.1222225169E-03
    2.0831554126E-03    2.0448077259E-03    2.0071662227E-03    1.9702179112E-03
    1.9339500374E-03    1.8983500810E-03    1.8634057511E-03    1.8291049818E-03
    1.7954359285E-03    1.7623869638E-03    1.7299466733E-03    1.6981038520E-03
    1.6668475004E-03    1.6361668210E-03    1.6060512140E-03    1.5764902746E-03
    1.5474737887E-03    1.5189917297E-03    1.4910342554E-03    1.4635917039E-03
    1.4366545912E-03    1.4102136074E-03    1.3842596135E-03    1.3587836387E-03
    1.3337768769E-03    1.3092306840E-03    1.2851365747E-03    1.2614862199E-03
    1.2382714435E-03    1.2154842199E-03    1.1931166712E-03    1.1711610642E-03
    1.1496098083E-03    1.1284554523E-03    1.1076906822E-03    1.0873083189E-03
    1.0673013150E-03    1.0476627534E-03    1.0283858438E-03    1.0094639213E-03
    9.9089044371E-04    9.7265898920E-04    9.5476325434E-04    9.3719705177E-04
    9.1995430815E-04    9.0302906204E-04    8.8641546181E-04    8.7010776370E-04
    8.5410032980E-04    8.3838762608E-04    8.2296422054E-04    8.0782478130E-04
    7.9296407475E-04    7.7837696379E-04    7.6405840601E-04    7.5000345196E-04
    7.3620724348E-04    7.2266501195E-04    7.0937207670E-04    6.9632384339E-04
    6.8351580238E-04    6.7094352722E-04    6.5860267306E-04    6.4648897522E-04
    6.3459824767E-04    6.2292638156E-04    6.1146934387E-04    6.0022317595E-04
    5.8918399215E-04    5.7834797853E-04    5.6771139149E-04    5.5727055647E-04
    5.4702186673E-04    5.3696178202E-04    5.2708682744E-04    5.1739359217E-04
    5.0787872831E-04    4.9853894972E-04    4.8937103091E-04    4.8037180585E-04
    4.7153816694E-04    4.6286706390E-04    4.5435550274E-04    4.4600054467E-04
    4.3779930512E-04    4.2974895275E-04    4.2184670844E-04    4.1408984431E-04
    4.0647568285E-04    3.9900159589E-04    3.9166500376E-04    3.8446337438E-04
    3.7739422236E-04    3.7045510816E-04    3.6364363723E-04    3.5695745919E-04
    3.5039426700E-04    3.4395179617E-04    3.3762782399E-04    3.3142016873E-04
    3.2532668887E-04    3.1934528242E-04    3.1347388613E-04    3.0771047479E-04
    3.0205306056E-04    2.9649969222E-04    2.9104845454E-04    2.8569746762E-04
    2.8044488619E-04    2.7528889901E-04    2.7022772823E-04    2.6525962879E-04
    2.6038288777E-04    2.5559582384E-04    2.5089678667E-04    2.4628415633E-04
    2.4175634276E-04    2.3731178519E-04    2.3294895164E-04    2.2866633835E-04
    2.2446246926E-04    2.2033589552E-04    2.1628519499E-04    2.1230897171E-04
    2.0840585546E-04    2.0457450125E-04    2.0081358889E-04    1.9712182249E-04
    1.9349793004E-04    1.8994066298E-04    1.8644879572E-04    1.8302112527E-04
    1.7965647078E-04    1.7635367316E-04    1.7311159466E-04    1.6992911850E-04
    1.6680514844E-04    1.6373860844E-04    1.6072844229E-04    1.5777361321E-04
    1.5487310352E-04    1.5202591426E-04    1.4923106489E-04    1.4648759289E-04
    1.4379455350E-04    1.4115101932E-04    1.3855608002E-04    1.3600884206E-04
    1.3350842832E-04    1.3105397782E-04    1.2864464545E-04    1.2627960164E-04
    1.2395803209E-04    1.2167913747E-04    1.1944213320E-04    1.1724624910E-04
    1.1509072918E-04    1.1297483135E-04    1.1089782719E-04    1.0885900166E-04
    1.0685765290E-04    1.0489309195E-04    1.0296464253E-04    1.0107164079E-04
    9.9213435111E-05    9.7389385844E-05    9.5598865115E-05    9.3841256599E-05
    9.2115955304E-05    9.0422367370E-05    8.8759909856E-05    8.7128010546E-05
    8.5526107744E-05    8.3953650088E-05    8.2410096353E-05    8.0894915269E-05
    7.9407585335E-05    7.7947594639E-05    7.6514440683E-05    7.5107630210E-05
    7.3726679031E-05    7.2371111861E-05    7.1040462154E-05    6.9734271939E-05
    6.8452091670E-05    6.7193480062E-05    6.5958003944E-05    6.4745238111E-05
    6.3554765170E-05    6.2386175407E-05    6.1239066634E-05    6.0113044061E-05
    5.9007720154E-05    5.7922714501E-05    5.6857653683E-05    5.5812171147E-05
    5.4785907076E-05    5.3778508267E-05    5.2789628009E-05    5.1818925964E-05
    5.0866068048E-05    4.9930726319E-05    4.9012578860E-05    4.8111309675E-05
    4.7226608570E-05    4.6358171055E-05    4.5505698236E-05    4.4668896712E-05
    4.3847478473E-05    4.3041160802E-05    4.2249666179E-05    4.1472722182E-05
    4.0710061397E-05    3.9961421324E-05    3.9226544285E-05    3.8505177339E-05
    3.7797072193E-05    3.7101985116E-05    3.6419676856E-05    3.5749912557E-05
    3.5092461680E-05    3.4447097920E-05    3.3813599133E-05    3.3191747254E-05
    3.2581328228E-05    3.1982131932E-05    3.1393952103E-05    3.0816586269E-05
    3.0249835678E-05    2.9693505232E-05    2.9147403414E-05    2.8611342229E-05
    2.8085137136E-05    2.7568606984E-05    2.7061573950E-05    2.6563863480E-05
    2.6075304227E-05    2.5595727991E-05    2.5124969664E-05    2.4662867172E-05
    2.4209261416E-05    2.3763996225E-05    2.3326918293E-05    2.2897877135E-05
    2.2476725027E-05    2.2063316963E-05    2.1657510599E-05    2.1259166207E-05
    2.0868146628E-05    2.0484317219E-05    2.0107545817E-05    1.9737702683E-05
    1.9374660462E-05    1.9018294143E-05    1.8668481007E-05    1.8325100593E-05
    1.7988034653E-05    1.7657167111E-05    1.7332384025E-05    1.7013573546E-05
    1.6700625880E-05    1.6393433251E-05    1.6091889863E-05    1.5795891865E-05
    1.5505337314E-05    1.5220126139E-05    1.4940160108E-05    1.4665342797E-05
    1.4395579550E-05    1.4130777454E-05    1.3870845299E-05    1.3615693556E-05
    1.3365234338E-05    1.3119381374E-05    1.2878049978E-05    1.2641157021E-05
    1.2408620901E-05    1.2180361517E-05    1.1956300237E-05    1.1736359877E-05
    1.1520464671E-05    1.1308540244E-05    1.1100513588E-05    1.0896313039E-05
    1.0695868248E-05    1.0499110159E-05    1.0305970985E-05    1.0116384186E-05
    9.9302844448E-06    9.7476076430E-06    9.5682908423E-06    9.3922722605E-06
    9.2194912510E-06    9.0498882820E-06    8.8834049157E-06    8.7199837884E-06
    8.5595685908E-06    8.4021040487E-06    8.2475359036E-06    8.0958108945E-06
    7.9468767394E-06    7.8006821171E-06    7.6571766498E-06    7.5163108859E-06
    7.3780362827E-06    7.2423051896E-06    7.1090708321E-06    6.9782872956E-06
    6.8499095092E-06    6.7238932307E-06    6.6001950313E-06    6.4787722804E-06
    6.3595831309E-06    6.2425865054E-06    6.1277420813E-06    6.0150102774E-06
    5.9043522400E-06    5.7957298300E-06    5.6891056091E-06    5.5844428275E-06
    5.4817054109E-06    5.3808579482E-06    5.2818656795E-06    5.1846944837E-06
    5.0893108673E-06    4.9956819523E-06    4.9037754654E-06    4.8135597266E-06
    4.7250036382E-06    4.6380766746E-06    4.5527488712E-06    4.4689908143E-06
    4.3867736312E-06    4.3060689800E-06    4.2268490398E-06    4.1490865015E-06
    4.0727545579E-06    3.9978268948E-06    3.9242776819E-06    3.8520815638E-06
    3.7812136513E-06    3.7116495131E-06    3.6433651668E-06    3.5763370712E-06
    3.5105421181E-06    3.4459576239E-06    3.3825613225E-06    3.3203313570E-06
    3.2592462725E-06    3.1992850087E-06    3.1404268924E-06    3.0826516310E-06
    3.0259393046E-06    2.9702703600E-06    2.9156256032E-06    2.8619861937E-06
    2.8093336369E-06    2.7576497789E-06    2.7069167993E-06    2.6571172055E-06
    2.6082338267E-06    2.5602498079E-06    2.5131486039E-06    2.4669139741E-06
    2.4215299763E-06    2.3769809617E-06    2.3332515693E-06    2.2903267205E-06
    2.2481916142E-06    2.2068317213E-06    2.1662327802E-06    2.1263807915E-06
    2.0872620133E-06    2.0488629563E-06    2.0111703796E-06    1.9741712857E-06
    1.9378529161E-06    1.9022027471E-06    1.8672084853E-06    1.8328580634E-06
    1.7991396362E-06    1.7660415762E-06    1.7335524700E-06    1.7016611138E-06
    1.6703565104E-06    1.6396278643E-06    1.6094645791E-06    1.5798562531E-06
    1.5507926759E-06    1.5222638249E-06    1.4942598620E-06    1.4667711301E-06
    1.4397881496E-06    1.4133016154E-06    1.3873023935E-06    1.3617815179E-06
    1.3367301877E-06    1.3121397639E-06    1.2880017661E-06    1.2643078703E-06
    1.2410499054E-06    1.2182198508E-06    1.1958098333E-06    1.1738121246E-06
    1.1522191385E-06    1.1310234286E-06    1.1102176852E-06    1.0897947333E-06
    1.0697475298E-06    1.0500691611E-06    1.0307528410E-06    1.0117919080E-06
    9.9317982316E-07    9.7491016791E-07    9.5697664172E-07    9.3937305999E-07
    9.2209335191E-07    9.0513155836E-07    8.8848182988E-07    8.7213842459E-07
    8.5609570627E-07    8.4034814241E-07    8.2489030227E-07    8.0971685505E-07
    7.9482256802E-07    7.8020230473E-07    7.6585102322E-07    7.5176377432E-07
    7.3793569991E-07    7.2436203125E-07    7.1103808736E-07    6.9795927337E-07
    6.8512107894E-07    6.7251907675E-07    6.6014892093E-07    6.4800634557E-07
    6.3608716323E-07    6.2438726355E-07    6.1290261178E-07    6.0162924742E-07
    5.9056328283E-07    5.7970090193E-07    5.6903835881E-07    5.5857197652E-07
    5.4829814575E-07    5.3821332363E-07    5.2831403244E-07    5.1859685847E-07
    5.0905845082E-07    4.9969552025E-07    4.9050483805E-07    4.8148323490E-07
    4.7262759983E-07    4.6393487906E-07    4.5540207505E-07    4.4702624540E-07
    4.3880450184E-07    4.3073400928E-07    4.2281198475E-07    4.1503569652E-07
    4.0740246313E-07    3.9990965243E-07    3.9255468073E-07    3.8533501189E-07
    3.7824815640E-07    3.7129167058E-07    3.6446315573E-07    3.5776025727E-07
    3.5118066395E-07    3.4472210704E-07    3.3838235958E-07    3.3215923557E-07
    3.2605058923E-07    3.2005431429E-07    3.1416834321E-07    3.0839064651E-07
    3.0271923204E-07    2.9715214432E-07    2.9168746386E-07    2.8632330647E-07
    2.8105782265E-07    2.7588919692E-07    2.7081564720E-07    2.6583542423E-07
    2.6094681092E-07    2.5614812177E-07    2.5143770230E-07    2.4681392848E-07
    2.4227520616E-07    2.3781997053E-07    2.3344668556E-07    2.2915384350E-07
    2.2493996433E-07    2.2080359527E-07    2.1674331027E-07    2.1275770954E-07
    2.0884541901E-07    2.0500508994E-07    2.0123539836E-07    1.9753504469E-07
    1.9390275327E-07    1.9033727190E-07    1.8683737142E-07    1.8340184528E-07
    1.8002950917E-07    1.7671920052E-07    1.7346977818E-07    1.7028012201E-07
    1.6714913246E-07    1.6407573022E-07    1.6105885584E-07    1.5809746935E-07
    1.5519054995E-07    1.5233709559E-07    1.4953612268E-07    1.4678666571E-07
    1.4408777695E-07    1.4143852611E-07    1.3883800001E-07    1.3628530227E-07
    1.3377955302E-07    1.3131988856E-07    1.2890546108E-07    1.2653543841E-07
    1.2420900363E-07    1.2192535491E-07    1.1968370515E-07    1.1748328171E-07
    1.1532332620E-07    1.1320309417E-07    1.1112185487E-07    1.0907889100E-07
    1.0707349845E-07    1.0510498607E-07    1.0317267542E-07    1.0127590056E-07
    9.9414007787E-08    9.7586355436E-08    9.5792313641E-08    9.4031264130E-08
    9.2302600000E-08    9.0605725524E-08    8.8940055931E-08    8.7305017211E-08
    8.5700045914E-08    8.4124588957E-08    8.2578103433E-08    8.1060056425E-08
    7.9569924823E-08    7.8107195139E-08    7.6671363333E-08    7.5261934640E-08
    7.3878423394E-08    7.2520352870E-08    7.1187255112E-08    6.9878670774E-08
    6.8594148962E-08    6.7333247075E-08    6.6095530657E-08    6.4880573244E-08
    6.3687956222E-08    6.2517268675E-08    6.1368107250E-08    6.0240076012E-08
    5.9132786311E-08    5.8045856647E-08    5.6978912542E-08    5.5931586405E-08
    5.4903517408E-08    5.3894351363E-08    5.2903740595E-08    5.1931343827E-08
    5.0976826061E-08    5.0039858464E-08    4.9120118250E-08    4.8217288571E-08
    4.7331058410E-08    4.6461122469E-08    4.5607181070E-08    4.4768940047E-08
    4.3946110645E-08    4.3138409421E-08    4.2345558149E-08    4.1567283716E-08
    4.0803318039E-08    4.0053397963E-08    3.9317265178E-08    3.8594666122E-08
    3.7885351900E-08    3.7189078193E-08    3.6505605179E-08    3.5834697448E-08
    3.5176123919E-08    3.4529657764E-08    3.3895076325E-08    3.3272161041E-08
    3.2660697371E-08    3.2060474723E-08    3.1471286376E-08    3.0892929414E-08
    3.0325204653E-08    2.9767916572E-08    2.9220873246E-08    2.8683886282E-08
    2.8156770754E-08    2.7639345134E-08    2.7131431236E-08    2.6632854151E-08
    2.6143442186E-08    2.5663026806E-08    2.5191442579E-08    2.4728527115E-08
    2.4274121008E-08    2.3828067788E-08    2.3390213862E-08    2.2960408459E-08
    2.2538503586E-08    2.2124353969E-08    2.1717817007E-08    2.1318752724E-08
    2.0927023715E-08    2.0542495104E-08    2.0165034495E-08    1.9794511929E-08
    1.9430799837E-08    1.9073772994E-08    1.8723308482E-08    1.8379285639E-08
    1.8041586027E-08    1.7710093382E-08    1.7384693583E-08    1.7065274605E-08
    1.6751726484E-08    1.6443941278E-08    1.6141813031E-08    1.5845237734E-08
    1.5554113295E-08    1.5268339495E-08    1.4987817961E-08    1.4712452129E-08
    1.4442147209E-08    1.4176810157E-08    1.3916349637E-08    1.3660675995E-08
    1.3409701227E-08    1.3163338946E-08    1.2921504351E-08    1.2684114206E-08
    1.2451086801E-08    1.2222341930E-08    1.1997800865E-08    1.1777386321E-08
    1.1561022439E-08    1.1348634751E-08    1.1140150161E-08    1.0935496916E-08
    1.0734604582E-08    1.0537404023E-08    1.0343827371E-08    1.0153808009E-08
    9.9672805430E-09    9.7841807818E-09    9.6044457147E-09    9.4280134905E-09
    9.2548233948E-09    9.0848158297E-09    8.9179322933E-09    8.7541153592E-09
    8.5933086570E-09    8.4354568527E-09    8.2805056305E-09    8.1284016731E-09
    7.9790926432E-09    7.8325271663E-09    7.6886548121E-09    7.5474260778E-09
   </PP_CHI.1>
   <PP_CHI.2
       type="real"
       size="1148"
       columns="4"
       index="2"
       occupation=" 2.000"
       pseudo_energy="   -0.1612645189E+01"
       label="6S"
       l="0" >
    4.4047751557E-13    2.1400312819E-03    4.2839058911E-03    6.4354588047E-03
    8.5985083292E-03    1.0776847836E-02    1.2974237584E-02    1.5194396656E-02
    1.7440995032E-02    1.9717645839E-02    2.2027897789E-02    2.4375227837E-02
    2.6763034085E-02    2.9194628957E-02    3.1673232657E-02    3.4201966947E-02
    3.6783849247E-02    3.9421787094E-02    4.2118572963E-02    4.4876879471E-02
    4.7699254978E-02    5.0588119598E-02    5.3545761627E-02    5.6574334399E-02
    5.9675853584E-02    6.2852194919E-02    6.6105092385E-02    6.9436136835E-02
    7.2846775062E-02    7.6338309314E-02    7.9911897252E-02    8.3568552334E-02
    8.7309144641E-02    9.1134402106E-02    9.5044912161E-02    9.9041123778E-02
    1.0312334989E-01    1.0729177018E-01    1.1154643421E-01    1.1588726491E-01
    1.2031406234E-01    1.2482650777E-01    1.2942416804E-01    1.3410650011E-01
    1.3887285589E-01    1.4372248729E-01    1.4865455134E-01    1.5366811557E-01
    1.5876216345E-01    1.6393559993E-01    1.6918725708E-01    1.7451589973E-01
    1.7992023117E-01    1.8539889879E-01    1.9095049974E-01    1.9657358643E-01
    2.0226667208E-01    2.0802823601E-01    2.1385672893E-01    2.1975057791E-01
    2.2570819132E-01    2.3172796348E-01    2.3780827906E-01    2.4394751732E-01
    2.5014405603E-01    2.5639627506E-01    2.6270255980E-01    2.6906130418E-01
    2.7547091337E-01    2.8192980615E-01    2.8843641702E-01    2.9498919784E-01
    3.0158661918E-01    3.0822717132E-01    3.1490936487E-01    3.2163173103E-01
    3.2839282151E-01    3.3519120808E-01    3.4202548176E-01    3.4889425172E-01
    3.5579614379E-01    3.6272979865E-01    3.6969386975E-01    3.7668702094E-01
    3.8370792372E-01    3.9075525435E-01    3.9782769063E-01    4.0492390850E-01
    4.1204257838E-01    4.1918236138E-01    4.2634190532E-01    4.3351984061E-01
    4.4071477600E-01    4.4792529429E-01    4.5514994792E-01    4.6238725456E-01
    4.6963569265E-01    4.7689369701E-01    4.8415965446E-01    4.9143189949E-01
    4.9870871008E-01    5.0598830359E-01    5.1326883286E-01    5.2054838240E-01
    5.2782496490E-01    5.3509651783E-01    5.4236090043E-01    5.4961589087E-01
    5.5685918374E-01    5.6408838786E-01    5.7130102444E-01    5.7849452559E-01
    5.8566623315E-01    5.9281339799E-01    5.9993317965E-01    6.0702264642E-01
    6.1407877586E-01    6.2109845567E-01    6.2807848515E-01    6.3501557694E-01
    6.4190635931E-01    6.4874737890E-01    6.5553510383E-01    6.6226592735E-01
    6.6893617189E-01    6.7554209351E-01    6.8207988684E-01    6.8854569039E-01
    6.9493559230E-01    7.0124563645E-01    7.0747182894E-01    7.1361014497E-01
    7.1965653599E-01    7.2560693723E-01    7.3145727547E-01    7.3720347713E-01
    7.4284147654E-01    7.4836722448E-01    7.5377669690E-01    7.5906590376E-01
    7.6423089804E-01    7.6926778484E-01    7.7417273052E-01    7.7894197190E-01
    7.8357182548E-01    7.8805869655E-01    7.9239908833E-01    7.9658961092E-01
    8.0062699022E-01    8.0450807657E-01    8.0822985326E-01    8.1178944480E-01
    8.1518412492E-01    8.1841132424E-01    8.2146863767E-01    8.2435383142E-01
    8.2706484961E-01    8.2959982052E-01    8.3195706233E-01    8.3413508846E-01
    8.3613261237E-01    8.3794855190E-01    8.3958203305E-01    8.4103239322E-01
    8.4229918386E-01    8.4338217262E-01    8.4428134482E-01    8.4499690437E-01
    8.4552927409E-01    8.4587909537E-01    8.4604722726E-01    8.4603474492E-01
    8.4584293747E-01    8.4547330518E-01    8.4492755611E-01    8.4420760212E-01
    8.4331555428E-01    8.4225371773E-01    8.4102458595E-01    8.3963083449E-01
    8.3807531419E-01    8.3636104385E-01    8.3449120246E-01    8.3246912096E-01
    8.3029827351E-01    8.2798226846E-01    8.2552483883E-01    8.2292983255E-01
    8.2020120228E-01    8.1734299506E-01    8.1435934165E-01    8.1125444563E-01
    8.0803257247E-01    8.0469803828E-01    8.0125519861E-01    7.9770843714E-01
    7.9406215435E-01    7.9032075619E-01    7.8648864290E-01    7.8257019781E-01
    7.7856977637E-01    7.7449169531E-01    7.7034022204E-01    7.6611956429E-01
    7.6183386004E-01    7.5748716777E-01    7.5308345707E-01    7.4862659966E-01
    7.4412036078E-01    7.3956839108E-01    7.3497421898E-01    7.3034124352E-01
    7.2567272768E-01    7.2097179232E-01    7.1624141062E-01    7.1148440332E-01
    7.0670343441E-01    7.0190100756E-01    6.9707946299E-01    6.9224097544E-01
    6.8738755193E-01    6.8252103096E-01    6.7764308795E-01    6.7275526804E-01
    6.6785904376E-01    6.6295585521E-01    6.5804710806E-01    6.5313416100E-01
    6.4821832906E-01    6.4330089021E-01    6.3838308277E-01    6.3346610703E-01
    6.2855112606E-01    6.2363926648E-01    6.1873161927E-01    6.1382924055E-01
    6.0893315239E-01    6.0404434351E-01    5.9916377008E-01    5.9429235647E-01
    5.8943099591E-01    5.8458055130E-01    5.7974185583E-01    5.7491571373E-01
    5.7010290093E-01    5.6530416573E-01    5.6052022946E-01    5.5575178712E-01
    5.5099950802E-01    5.4626403643E-01    5.4154599214E-01    5.3684597109E-01
    5.3216454597E-01    5.2750226678E-01    5.2285966141E-01    5.1823723618E-01
    5.1363547640E-01    5.0905484690E-01    5.0449579257E-01    4.9995873884E-01
    4.9544409222E-01    4.9095224077E-01    4.8648355460E-01    4.8203838631E-01
    4.7761707151E-01    4.7321992923E-01    4.6884726238E-01    4.6449935817E-01
    4.6017648856E-01    4.5587891068E-01    4.5160686720E-01    4.4736058676E-01
    4.4314028435E-01    4.3894616172E-01    4.3477840768E-01    4.3063719856E-01
    4.2652269850E-01    4.2243505981E-01    4.1837442333E-01    4.1434091876E-01
    4.1033466497E-01    4.0635577032E-01    4.0240433299E-01    3.9848044128E-01
    3.9458417387E-01    3.9071560017E-01    3.8687478054E-01    3.8306176661E-01
    3.7927660155E-01    3.7551932031E-01    3.7178994987E-01    3.6808850954E-01
    3.6441501114E-01    3.6076945929E-01    3.5715185161E-01    3.5356217899E-01
    3.5000042575E-01    3.4646656989E-01    3.4296058333E-01    3.3948243205E-01
    3.3603207635E-01    3.3260947101E-01    3.2921456549E-01    3.2584730412E-01
    3.2250762627E-01    3.1919546654E-01    3.1591075493E-01    3.1265341700E-01
    3.0942337403E-01    3.0622054319E-01    3.0304483768E-01    2.9989616689E-01
    2.9677443656E-01    2.9367954890E-01    2.9061140273E-01    2.8756989362E-01
    2.8455491405E-01    2.8156635347E-01    2.7860409850E-01    2.7566803300E-01
    2.7275803822E-01    2.6987399287E-01    2.6701577329E-01    2.6418325351E-01
    2.6137630539E-01    2.5859479869E-01    2.5583860120E-01    2.5310757880E-01
    2.5040159560E-01    2.4772051400E-01    2.4506419477E-01    2.4243249717E-01
    2.3982527901E-01    2.3724239674E-01    2.3468370552E-01    2.3214905929E-01
    2.2963831088E-01    2.2715131203E-01    2.2468791352E-01    2.2224796517E-01
    2.1983131595E-01    2.1743781406E-01    2.1506730694E-01    2.1271964135E-01
    2.1039466346E-01    2.0809221885E-01    2.0581215262E-01    2.0355430940E-01
    2.0131853343E-01    1.9910466858E-01    1.9691255845E-01    1.9474204633E-01
    1.9259297535E-01    1.9046518843E-01    1.8835852840E-01    1.8627283795E-01
    1.8420795978E-01    1.8216373655E-01    1.8014001094E-01    1.7813662571E-01
    1.7615342372E-01    1.7419024794E-01    1.7224694153E-01    1.7032334781E-01
    1.6841931035E-01    1.6653467296E-01    1.6466927975E-01    1.6282297510E-01
    1.6099560375E-01    1.5918701081E-01    1.5739704173E-01    1.5562554241E-01
    1.5387235915E-01    1.5213733871E-01    1.5042032833E-01    1.4872117572E-01
    1.4703972911E-01    1.4537583727E-01    1.4372934951E-01    1.4210011569E-01
    1.4048798627E-01    1.3889281230E-01    1.3731444543E-01    1.3575273796E-01
    1.3420754282E-01    1.3267871358E-01    1.3116610450E-01    1.2966957051E-01
    1.2818896722E-01    1.2672415098E-01    1.2527497881E-01    1.2384130848E-01
    1.2242299848E-01    1.2101990807E-01    1.1963189725E-01    1.1825882676E-01
    1.1690055814E-01    1.1555695369E-01    1.1422787652E-01    1.1291319050E-01
    1.1161276033E-01    1.1032645150E-01    1.0905413031E-01    1.0779566389E-01
    1.0655092018E-01    1.0531976795E-01    1.0410207682E-01    1.0289771723E-01
    1.0170656047E-01    1.0052847867E-01    9.9363344807E-02    9.8211032724E-02
    9.7071417110E-02    9.5944373512E-02    9.4829778341E-02    9.3727508869E-02
    9.2637443237E-02    9.1559460448E-02    9.0493440379E-02    8.9439263774E-02
    8.8396812249E-02    8.7365968294E-02    8.6346615270E-02    8.5338637413E-02
    8.4341919833E-02    8.3356348514E-02    8.2381810314E-02    8.1418192967E-02
    8.0465385079E-02    7.9523276128E-02    7.8591756469E-02    7.7670717324E-02
    7.6760050789E-02    7.5859649828E-02    7.4969408274E-02    7.4089220826E-02
    7.3218983049E-02    7.2358591371E-02    7.1507943083E-02    7.0666936333E-02
    6.9835470129E-02    6.9013444333E-02    6.8200759660E-02    6.7397317677E-02
    6.6603020796E-02    6.5817772276E-02    6.5041476218E-02    6.4274037563E-02
    6.3515362086E-02    6.2765356398E-02    6.2023927939E-02    6.1290984975E-02
    6.0566436596E-02    5.9850192712E-02    5.9142164049E-02    5.8442262144E-02
    5.7750399346E-02    5.7066488808E-02    5.6390444482E-02    5.5722181120E-02
    5.5061614265E-02    5.4408660252E-02    5.3763236199E-02    5.3125260004E-02
    5.2494650343E-02    5.1871326665E-02    5.1255209185E-02    5.0646218882E-02
    5.0044277495E-02    4.9449307516E-02    4.8861232188E-02    4.8279975498E-02
    4.7705462175E-02    4.7137617684E-02    4.6576368220E-02    4.6021640705E-02
    4.5473362783E-02    4.4931462815E-02    4.4395869874E-02    4.3866513740E-02
    4.3343324894E-02    4.2826234517E-02    4.2315174481E-02    4.1810077344E-02
    4.1310876350E-02    4.0817505417E-02    4.0329899138E-02    3.9847992772E-02
    3.9371722241E-02    3.8901024125E-02    3.8435835654E-02    3.7976094708E-02
    3.7521739809E-02    3.7072710113E-02    3.6628945413E-02    3.6190386126E-02
    3.5756973290E-02    3.5328648562E-02    3.4905354211E-02    3.4487033112E-02
    3.4073628740E-02    3.3665085170E-02    3.3261347066E-02    3.2862359680E-02
    3.2468068844E-02    3.2078420969E-02    3.1693363034E-02    3.1312842589E-02
    3.0936807740E-02    3.0565207156E-02    3.0197990051E-02    2.9835106191E-02
    2.9476505880E-02    2.9122139962E-02    2.8771959810E-02    2.8425917325E-02
    2.8083964933E-02    2.7746055572E-02    2.7412142697E-02    2.7082180270E-02
    2.6756122754E-02    2.6433925112E-02    2.6115542799E-02    2.5800931762E-02
    2.5490048429E-02    2.5182849708E-02    2.4879292984E-02    2.4579336109E-02
    2.4282937403E-02    2.3990055647E-02    2.3700650078E-02    2.3414680386E-02
    2.3132106707E-02    2.2852889622E-02    2.2576990149E-02    2.2304369742E-02
    2.2034990286E-02    2.1768814088E-02    2.1505803881E-02    2.1245922811E-02
    2.0989134440E-02    2.0735402738E-02    2.0484692079E-02    2.0236967237E-02
    1.9992193383E-02    1.9750336081E-02    1.9511361282E-02    1.9275235321E-02
    1.9041924915E-02    1.8811397154E-02    1.8583619504E-02    1.8358559796E-02
    1.8136186227E-02    1.7916467355E-02    1.7699372095E-02    1.7484869713E-02
    1.7272929827E-02    1.7063522399E-02    1.6856617733E-02    1.6652186473E-02
    1.6450199594E-02    1.6250628407E-02    1.6053444546E-02    1.5858619971E-02
    1.5666126964E-02    1.5475938121E-02    1.5288026354E-02    1.5102364883E-02
    1.4918927238E-02    1.4737687250E-02    1.4558619051E-02    1.4381697069E-02
    1.4206896028E-02    1.4034190940E-02    1.3863557107E-02    1.3694970111E-02
    1.3528405820E-02    1.3363840376E-02    1.3201250198E-02    1.3040611976E-02
    1.2881902669E-02    1.2725099502E-02    1.2570179963E-02    1.2417121799E-02
    1.2265903016E-02    1.2116501873E-02    1.1968896880E-02    1.1823066796E-02
    1.1678990627E-02    1.1536647621E-02    1.1396017266E-02    1.1257079289E-02
    1.1119813651E-02    1.0984200545E-02    1.0850220395E-02    1.0717853851E-02
    1.0587081790E-02    1.0457885307E-02    1.0330245721E-02    1.0204144566E-02
    1.0079563591E-02    9.9564847555E-03    9.8348902322E-03    9.7147623992E-03
    9.5960838403E-03    9.4788373419E-03    9.3630058912E-03    9.2485726735E-03
    9.1355210701E-03    9.0238346562E-03    8.9134971985E-03    8.8044926531E-03
    8.6968051635E-03    8.5904190581E-03    8.4853188484E-03    8.3814892268E-03
    8.2789150647E-03    8.1775814102E-03    8.0774734863E-03    7.9785766886E-03
    7.8808765838E-03    7.7843589073E-03    7.6890095616E-03    7.5948146140E-03
    7.5017602953E-03    7.4098329973E-03    7.3190192713E-03    7.2293058264E-03
    7.1406795272E-03    7.0531273925E-03    6.9666365934E-03    6.8811944514E-03
    6.7967884367E-03    6.7134061667E-03    6.6310354041E-03    6.5496640555E-03
    6.4692801692E-03    6.3898719342E-03    6.3114276781E-03    6.2339358659E-03
    6.1573850981E-03    6.0817641094E-03    6.0070617667E-03    5.9332670682E-03
    5.8603691414E-03    5.7883572420E-03    5.7172207519E-03    5.6469491783E-03
    5.5775321519E-03    5.5089594256E-03    5.4412208730E-03    5.3743064873E-03
    5.3082063793E-03    5.2429107767E-03    5.1784100225E-03    5.1146945735E-03
    5.0517549993E-03    4.9895819806E-03    4.9281663083E-03    4.8674988821E-03
    4.8075707090E-03    4.7483729024E-03    4.6898966807E-03    4.6321333661E-03
    4.5750743834E-03    4.5187112590E-03    4.4630356191E-03    4.4080391894E-03
    4.3537137933E-03    4.3000513511E-03    4.2470438787E-03    4.1946834866E-03
    4.1429623786E-03    4.0918728512E-03    4.0414072919E-03    3.9915581785E-03
    3.9423180781E-03    3.8936796458E-03    3.8456356240E-03    3.7981788410E-03
    3.7513022103E-03    3.7049987297E-03    3.6592614798E-03    3.6140836236E-03
    3.5694584053E-03    3.5253791493E-03    3.4818392593E-03    3.4388322175E-03
    3.3963515837E-03    3.3543909939E-03    3.3129441603E-03    3.2720048694E-03
    3.2315669821E-03    3.1916244321E-03    3.1521712255E-03    3.1132014395E-03
    3.0747092221E-03    3.0366887910E-03    2.9991344327E-03    2.9620405019E-03
    2.9254014206E-03    2.8892116773E-03    2.8534658261E-03    2.8181584863E-03
    2.7832843413E-03    2.7488381379E-03    2.7148146859E-03    2.6812088566E-03
    2.6480155830E-03    2.6152298584E-03    2.5828467361E-03    2.5508613283E-03
    2.5192688058E-03    2.4880643971E-03    2.4572433878E-03    2.4268011199E-03
    2.3967329911E-03    2.3670344543E-03    2.3377010166E-03    2.3087282391E-03
    2.2801117360E-03    2.2518471742E-03    2.2239302722E-03    2.1963568001E-03
    2.1691225785E-03    2.1422234784E-03    2.1156554200E-03    2.0894143727E-03
    2.0634963541E-03    2.0378974296E-03    2.0126137120E-03    1.9876413606E-03
    1.9629765809E-03    1.9386156240E-03    1.9145547859E-03    1.8907904074E-03
    1.8673188731E-03    1.8441366110E-03    1.8212400922E-03    1.7986258302E-03
    1.7762903804E-03    1.7542303398E-03    1.7324423462E-03    1.7109230780E-03
    1.6896692535E-03    1.6686776306E-03    1.6479450062E-03    1.6274682159E-03
    1.6072441333E-03    1.5872696699E-03    1.5675417741E-03    1.5480574315E-03
    1.5288136638E-03    1.5098075287E-03    1.4910361194E-03    1.4724965644E-03
    1.4541860264E-03    1.4361017029E-03    1.4182408249E-03    1.4006006570E-03
    1.3831784967E-03    1.3659716744E-03    1.3489775526E-03    1.3321935258E-03
    1.3156170199E-03    1.2992454920E-03    1.2830764300E-03    1.2671073522E-03
    1.2513358068E-03    1.2357593719E-03    1.2203756548E-03    1.2051822918E-03
    1.1901769479E-03    1.1753573162E-03    1.1607211179E-03    1.1462661020E-03
    1.1319900445E-03    1.1178907484E-03    1.1039660436E-03    1.0902137860E-03
    1.0766318578E-03    1.0632181668E-03    1.0499706461E-03    1.0368872540E-03
    1.0239659735E-03    1.0112048123E-03    9.9860180219E-04    9.8615499875E-04
    9.7386248136E-04    9.6172235269E-04    9.4973273849E-04    9.3789178730E-04
    9.2619767016E-04    9.1464858039E-04    9.0324273328E-04    8.9197836583E-04
    8.8085373653E-04    8.6986712504E-04    8.5901683199E-04    8.4830117871E-04
    8.3771850695E-04    8.2726717870E-04    8.1694557590E-04    8.0675210019E-04
    7.9668517274E-04    7.8674323392E-04    7.7692474317E-04    7.6722817867E-04
    7.5765203722E-04    7.4819483391E-04    7.3885510199E-04    7.2963139260E-04
    7.2052227457E-04    7.1152633420E-04    7.0264217507E-04    6.9386841779E-04
    6.8520369986E-04    6.7664667539E-04    6.6819601498E-04    6.5985040544E-04
    6.5160854965E-04    6.4346916637E-04    6.3543099001E-04    6.2749277045E-04
    6.1965327289E-04    6.1191127762E-04    6.0426557987E-04    5.9671498961E-04
    5.8925833137E-04    5.8189444410E-04    5.7462218094E-04    5.6744040908E-04
    5.6034800962E-04    5.5334387732E-04    5.4642692052E-04    5.3959606092E-04
    5.3285023346E-04    5.2618838612E-04    5.1960947978E-04    5.1311248807E-04
    5.0669639721E-04    5.0036020585E-04    4.9410292494E-04    4.8792357755E-04
    4.8182119875E-04    4.7579483546E-04    4.6984354630E-04    4.6396640143E-04
    4.5816248246E-04    4.5243088227E-04    4.4677070486E-04    4.4118106527E-04
    4.3566108941E-04    4.3020991391E-04    4.2482668605E-04    4.1951056355E-04
    4.1426071453E-04    4.0907631731E-04    4.0395656032E-04    3.9890064199E-04
    3.9390777059E-04    3.8897716415E-04    3.8410805031E-04    3.7929966623E-04
    3.7455125845E-04    3.6986208278E-04    3.6523140421E-04    3.6065849677E-04
    3.5614264344E-04    3.5168313602E-04    3.4727927505E-04    3.4293036968E-04
    3.3863573758E-04    3.3439470481E-04    3.3020660576E-04    3.2607078302E-04
    3.2198658729E-04    3.1795337726E-04    3.1397051954E-04    3.1003738855E-04
    3.0615336645E-04    3.0231784298E-04    2.9853021544E-04    2.9478988856E-04
    2.9109627443E-04    2.8744879237E-04    2.8384686890E-04    2.8028993759E-04
    2.7677743903E-04    2.7330882070E-04    2.6988353692E-04    2.6650104874E-04
    2.6316082389E-04    2.5986233664E-04    2.5660506778E-04    2.5338850452E-04
    2.5021214040E-04    2.4707547522E-04    2.4397801497E-04    2.4091927175E-04
    2.3789876369E-04    2.3491601487E-04    2.3197055527E-04    2.2906192069E-04
    2.2618965265E-04    2.2335329837E-04    2.2055241065E-04    2.1778654784E-04
    2.1505527375E-04    2.1235815758E-04    2.0969477390E-04    2.0706470250E-04
    2.0446752840E-04    2.0190284176E-04    1.9937023780E-04    1.9686931678E-04
    1.9439968389E-04    1.9196094922E-04    1.8955272769E-04    1.8717463899E-04
    1.8482630752E-04    1.8250736236E-04    1.8021743715E-04    1.7795617010E-04
    1.7572320390E-04    1.7351818566E-04    1.7134076688E-04    1.6919060336E-04
    1.6706735521E-04    1.6497068672E-04    1.6290026635E-04    1.6085576669E-04
    1.5883686438E-04    1.5684324007E-04    1.5487457838E-04    1.5293056786E-04
    1.5101090089E-04    1.4911527369E-04    1.4724338626E-04    1.4539494231E-04
    1.4356964923E-04    1.4176721806E-04    1.3998736341E-04    1.3822980345E-04
    1.3649425983E-04    1.3478045767E-04    1.3308812553E-04    1.3141699530E-04
    1.2976680223E-04    1.2813728484E-04    1.2652818493E-04    1.2493924747E-04
    1.2337022065E-04    1.2182085573E-04    1.2029090712E-04    1.1878013225E-04
    1.1728829157E-04    1.1581514853E-04    1.1436046949E-04    1.1292402374E-04
    1.1150558343E-04    1.1010492355E-04    1.0872182189E-04    1.0735605899E-04
    1.0600741815E-04    1.0467568534E-04    1.0336064920E-04    1.0206210101E-04
    1.0077983464E-04    9.9513646533E-05    9.8263335655E-05    9.7028703483E-05
    9.5809553966E-05    9.4605693493E-05    9.3416930863E-05    9.2243077257E-05
    9.1083946210E-05    8.9939353576E-05    8.8809117506E-05    8.7693058415E-05
    8.6590998956E-05    8.5502763992E-05    8.4428180567E-05    8.3367077881E-05
    8.2319287265E-05    8.1284642148E-05    8.0262978040E-05    7.9254132497E-05
    7.8257945103E-05    7.7274257440E-05    7.6302913067E-05    7.5343757493E-05
    7.4396638154E-05    7.3461404386E-05    7.2537907407E-05    7.1626000290E-05
    7.0725537939E-05    6.9836377071E-05    6.8958376187E-05    6.8091395556E-05
    6.7235297189E-05    6.6389944818E-05    6.5555203879E-05    6.4730941482E-05
    6.3917026400E-05    6.3113329041E-05    6.2319721431E-05    6.1536077195E-05
    6.0762271533E-05    5.9998181206E-05    5.9243684510E-05    5.8498661264E-05
    5.7762992785E-05    5.7036561873E-05    5.6319252792E-05    5.5610951250E-05
    5.4911544385E-05    5.4220920741E-05    5.3538970257E-05    5.2865584246E-05
    5.2200655378E-05    5.1544077664E-05    5.0895746441E-05    5.0255558352E-05
    4.9623411331E-05    4.8999204588E-05    4.8382838593E-05    4.7774215060E-05
    4.7173236931E-05    4.6579808359E-05    4.5993834698E-05    4.5415222485E-05
    4.4843879423E-05    4.4279714370E-05    4.3722637324E-05    4.3172559408E-05
    4.2629392856E-05    4.2093051000E-05    4.1563448253E-05    4.1040500103E-05
    4.0524123092E-05    4.0014234805E-05    3.9510753859E-05    3.9013599890E-05
    3.8522693538E-05    3.8037956435E-05    3.7559311194E-05    3.7086681397E-05
    3.6619991582E-05    3.6159167229E-05    3.5704134752E-05    3.5254821487E-05
    3.4811155678E-05    3.4373066465E-05    3.3940483878E-05    3.3513338821E-05
    3.3091563064E-05    3.2675089230E-05    3.2263850784E-05    3.1857782027E-05
    3.1456818081E-05    3.1060894878E-05    3.0669949156E-05    3.0283918443E-05
    2.9902741048E-05    2.9526356055E-05    2.9154703309E-05    2.8787723408E-05
    2.8425357696E-05    2.8067548250E-05    2.7714237872E-05    2.7365370080E-05
    2.7020889103E-05    2.6680739864E-05    2.6344867978E-05    2.6013219742E-05
    2.5685742124E-05    2.5362382757E-05    2.5043089931E-05    2.4727812583E-05
    2.4416500290E-05    2.4109103260E-05    2.3805572326E-05    2.3505858936E-05
    2.3209915148E-05    2.2917693619E-05    2.2629147601E-05    2.2344230930E-05
    2.2062898023E-05    2.1785103865E-05    2.1510804009E-05    2.1239954562E-05
    2.0972512184E-05    2.0708434075E-05    2.0447677974E-05    2.0190202149E-05
    1.9935965391E-05    1.9684927009E-05    1.9437046821E-05    1.9192285148E-05
    1.8950602810E-05    1.8711961117E-05    1.8476321866E-05    1.8243647332E-05
    1.8013900262E-05    1.7787043872E-05    1.7563041839E-05    1.7341858295E-05
    1.7123457822E-05    1.6907805445E-05    1.6694866631E-05    1.6484607277E-05
    1.6276993709E-05    1.6071992676E-05    1.5869571342E-05    1.5669697287E-05
    1.5472338492E-05    1.5277463346E-05    1.5085040630E-05    1.4895039518E-05
    1.4707429571E-05    1.4522180733E-05    1.4339263323E-05    1.4158648035E-05
    1.3980305927E-05    1.3804208425E-05    1.3630327309E-05    1.3458634717E-05
    1.3289103134E-05    1.3121705392E-05    1.2956414663E-05    1.2793204456E-05
    1.2632048612E-05    1.2472921302E-05    1.2315797020E-05    1.2160650581E-05
    1.2007457114E-05    1.1856192062E-05    1.1706831177E-05    1.1559350514E-05
    1.1413726430E-05    1.1269935576E-05    1.1127954900E-05    1.0987761637E-05
    1.0849333309E-05    1.0712647719E-05    1.0577682949E-05    1.0444417357E-05
   </PP_CHI.2>
   <PP_CHI.3
       type="real"
       size="1148"
       columns="4"
       index="3"
       occupation=" 6.000"
       pseudo_energy="   -0.5687720696E+00"
       label="6P"
       l="1" >
   -5.3641075956E-13    8.8580325853E-06    3.5468490885E-05    7.9940371603E-05
    1.4245505330E-04    2.2326587347E-04    3.2269753844E-04    4.4114536794E-04
    5.7907437693E-04    7.3701819767E-04    9.1557784546E-04    1.1154203322E-03
    1.3372771323E-03    1.5819425052E-03    1.8502716817E-03    2.1431789171E-03
    2.4616354200E-03    2.8066671612E-03    3.1793525713E-03    3.5808201324E-03
    4.0122458722E-03    4.4748507682E-03    4.9698980687E-03    5.4986905397E-03
    6.0625676451E-03    6.6629026675E-03    7.3010997798E-03    7.9785910727E-03
    8.6968335486E-03    9.4573060891E-03    1.0261506403E-02    1.1110947966E-02
    1.2007156949E-02    1.2951669164E-02    1.3946027007E-02    1.4991776426E-02
    1.6090463913E-02    1.7243633527E-02    1.8452823948E-02    1.9719565580E-02
    2.1045377698E-02    2.2431765649E-02    2.3880218104E-02    2.5392204380E-02
    2.6969171818E-02    2.8612543230E-02    3.0323714421E-02    3.2104051781E-02
    3.3954889948E-02    3.5877529552E-02    3.7873235035E-02    3.9943232551E-02
    4.2088707944E-02    4.4310804800E-02    4.6610622590E-02    4.8989214876E-02
    5.1447587609E-02    5.3986697493E-02    5.6607450429E-02    5.9310700035E-02
    6.2097246230E-02    6.4967833894E-02    6.7923151597E-02    7.0963830390E-02
    7.4090442662E-02    7.7303501056E-02    8.0603457446E-02    8.3990701972E-02
    8.7465562124E-02    9.1028301887E-02    9.4679120924E-02    9.8418153819E-02
    1.0224546936E-01    1.0616106986E-01    1.1016489054E-01    1.1425679892E-01
    1.1843659431E-01    1.2270400726E-01    1.2705869910E-01    1.3150026151E-01
    1.3602821615E-01    1.4064201424E-01    1.4534103632E-01    1.5012459191E-01
    1.5499191927E-01    1.5994218523E-01    1.6497448501E-01    1.7008784212E-01
    1.7528120826E-01    1.8055346331E-01    1.8590341538E-01    1.9132980084E-01
    1.9683128449E-01    2.0240645975E-01    2.0805384888E-01    2.1377190332E-01
    2.1955900409E-01    2.2541346217E-01    2.3133351913E-01    2.3731734763E-01
    2.4336305216E-01    2.4946866982E-01    2.5563217110E-01    2.6185146090E-01
    2.6812437952E-01    2.7444870381E-01    2.8082214838E-01    2.8724236693E-01
    2.9370695369E-01    3.0021344496E-01    3.0675932072E-01    3.1334200640E-01
    3.1995887475E-01    3.2660724774E-01    3.3328439871E-01    3.3998755448E-01
    3.4671389768E-01    3.5346056912E-01    3.6022467028E-01    3.6700326593E-01
    3.7379338681E-01    3.8059203243E-01    3.8739617395E-01    3.9420275719E-01
    4.0100870563E-01    4.0781092362E-01    4.1460629956E-01    4.2139170920E-01
    4.2816401899E-01    4.3492008950E-01    4.4165677886E-01    4.4837094630E-01
    4.5505945565E-01    4.6171917896E-01    4.6834700005E-01    4.7493981813E-01
    4.8149455144E-01    4.8800814082E-01    4.9447755331E-01    5.0089978577E-01
    5.0727186837E-01    5.1359086816E-01    5.1985389248E-01    5.2605809243E-01
    5.3220066617E-01    5.3827886223E-01    5.4428998270E-01    5.5023138637E-01
    5.5610049172E-01    5.6189477987E-01    5.6761179737E-01    5.7324915895E-01
    5.7880455006E-01    5.8427572935E-01    5.8966053100E-01    5.9495686692E-01
    6.0016272880E-01    6.0527619005E-01    6.1029540752E-01    6.1521862320E-01
    6.2004416565E-01    6.2477045133E-01    6.2939598578E-01    6.3391936468E-01
    6.3833927467E-01    6.4265449412E-01    6.4686389371E-01    6.5096643682E-01
    6.5496117988E-01    6.5884727251E-01    6.6262395750E-01    6.6629057077E-01
    6.6984654105E-01    6.7329138958E-01    6.7662472965E-01    6.7984626595E-01
    6.8295579396E-01    6.8595319911E-01    6.8883845595E-01    6.9161162721E-01
    6.9427286273E-01    6.9682239840E-01    6.9926055500E-01    7.0158773701E-01
    7.0380443137E-01    7.0591120617E-01    7.0790870938E-01    7.0979766748E-01
    7.1157888415E-01    7.1325323894E-01    7.1482168588E-01    7.1628525216E-01
    7.1764503683E-01    7.1890220958E-01    7.2005800946E-01    7.2111374365E-01
    7.2207078616E-01    7.2293057660E-01    7.2369461912E-01    7.2436448115E-01
    7.2494179257E-01    7.2542824481E-01    7.2582558384E-01    7.2613558453E-01
    7.2636000908E-01    7.2650059176E-01    7.2655904451E-01    7.2653706221E-01
    7.2643631687E-01    7.2625845924E-01    7.2600511861E-01    7.2567790272E-01
    7.2527839775E-01    7.2480816832E-01    7.2426875748E-01    7.2366168675E-01
    7.2298845616E-01    7.2225054430E-01    7.2144940840E-01    7.2058648438E-01
    7.1966318696E-01    7.1868090976E-01    7.1764102541E-01    7.1654488566E-01
    7.1539382150E-01    7.1418914332E-01    7.1293214105E-01    7.1162408431E-01
    7.1026622253E-01    7.0885978517E-01    7.0740598187E-01    7.0590600260E-01
    7.0436101786E-01    7.0277217889E-01    7.0114061779E-01    6.9946744777E-01
    6.9775376334E-01    6.9600064048E-01    6.9420913685E-01    6.9238029200E-01
    6.9051512757E-01    6.8861464753E-01    6.8667983830E-01    6.8471166908E-01
    6.8271109195E-01    6.8067904216E-01    6.7861643830E-01    6.7652418254E-01
    6.7440316080E-01    6.7225424304E-01    6.7007828338E-01    6.6787612039E-01
    6.6564857726E-01    6.6339646205E-01    6.6112056784E-01    6.5882167302E-01
    6.5650054143E-01    6.5415792262E-01    6.5179455203E-01    6.4941115120E-01
    6.4700842799E-01    6.4458707678E-01    6.4214777868E-01    6.3969120170E-01
    6.3721800098E-01    6.3472881900E-01    6.3222428573E-01    6.2970501889E-01
    6.2717162408E-01    6.2462469502E-01    6.2206481370E-01    6.1949255062E-01
    6.1690846492E-01    6.1431310460E-01    6.1170700669E-01    6.0909069744E-01
    6.0646469248E-01    6.0382949702E-01    6.0118560599E-01    5.9853350427E-01
    5.9587366680E-01    5.9320655876E-01    5.9053263578E-01    5.8785234405E-01
    5.8516612051E-01    5.8247439300E-01    5.7977758042E-01    5.7707609288E-01
    5.7437033187E-01    5.7166069039E-01    5.6894755312E-01    5.6623129653E-01
    5.6351228906E-01    5.6079089127E-01    5.5806745594E-01    5.5534232824E-01
    5.5261584583E-01    5.4988833907E-01    5.4716013105E-01    5.4443153781E-01
    5.4170286841E-01    5.3897442507E-01    5.3624650333E-01    5.3351939210E-01
    5.3079337386E-01    5.2806872471E-01    5.2534571454E-01    5.2262460710E-01
    5.1990566014E-01    5.1718912552E-01    5.1447524929E-01    5.1176427184E-01
    5.0905642796E-01    5.0635194700E-01    5.0365105289E-01    5.0095396432E-01
    4.9826089480E-01    4.9557205274E-01    4.9288764158E-01    4.9020785987E-01
    4.8753290133E-01    4.8486295501E-01    4.8219820529E-01    4.7953883204E-01
    4.7688501066E-01    4.7423691218E-01    4.7159470333E-01    4.6895854665E-01
    4.6632860052E-01    4.6370501928E-01    4.6108795328E-01    4.5847754896E-01
    4.5587394895E-01    4.5327729207E-01    4.5068771348E-01    4.4810534470E-01
    4.4553031369E-01    4.4296274493E-01    4.4040275944E-01    4.3785047490E-01
    4.3530600569E-01    4.3276946291E-01    4.3024095450E-01    4.2772058529E-01
    4.2520845700E-01    4.2270466836E-01    4.2020931514E-01    4.1772249021E-01
    4.1524428357E-01    4.1277478242E-01    4.1031407124E-01    4.0786223177E-01
    4.0541934312E-01    4.0298548179E-01    4.0056072172E-01    3.9814513433E-01
    3.9573878860E-01    3.9334175105E-01    3.9095408584E-01    3.8857585479E-01
    3.8620711742E-01    3.8384793099E-01    3.8149835056E-01    3.7915842900E-01
    3.7682821702E-01    3.7450776327E-01    3.7219711431E-01    3.6989631468E-01
    3.6760540692E-01    3.6532443161E-01    3.6305342742E-01    3.6079243112E-01
    3.5854147763E-01    3.5630060004E-01    3.5406982964E-01    3.5184919598E-01
    3.4963872687E-01    3.4743844840E-01    3.4524838503E-01    3.4306855955E-01
    3.4089899314E-01    3.3873970541E-01    3.3659071441E-01    3.3445203665E-01
    3.3232368717E-01    3.3020567950E-01    3.2809802575E-01    3.2600073660E-01
    3.2391382133E-01    3.2183728785E-01    3.1977114274E-01    3.1771539123E-01
    3.1567003729E-01    3.1363508360E-01    3.1161053157E-01    3.0959638143E-01
    3.0759263217E-01    3.0559928161E-01    3.0361632643E-01    3.0164376215E-01
    2.9968158319E-01    2.9772978289E-01    2.9578835351E-01    2.9385728624E-01
    2.9193657128E-01    2.9002619780E-01    2.8812615399E-01    2.8623642709E-01
    2.8435700335E-01    2.8248786814E-01    2.8062900591E-01    2.7878040021E-01
    2.7694203373E-01    2.7511388832E-01    2.7329594499E-01    2.7148818394E-01
    2.6969058458E-01    2.6790312554E-01    2.6612578470E-01    2.6435853919E-01
    2.6260136543E-01    2.6085423913E-01    2.5911713532E-01    2.5739002834E-01
    2.5567289190E-01    2.5396569907E-01    2.5226842228E-01    2.5058103338E-01
    2.4890350362E-01    2.4723580368E-01    2.4557790368E-01    2.4392977321E-01
    2.4229138132E-01    2.4066269657E-01    2.3904368699E-01    2.3743432017E-01
    2.3583456321E-01    2.3424438276E-01    2.3266374504E-01    2.3109261583E-01
    2.2953096052E-01    2.2797874410E-01    2.2643593116E-01    2.2490248594E-01
    2.2337837231E-01    2.2186355381E-01    2.2035799364E-01    2.1886165467E-01
    2.1737449950E-01    2.1589649039E-01    2.1442758935E-01    2.1296775811E-01
    2.1151695814E-01    2.1007515066E-01    2.0864229666E-01    2.0721835690E-01
    2.0580329192E-01    2.0439706207E-01    2.0299962751E-01    2.0161094819E-01
    2.0023098390E-01    1.9885969429E-01    1.9749703882E-01    1.9614297683E-01
    1.9479746752E-01    1.9346046996E-01    1.9213194310E-01    1.9081184580E-01
    1.8950013681E-01    1.8819677479E-01    1.8690171832E-01    1.8561492590E-01
    1.8433635597E-01    1.8306596691E-01    1.8180371706E-01    1.8054956471E-01
    1.7930346810E-01    1.7806538546E-01    1.7683527500E-01    1.7561309491E-01
    1.7439880337E-01    1.7319235857E-01    1.7199371867E-01    1.7080284190E-01
    1.6961968646E-01    1.6844421058E-01    1.6727637255E-01    1.6611613067E-01
    1.6496344327E-01    1.6381826876E-01    1.6268056556E-01    1.6155029219E-01
    1.6042740720E-01    1.5931186921E-01    1.5820363693E-01    1.5710266911E-01
    1.5600892462E-01    1.5492236239E-01    1.5384294144E-01    1.5277062089E-01
    1.5170535994E-01    1.5064711791E-01    1.4959585422E-01    1.4855152839E-01
    1.4751410004E-01    1.4648352893E-01    1.4545977492E-01    1.4444279799E-01
    1.4343255825E-01    1.4242901593E-01    1.4143213141E-01    1.4044186516E-01
    1.3945817782E-01    1.3848103017E-01    1.3751038309E-01    1.3654619764E-01
    1.3558843500E-01    1.3463705652E-01    1.3369202369E-01    1.3275329812E-01
    1.3182084161E-01    1.3089461611E-01    1.2997458370E-01    1.2906070664E-01
    1.2815294734E-01    1.2725126837E-01    1.2635563246E-01    1.2546600251E-01
    1.2458234159E-01    1.2370461290E-01    1.2283277986E-01    1.2196680600E-01
    1.2110665507E-01    1.2025229096E-01    1.1940367774E-01    1.1856077964E-01
    1.1772356108E-01    1.1689198663E-01    1.1606602106E-01    1.1524562930E-01
    1.1443077644E-01    1.1362142777E-01    1.1281754874E-01    1.1201910498E-01
    1.1122606230E-01    1.1043838668E-01    1.0965604428E-01    1.0887900143E-01
    1.0810722465E-01    1.0734068062E-01    1.0657933621E-01    1.0582315847E-01
    1.0507211462E-01    1.0432617205E-01    1.0358529833E-01    1.0284946123E-01
    1.0211862866E-01    1.0139276874E-01    1.0067184974E-01    9.9955840119E-02
    9.9244708518E-02    9.8538423742E-02    9.7836954776E-02    9.7140270780E-02
    9.6448341088E-02    9.5761135209E-02    9.5078622825E-02    9.4400773793E-02
    9.3727558141E-02    9.3058946072E-02    9.2394907958E-02    9.1735414345E-02
    9.1080435950E-02    9.0429943658E-02    8.9783908527E-02    8.9142301782E-02
    8.8505094818E-02    8.7872259198E-02    8.7243766652E-02    8.6619589077E-02
    8.5999698538E-02    8.5384067262E-02    8.4772667644E-02    8.4165472242E-02
    8.3562453777E-02    8.2963585136E-02    8.2368839363E-02    8.1778189668E-02
    8.1191609418E-02    8.0609072145E-02    8.0030551534E-02    7.9456021433E-02
    7.8885455847E-02    7.8318828936E-02    7.7756115019E-02    7.7197288567E-02
    7.6642324210E-02    7.6091196729E-02    7.5543881059E-02    7.5000352286E-02
    7.4460585650E-02    7.3924556540E-02    7.3392240496E-02    7.2863613206E-02
    7.2338650509E-02    7.1817328388E-02    7.1299622976E-02    7.0785510550E-02
    7.0274967534E-02    6.9767970494E-02    6.9264496142E-02    6.8764521333E-02
    6.8268023062E-02    6.7774978466E-02    6.7285364823E-02    6.6799159552E-02
    6.6316340209E-02    6.5836884487E-02    6.5360770220E-02    6.4887975375E-02
    6.4418478058E-02    6.3952256507E-02    6.3489289095E-02    6.3029554330E-02
    6.2573030852E-02    6.2119697431E-02    6.1669532971E-02    6.1222516504E-02
    6.0778627193E-02    6.0337844330E-02    5.9900147333E-02    5.9465515750E-02
    5.9033929254E-02    5.8605367644E-02    5.8179810845E-02    5.7757238905E-02
    5.7337631997E-02    5.6920970416E-02    5.6507234579E-02    5.6096405025E-02
    5.5688462413E-02    5.5283387524E-02    5.4881161256E-02    5.4481764626E-02
    5.4085178769E-02    5.3691384939E-02    5.3300364504E-02    5.2912098949E-02
    5.2526569874E-02    5.2143758992E-02    5.1763648133E-02    5.1386219237E-02
    5.1011454358E-02    5.0639335661E-02    5.0269845421E-02    4.9902966027E-02
    4.9538679975E-02    4.9176969869E-02    4.8817818424E-02    4.8461208463E-02
    4.8107122913E-02    4.7755544810E-02    4.7406457297E-02    4.7059843619E-02
    4.6715687128E-02    4.6373971280E-02    4.6034679634E-02    4.5697795850E-02
    4.5363303694E-02    4.5031187031E-02    4.4701429826E-02    4.4374016148E-02
    4.4048930163E-02    4.3726156137E-02    4.3405678435E-02    4.3087481519E-02
    4.2771549951E-02    4.2457868386E-02    4.2146421579E-02    4.1837194380E-02
    4.1530171732E-02    4.1225338675E-02    4.0922680343E-02    4.0622181962E-02
    4.0323828853E-02    4.0027606429E-02    3.9733500193E-02    3.9441495742E-02
    3.9151578762E-02    3.8863735031E-02    3.8577950416E-02    3.8294210873E-02
    3.8012502447E-02    3.7732811272E-02    3.7455123569E-02    3.7179425645E-02
    3.6905703897E-02    3.6633944805E-02    3.6364134937E-02    3.6096260945E-02
    3.5830309567E-02    3.5566267623E-02    3.5304122019E-02    3.5043859743E-02
    3.4785467866E-02    3.4528933543E-02    3.4274244008E-02    3.4021386578E-02
    3.3770348652E-02    3.3521117706E-02    3.3273681300E-02    3.3028027071E-02
    3.2784142735E-02    3.2542016089E-02    3.2301635004E-02    3.2062987434E-02
    3.1826061405E-02    3.1590845023E-02    3.1357326470E-02    3.1125494003E-02
    3.0895335955E-02    3.0666840734E-02    3.0439996822E-02    3.0214792776E-02
    2.9991217227E-02    2.9769258878E-02    2.9548906507E-02    2.9330148961E-02
    2.9112975163E-02    2.8897374105E-02    2.8683334852E-02    2.8470846537E-02
    2.8259898367E-02    2.8050479617E-02    2.7842579631E-02    2.7636187823E-02
    2.7431293676E-02    2.7227886742E-02    2.7025956640E-02    2.6825493055E-02
    2.6626485743E-02    2.6428924523E-02    2.6232799284E-02    2.6038099977E-02
    2.5844816622E-02    2.5652939304E-02    2.5462458170E-02    2.5273363434E-02
    2.5085645374E-02    2.4899294331E-02    2.4714300710E-02    2.4530654978E-02
    2.4348347666E-02    2.4167369367E-02    2.3987710734E-02    2.3809362483E-02
    2.3632315393E-02    2.3456560300E-02    2.3282088104E-02    2.3108889763E-02
    2.2936956295E-02    2.2766278778E-02    2.2596848348E-02    2.2428656202E-02
    2.2261693592E-02    2.2095951831E-02    2.1931422288E-02    2.1768096390E-02
    2.1605965620E-02    2.1445021519E-02    2.1285255684E-02    2.1126659767E-02
    2.0969225477E-02    2.0812944576E-02    2.0657808885E-02    2.0503810275E-02
    2.0350940674E-02    2.0199192064E-02    2.0048556480E-02    1.9899026011E-02
    1.9750592798E-02    1.9603249034E-02    1.9456986968E-02    1.9311798897E-02
    1.9167677172E-02    1.9024614195E-02    1.8882602419E-02    1.8741634348E-02
    1.8601702535E-02    1.8462799587E-02    1.8324918157E-02    1.8188050949E-02
    1.8052190717E-02    1.7917330263E-02    1.7783462438E-02    1.7650580142E-02
    1.7518676323E-02    1.7387743975E-02    1.7257776143E-02    1.7128765915E-02
    1.7000706430E-02    1.6873590871E-02    1.6747412467E-02    1.6622164497E-02
    1.6497840281E-02    1.6374433187E-02    1.6251936628E-02    1.6130344062E-02
    1.6009648991E-02    1.5889844962E-02    1.5770925566E-02    1.5652884438E-02
    1.5535715257E-02    1.5419411743E-02    1.5303967663E-02    1.5189376822E-02
    1.5075633072E-02    1.4962730305E-02    1.4850662455E-02    1.4739423498E-02
    1.4629007451E-02    1.4519408374E-02    1.4410620365E-02    1.4302637564E-02
    1.4195454154E-02    1.4089064353E-02    1.3983462424E-02    1.3878642666E-02
    1.3774599419E-02    1.3671327063E-02    1.3568820014E-02    1.3467072730E-02
    1.3366079706E-02    1.3265835474E-02    1.3166334606E-02    1.3067571711E-02
    1.2969541434E-02    1.2872238459E-02    1.2775657507E-02    1.2679793335E-02
    1.2584640735E-02    1.2490194539E-02    1.2396449612E-02    1.2303400856E-02
    1.2211043208E-02    1.2119371641E-02    1.2028381162E-02    1.1938066815E-02
    1.1848423676E-02    1.1759446857E-02    1.1671131505E-02    1.1583472800E-02
    1.1496465954E-02    1.1410106216E-02    1.1324388865E-02    1.1239309217E-02
    1.1154862618E-02    1.1071044446E-02    1.0987850114E-02    1.0905275067E-02
    1.0823314779E-02    1.0741964760E-02    1.0661220549E-02    1.0581077717E-02
    1.0501531867E-02    1.0422578632E-02    1.0344213675E-02    1.0266432693E-02
    1.0189231409E-02    1.0112605581E-02    1.0036550992E-02    9.9610634587E-03
    9.8861388257E-03    9.8117729672E-03    9.7379617868E-03    9.6647012172E-03
    9.5919872197E-03    9.5198157845E-03    9.4481829301E-03    9.3770847034E-03
    9.3065171792E-03    9.2364764604E-03    9.1669586774E-03    9.0979599884E-03
    9.0294765787E-03    8.9615046609E-03    8.8940404746E-03    8.8270802860E-03
    8.7606203881E-03    8.6946571003E-03    8.6291867683E-03    8.5642057638E-03
    8.4997104846E-03    8.4356973539E-03    8.3721628207E-03    8.3091033595E-03
    8.2465154697E-03    8.1843956761E-03    8.1227405281E-03    8.0615466000E-03
    8.0008104905E-03    7.9405288227E-03    7.8806982441E-03    7.8213154261E-03
    7.7623770640E-03    7.7038798768E-03    7.6458206072E-03    7.5881960210E-03
    7.5310029077E-03    7.4742380795E-03    7.4178983716E-03    7.3619806422E-03
    7.3064817720E-03    7.2513986639E-03    7.1967282435E-03    7.1424674583E-03
    7.0886132780E-03    7.0351626940E-03    6.9821127195E-03    6.9294603892E-03
    6.8772027591E-03    6.8253369068E-03    6.7738599307E-03    6.7227689502E-03
    6.6720611057E-03    6.6217335582E-03    6.5717834892E-03    6.5222081005E-03
    6.4730046144E-03    6.4241702732E-03    6.3757023392E-03    6.3275980943E-03
    6.2798548406E-03    6.2324698993E-03    6.1854406113E-03    6.1387643367E-03
    6.0924384548E-03    6.0464603638E-03    6.0008274810E-03    5.9555372423E-03
    5.9105871023E-03    5.8659745343E-03    5.8216970295E-03    5.7777520978E-03
    5.7341372671E-03    5.6908500831E-03    5.6478881096E-03    5.6052489282E-03
    5.5629301377E-03    5.5209293550E-03    5.4792442138E-03    5.4378723655E-03
    5.3968114783E-03    5.3560592377E-03    5.3156133459E-03    5.2754715219E-03
    5.2356315014E-03    5.1960910367E-03    5.1568478964E-03    5.1178998654E-03
    5.0792447449E-03    5.0408803521E-03    5.0028045203E-03    4.9650150985E-03
    4.9275099515E-03    4.8902869597E-03    4.8533440191E-03    4.8166790410E-03
    4.7802899521E-03    4.7441746943E-03    4.7083312244E-03    4.6727575145E-03
    4.6374515513E-03    4.6024113363E-03    4.5676348859E-03    4.5331202308E-03
    4.4988654162E-03    4.4648685017E-03    4.4311275613E-03    4.3976406829E-03
    4.3644059685E-03    4.3314215341E-03    4.2986855097E-03    4.2661960389E-03
    4.2339512788E-03    4.2019494003E-03    4.1701885877E-03    4.1386670386E-03
    4.1073829640E-03    4.0763345879E-03    4.0455201475E-03    4.0149378930E-03
    3.9845860874E-03    3.9544630066E-03    3.9245669391E-03    3.8948961861E-03
    3.8654490613E-03    3.8362238909E-03    3.8072190135E-03    3.7784327796E-03
    3.7498635524E-03    3.7215097067E-03    3.6933696298E-03    3.6654417203E-03
    3.6377243893E-03    3.6102160591E-03    3.5829151639E-03    3.5558201495E-03
    3.5289294731E-03    3.5022416033E-03    3.4757550202E-03    3.4494682149E-03
    3.4233796898E-03    3.3974879584E-03    3.3717915452E-03    3.3462889855E-03
    3.3209788256E-03    3.2958596224E-03    3.2709299438E-03    3.2461883679E-03
    3.2216334837E-03    3.1972638904E-03    3.1730781977E-03    3.1490750256E-03
    3.1252530044E-03    3.1016107744E-03    3.0781469861E-03    3.0548602999E-03
    3.0317493864E-03    3.0088129258E-03    2.9860496082E-03    2.9634581335E-03
    2.9410372110E-03    2.9187855599E-03    2.8967019087E-03    2.8747849955E-03
    2.8530335677E-03    2.8314463819E-03    2.8100222041E-03    2.7887598095E-03
    2.7676579822E-03    2.7467155156E-03    2.7259312120E-03    2.7053038824E-03
    2.6848323468E-03    2.6645154342E-03    2.6443519819E-03    2.6243408361E-03
    2.6044808517E-03    2.5847708918E-03    2.5652098282E-03    2.5457965410E-03
    2.5265299188E-03    2.5074088584E-03    2.4884322646E-03    2.4695990507E-03
    2.4509081379E-03    2.4323584555E-03    2.4139489408E-03    2.3956785390E-03
    2.3775462031E-03    2.3595508941E-03    2.3416915805E-03    2.3239672388E-03
    2.3063768528E-03    2.2889194141E-03    2.2715939218E-03    2.2543993824E-03
    2.2373348099E-03    2.2203992256E-03    2.2035916582E-03    2.1869111435E-03
    2.1703567246E-03    2.1539274518E-03    2.1376223824E-03    2.1214405808E-03
    2.1053811184E-03    2.0894430734E-03    2.0736255311E-03    2.0579275835E-03
    2.0423483294E-03    2.0268868745E-03    2.0115423310E-03    1.9963138177E-03
    1.9812004602E-03    1.9662013905E-03    1.9513157471E-03    1.9365426750E-03
    1.9218813256E-03    1.9073308566E-03    1.8928904321E-03    1.8785592222E-03
    1.8643364036E-03    1.8502211589E-03    1.8362126768E-03    1.8223101524E-03
    1.8085127863E-03    1.7948197856E-03    1.7812303630E-03    1.7677437373E-03
    1.7543591330E-03    1.7410757806E-03    1.7278929162E-03    1.7148097816E-03
    1.7018256245E-03    1.6889396980E-03    1.6761512610E-03    1.6634595779E-03
    1.6508639184E-03    1.6383635580E-03    1.6259577774E-03    1.6136458630E-03
    1.6014271061E-03    1.5893008036E-03    1.5772662578E-03    1.5653227759E-03
    1.5534696706E-03    1.5417062596E-03    1.5300318657E-03    1.5184458168E-03
    1.5069474460E-03    1.4955360913E-03    1.4842110956E-03    1.4729718068E-03
    1.4618175777E-03    1.4507477660E-03    1.4397617341E-03    1.4288588494E-03
    1.4180384838E-03    1.4073000141E-03    1.3966428217E-03    1.3860662927E-03
    1.3755698178E-03    1.3651527923E-03    1.3548146159E-03    1.3445546931E-03
    1.3343724326E-03    1.3242672477E-03    1.3142385560E-03    1.3042857795E-03
    1.2944083448E-03    1.2846056824E-03    1.2748772273E-03    1.2652224189E-03
    1.2556407005E-03    1.2461315198E-03    1.2366943286E-03    1.2273285828E-03
   </PP_CHI.3>
 </PP_PSWFC>
 <PP_NLCC type="real"  size="1148" columns="4">
    7.1550913386E+00    7.1536165820E+00    7.1491940199E+00    7.1418287725E+00
    7.1315293627E+00    7.1183077014E+00    7.1021790654E+00    7.0831620698E+00
    7.0612786349E+00    7.0365539460E+00    7.0090164083E+00    6.9786975958E+00
    6.9456321947E+00    6.9098579410E+00    6.8714155530E+00    6.8303486589E+00
    6.7867037191E+00    6.7405299435E+00    6.6918792046E+00    6.6408059462E+00
    6.5873670874E+00    6.5316219232E+00    6.4736320210E+00    6.4134611137E+00
    6.3511749897E+00    6.2868413794E+00    6.2205298399E+00    6.1523116358E+00
    6.0822596192E+00    6.0104481068E+00    5.9369527560E+00    5.8618504388E+00
    5.7852191152E+00    5.7071377060E+00    5.6276859638E+00    5.5469443453E+00
    5.4649938823E+00    5.3819160537E+00    5.2977926576E+00    5.2127056846E+00
    5.1267371917E+00    5.0399691778E+00    4.9524834607E+00    4.8643615559E+00
    4.7756845574E+00    4.6865330207E+00    4.5969868486E+00    4.5071251791E+00
    4.4170262771E+00    4.3267674281E+00    4.2364248363E+00    4.1460735254E+00
    4.0557872431E+00    3.9656383700E+00    3.8756978315E+00    3.7860350144E+00
    3.6967176876E+00    3.6078119266E+00    3.5193820433E+00    3.4314905192E+00
    3.3441979438E+00    3.2575629575E+00    3.1716421988E+00    3.0864902568E+00
    3.0021596275E+00    2.9187006759E+00    2.8361616017E+00    2.7545884104E+00
    2.6740248890E+00    2.5945125861E+00    2.5160907968E+00    2.4387965517E+00
    2.3626646111E+00    2.2877274633E+00    2.2140153265E+00    2.1415561561E+00
    2.0703756555E+00    2.0004972906E+00    1.9319423089E+00    1.8647297618E+00
    1.7988765306E+00    1.7343973567E+00    1.6713048738E+00    1.6096096446E+00
    1.5493201997E+00    1.4904430800E+00    1.4329828811E+00    1.3769423011E+00
    1.3223221901E+00    1.2691216021E+00    1.2173378494E+00    1.1669665582E+00
    1.1180017262E+00    1.0704357821E+00    1.0242596455E+00    9.7946278922E-01
    9.3603330159E-01    8.9395795012E-01    8.5322224577E-01    8.1381050764E-01
    7.7570592806E-01    7.3889063793E-01    7.0334577203E-01    6.6905153426E-01
    6.3598726259E-01    6.0413149367E-01    5.7346202690E-01    5.4395598779E-01
    5.1558989059E-01    4.8833969996E-01    4.6218089174E-01    4.3708851243E-01
    4.1303723755E-01    3.9000142866E-01    3.6795518898E-01    3.4687241746E-01
    3.2672686133E-01    3.0749216703E-01    2.8914192935E-01    2.7164973895E-01
    2.5498922792E-01    2.3913411359E-01    2.2405824043E-01    2.0973562004E-01
    1.9614046913E-01    1.8324724563E-01    1.7103068276E-01    1.5946582118E-01
    1.4852803905E-01    1.3819308024E-01    1.2843708048E-01    1.1923659158E-01
    1.1056860370E-01    1.0241056576E-01    9.4740403888E-02    8.7536538043E-02
    8.0777896854E-02    7.4443930635E-02    6.8514622680E-02    6.2970498874E-02
    5.7792635652E-02    5.2962666378E-02    4.8462786178E-02    4.4275755303E-02
    4.0384901061E-02    3.6774118391E-02    3.3427869136E-02    3.0331180066E-02
    2.7469639738E-02    2.4829394229E-02    2.2397141823E-02    2.0160126717E-02
    1.8106131793E-02    1.6223470543E-02    1.4500978193E-02    1.2928002095E-02
    1.1494391454E-02    1.0190486439E-02    9.0071067506E-03    7.9355397006E-03
    6.9675278557E-03    6.0952563085E-03    5.3113396264E-03    4.6088085336E-03
    3.9810963751E-03    3.4220254136E-03    2.9257930061E-03    2.4869577050E-03
    2.1004253276E-03    1.7614350340E-03    1.4655454536E-03    1.2086208965E-03
    9.8681768265E-04    7.9657062453E-04    6.3457968967E-04    4.9779687354E-04
    3.8341330729E-04    2.8884662425E-04    2.1172860636E-04    1.4989313005E-04
    1.0136442857E-04    6.4345686079E-05    3.7207976749E-05    1.8479560071E-05
    6.8355419935E-06    1.0879095011E-06    1.7594464511E-07    3.1570223589E-06
    9.1977948360E-06    1.7565763762E-05    2.7621240264E-05    3.8809691117E-05
    5.0654468509E-05    6.2749919465E-05    7.4754869983E-05    8.6386477884E-05
    9.7414447485E-05    1.0765559836E-04    1.1696877967E-04    1.2525012085E-04
    1.3242860884E-04    1.3846198165E-04    1.4333292715E-04    1.4704557629E-04
    1.4962227889E-04    1.5110065045E-04    1.5153087786E-04    1.5097327209E-04
    1.4949605545E-04    1.4717337149E-04    1.4408350515E-04    1.4030730121E-04
    1.3592676903E-04    1.3102386182E-04    1.2567941876E-04    1.1997225872E-04
    1.1397841446E-04    1.0777049648E-04    1.0141717613E-04    9.4982777880E-05
    8.8526970868E-05    8.2104550585E-05    7.5765301580E-05    6.9553932686E-05
    6.3510076637E-05    5.7668346380E-05    5.2058440812E-05    4.6705293060E-05
    4.1629254911E-05    3.6846311400E-05    3.2368320032E-05    2.8203269363E-05
    2.4355552328E-05    2.0826249901E-05    1.7613421161E-05    1.4712396130E-05
    1.2116068217E-05    9.8151834151E-06    7.7986236420E-06    6.0536820659E-06
    4.5663285194E-06    3.3214633507E-06    2.3031583467E-06    1.4948836800E-06
    8.7972001771E-07    4.4055509019E-07    1.6026436596E-07    2.1875580146E-08
    8.7169768942E-09    1.0454942060E-07    2.9368258876E-07    5.6107554524E-07
    8.9242219886E-07    1.2742221971E-06    1.6938378527E-06    2.1395378418E-06
    2.6005284294E-06    3.0669730035E-06    3.5300007857E-06    3.9817055652E-06
    4.4151353351E-06    4.8242737233E-06    5.2040140802E-06    5.5501271190E-06
    5.8592229412E-06    6.1287082835E-06    6.3567398105E-06    6.5421741895E-06
    6.6845157142E-06    6.7838621719E-06    6.8408495690E-06    6.8565963941E-06
    6.8326479210E-06    6.7709210864E-06    6.6736504485E-06    6.5433355765E-06
    6.3826903174E-06    6.1945942284E-06    5.9820464383E-06    5.7481222434E-06
    5.4959325384E-06    5.2285863098E-06    4.9491562696E-06    4.6606476828E-06
    4.3659704918E-06    4.0679146596E-06    3.7691287817E-06    3.4721018689E-06
    3.1791482311E-06    2.8923953888E-06    2.6137748430E-06    2.3450156211E-06
    2.0876404008E-06    1.8429640748E-06    1.6120945720E-06    1.3959357510E-06
    1.1951921847E-06    1.0103756384E-06    8.4181305302E-07    6.8965583832E-07
    5.5389029029E-07    4.3434893739E-07    3.3072265120E-07    2.4257331759E-07
    1.6934694372E-07    1.1038698655E-07    6.4947812594E-08    3.2208093555E-08
    1.1284052632E-08    1.2424132284E-09    1.1129554272E-09    9.9005895124E-09
    2.6596838391E-08    5.0190697534E-08    7.9678751915E-08    1.1407457333E-07
    1.5241727276E-07    1.9377926894E-07    2.3727316487E-07    2.8205780339E-07
    3.2734343039E-07    3.7239603120E-07    4.1654080781E-07    4.5916485581E-07
    4.9971904108E-07    5.3771913051E-07    5.7274620141E-07    6.0444638195E-07
    6.3252996345E-07    6.5676993778E-07    6.7700000904E-07    6.9311213559E-07
    7.0505365365E-07    7.1282404207E-07    7.1647137661E-07    7.1608853681E-07
    7.1180920748E-07    7.0380373998E-07    6.9227490775E-07    6.7745362063E-07
    6.5959462509E-07    6.3897225111E-07    6.1587622671E-07    5.9060761357E-07
    5.6347488091E-07    5.3479015984E-07    5.0486569463E-07    4.7401051834E-07
    4.4252737129E-07    4.1070987253E-07    3.7883996730E-07    3.4718564177E-07
    3.1599893394E-07    2.8551421351E-07    2.5594676541E-07    2.2749163351E-07
    2.0032276286E-07    1.7459238582E-07    1.5043068865E-07    1.2794570279E-07
    1.0722344459E-07    8.8328259164E-08    7.1303372402E-08    5.6171621640E-08
    4.2937088177E-08    3.1583663480E-08    2.2077979873E-08    1.4373864920E-08
    8.4031288220E-09    4.0674599894E-09    1.3634301900E-09    1.9495269413E-10
   -2.8212087029E-11    1.0486432474E-11    1.7390365890E-11    3.7879180247E-12
    4.1717765334E-12   -7.7619539442E-13   -2.9157973447E-12   -3.7613492371E-13
    0.0000000000E+00    0.0000000000E+00    0.0000000000E+00    0.0000000000E+00
    0.0000000000E+00    0.0000000000E+00    0.0000000000E+00    0.0000000000E+00
    0.0000000000E+00    0.0000000000E+00    0.0000000000E+00    0.0000000000E+00
    0.0000000000E+00    0.0000000000E+00    0.0000000000E+00    0.0000000000E+00
    0.0000000000E+00    0.0000000000E+00    0.0000000000E+00    0.0000000000E+00
    0.0000000000E+00    0.0000000000E+00    0.0000000000E+00    0.0000000000E+00
    0.0000000000E+00    0.0000000000E+00    0.0000000000E+00    0.0000000000E+00
    0.0000000000E+00    0.0000000000E+00    0.0000000000E+00    0.0000000000E+00
    0.0000000000E+00    0.0000000000E+00    0.0000000000E+00    0.0000000000E+00
    0.0000000000E+00    0.0000000000E+00    0.0000000000E+00    0.0000000000E+00
    0.0000000000E+00    0.0000000000E+00    0.0000000000E+00    0.0000000000E+00
    0.0000000000E+00    0.0000000000E+00    0.0000000000E+00    0.0000000000E+00
    0.0000000000E+00    0.0000000000E+00    0.0000000000E+00    0.0000000000E+00
    0.0000000000E+00    0.0000000000E+00    0.0000000000E+00    0.0000000000E+00
    0.0000000000E+00    0.0000000000E+00    0.0000000000E+00    0.0000000000E+00
    0.0000000000E+00    0.0000000000E+00    0.0000000000E+00    0.0000000000E+00
    0.0000000000E+00    0.0000000000E+00    0.0000000000E+00    0.0000000000E+00
    0.0000000000E+00    0.0000000000E+00    0.0000000000E+00    0.0000000000E+00
    0.0000000000E+00    0.0000000000E+00    0.0000000000E+00    0.0000000000E+00
    0.0000000000E+00    0.0000000000E+00    0.0000000000E+00    0.0000000000E+00
    0.0000000000E+00    0.0000000000E+00    0.0000000000E+00    0.0000000000E+00
    0.0000000000E+00    0.0000000000E+00    0.0000000000E+00    0.0000000000E+00
    0.0000000000E+00    0.0000000000E+00    0.0000000000E+00    0.0000000000E+00
    0.0000000000E+00    0.0000000000E+00    0.0000000000E+00    0.0000000000E+00
    0.0000000000E+00    0.0000000000E+00    0.0000000000E+00    0.0000000000E+00
    0.0000000000E+00    0.0000000000E+00    0.0000000000E+00    0.0000000000E+00
    0.0000000000E+00    0.0000000000E+00    0.0000000000E+00    0.0000000000E+00
    0.0000000000E+00    0.0000000000E+00    0.0000000000E+00    0.0000000000E+00
    0.0000000000E+00    0.0000000000E+00    0.0000000000E+00    0.0000000000E+00
    0.0000000000E+00    0.0000000000E+00    0.0000000000E+00    0.0000000000E+00
    0.0000000000E+00    0.0000000000E+00    0.0000000000E+00    0.0000000000E+00
    0.0000000000E+00    0.0000000000E+00    0.0000000000E+00    0.0000000000E+00
    0.0000000000E+00    0.0000000000E+00    0.0000000000E+00    0.0000000000E+00
    0.0000000000E+00    0.0000000000E+00    0.0000000000E+00    0.0000000000E+00
    0.0000000000E+00    0.0000000000E+00    0.0000000000E+00    0.0000000000E+00
    0.0000000000E+00    0.0000000000E+00    0.0000000000E+00    0.0000000000E+00
    0.0000000000E+00    0.0000000000E+00    0.0000000000E+00    0.0000000000E+00
    0.0000000000E+00    0.0000000000E+00    0.0000000000E+00    0.0000000000E+00
    0.0000000000E+00    0.0000000000E+00    0.0000000000E+00    0.0000000000E+00
    0.0000000000E+00    0.0000000000E+00    0.0000000000E+00    0.0000000000E+00
    0.0000000000E+00    0.0000000000E+00    0.0000000000E+00    0.0000000000E+00
    0.0000000000E+00    0.0000000000E+00    0.0000000000E+00    0.0000000000E+00
    0.0000000000E+00    0.0000000000E+00    0.0000000000E+00    0.0000000000E+00
    0.0000000000E+00    0.0000000000E+00    0.0000000000E+00    0.0000000000E+00
    0.0000000000E+00    0.0000000000E+00    0.0000000000E+00    0.0000000000E+00
    0.0000000000E+00    0.0000000000E+00    0.0000000000E+00    0.0000000000E+00
    0.0000000000E+00    0.0000000000E+00    0.0000000000E+00    0.0000000000E+00
    0.0000000000E+00    0.0000000000E+00    0.0000000000E+00    0.0000000000E+00
    0.0000000000E+00    0.0000000000E+00    0.0000000000E+00    0.0000000000E+00
    0.0000000000E+00    0.0000000000E+00    0.0000000000E+00    0.0000000000E+00
    0.0000000000E+00    0.0000000000E+00    0.0000000000E+00    0.0000000000E+00
    0.0000000000E+00    0.0000000000E+00    0.0000000000E+00    0.0000000000E+00
    0.0000000000E+00    0.0000000000E+00    0.0000000000E+00    0.0000000000E+00
    0.0000000000E+00    0.0000000000E+00    0.0000000000E+00    0.0000000000E+00
    0.0000000000E+00    0.0000000000E+00    0.0000000000E+00    0.0000000000E+00
    0.0000000000E+00    0.0000000000E+00    0.0000000000E+00    0.0000000000E+00
    0.0000000000E+00    0.0000000000E+00    0.0000000000E+00    0.0000000000E+00
    0.0000000000E+00    0.0000000000E+00    0.0000000000E+00    0.0000000000E+00
    0.0000000000E+00    0.0000000000E+00    0.0000000000E+00    0.0000000000E+00
    0.0000000000E+00    0.0000000000E+00    0.0000000000E+00    0.0000000000E+00
    0.0000000000E+00    0.0000000000E+00    0.0000000000E+00    0.0000000000E+00
    0.0000000000E+00    0.0000000000E+00    0.0000000000E+00    0.0000000000E+00
    0.0000000000E+00    0.0000000000E+00    0.0000000000E+00    0.0000000000E+00
    0.0000000000E+00    0.0000000000E+00    0.0000000000E+00    0.0000000000E+00
    0.0000000000E+00    0.0000000000E+00    0.0000000000E+00    0.0000000000E+00
    0.0000000000E+00    0.0000000000E+00    0.0000000000E+00    0.0000000000E+00
    0.0000000000E+00    0.0000000000E+00    0.0000000000E+00    0.0000000000E+00
    0.0000000000E+00    0.0000000000E+00    0.0000000000E+00    0.0000000000E+00
    0.0000000000E+00    0.0000000000E+00    0.0000000000E+00    0.0000000000E+00
    0.0000000000E+00    0.0000000000E+00    0.0000000000E+00    0.0000000000E+00
    0.0000000000E+00    0.0000000000E+00    0.0000000000E+00    0.0000000000E+00
    0.0000000000E+00    0.0000000000E+00    0.0000000000E+00    0.0000000000E+00
    0.0000000000E+00    0.0000000000E+00    0.0000000000E+00    0.0000000000E+00
    0.0000000000E+00    0.0000000000E+00    0.0000000000E+00    0.0000000000E+00
    0.0000000000E+00    0.0000000000E+00    0.0000000000E+00    0.0000000000E+00
    0.0000000000E+00    0.0000000000E+00    0.0000000000E+00    0.0000000000E+00
    0.0000000000E+00    0.0000000000E+00    0.0000000000E+00    0.0000000000E+00
    0.0000000000E+00    0.0000000000E+00    0.0000000000E+00    0.0000000000E+00
    0.0000000000E+00    0.0000000000E+00    0.0000000000E+00    0.0000000000E+00
    0.0000000000E+00    0.0000000000E+00    0.0000000000E+00    0.0000000000E+00
    0.0000000000E+00    0.0000000000E+00    0.0000000000E+00    0.0000000000E+00
    0.0000000000E+00    0.0000000000E+00    0.0000000000E+00    0.0000000000E+00
    0.0000000000E+00    0.0000000000E+00    0.0000000000E+00    0.0000000000E+00
    0.0000000000E+00    0.0000000000E+00    0.0000000000E+00    0.0000000000E+00
    0.0000000000E+00    0.0000000000E+00    0.0000000000E+00    0.0000000000E+00
    0.0000000000E+00    0.0000000000E+00    0.0000000000E+00    0.0000000000E+00
    0.0000000000E+00    0.0000000000E+00    0.0000000000E+00    0.0000000000E+00
    0.0000000000E+00    0.0000000000E+00    0.0000000000E+00    0.0000000000E+00
    0.0000000000E+00    0.0000000000E+00    0.0000000000E+00    0.0000000000E+00
    0.0000000000E+00    0.0000000000E+00    0.0000000000E+00    0.0000000000E+00
    0.0000000000E+00    0.0000000000E+00    0.0000000000E+00    0.0000000000E+00
    0.0000000000E+00    0.0000000000E+00    0.0000000000E+00    0.0000000000E+00
    0.0000000000E+00    0.0000000000E+00    0.0000000000E+00    0.0000000000E+00
    0.0000000000E+00    0.0000000000E+00    0.0000000000E+00    0.0000000000E+00
    0.0000000000E+00    0.0000000000E+00    0.0000000000E+00    0.0000000000E+00
    0.0000000000E+00    0.0000000000E+00    0.0000000000E+00    0.0000000000E+00
    0.0000000000E+00    0.0000000000E+00    0.0000000000E+00    0.0000000000E+00
    0.0000000000E+00    0.0000000000E+00    0.0000000000E+00    0.0000000000E+00
    0.0000000000E+00    0.0000000000E+00    0.0000000000E+00    0.0000000000E+00
    0.0000000000E+00    0.0000000000E+00    0.0000000000E+00    0.0000000000E+00
    0.0000000000E+00    0.0000000000E+00    0.0000000000E+00    0.0000000000E+00
    0.0000000000E+00    0.0000000000E+00    0.0000000000E+00    0.0000000000E+00
    0.0000000000E+00    0.0000000000E+00    0.0000000000E+00    0.0000000000E+00
    0.0000000000E+00    0.0000000000E+00    0.0000000000E+00    0.0000000000E+00
    0.0000000000E+00    0.0000000000E+00    0.0000000000E+00    0.0000000000E+00
    0.0000000000E+00    0.0000000000E+00    0.0000000000E+00    0.0000000000E+00
    0.0000000000E+00    0.0000000000E+00    0.0000000000E+00    0.0000000000E+00
    0.0000000000E+00    0.0000000000E+00    0.0000000000E+00    0.0000000000E+00
    0.0000000000E+00    0.0000000000E+00    0.0000000000E+00    0.0000000000E+00
    0.0000000000E+00    0.0000000000E+00    0.0000000000E+00    0.0000000000E+00
    0.0000000000E+00    0.0000000000E+00    0.0000000000E+00    0.0000000000E+00
    0.0000000000E+00    0.0000000000E+00    0.0000000000E+00    0.0000000000E+00
    0.0000000000E+00    0.0000000000E+00    0.0000000000E+00    0.0000000000E+00
    0.0000000000E+00    0.0000000000E+00    0.0000000000E+00    0.0000000000E+00
    0.0000000000E+00    0.0000000000E+00    0.0000000000E+00    0.0000000000E+00
    0.0000000000E+00    0.0000000000E+00    0.0000000000E+00    0.0000000000E+00
    0.0000000000E+00    0.0000000000E+00    0.0000000000E+00    0.0000000000E+00
    0.0000000000E+00    0.0000000000E+00    0.0000000000E+00    0.0000000000E+00
    0.0000000000E+00    0.0000000000E+00    0.0000000000E+00    0.0000000000E+00
    0.0000000000E+00    0.0000000000E+00    0.0000000000E+00    0.0000000000E+00
    0.0000000000E+00    0.0000000000E+00    0.0000000000E+00    0.0000000000E+00
    0.0000000000E+00    0.0000000000E+00    0.0000000000E+00    0.0000000000E+00
    0.0000000000E+00    0.0000000000E+00    0.0000000000E+00    0.0000000000E+00
    0.0000000000E+00    0.0000000000E+00    0.0000000000E+00    0.0000000000E+00
    0.0000000000E+00    0.0000000000E+00    0.0000000000E+00    0.0000000000E+00
    0.0000000000E+00    0.0000000000E+00    0.0000000000E+00    0.0000000000E+00
    0.0000000000E+00    0.0000000000E+00    0.0000000000E+00    0.0000000000E+00
    0.0000000000E+00    0.0000000000E+00    0.0000000000E+00    0.0000000000E+00
    0.0000000000E+00    0.0000000000E+00    0.0000000000E+00    0.0000000000E+00
    0.0000000000E+00    0.0000000000E+00    0.0000000000E+00    0.0000000000E+00
    0.0000000000E+00    0.0000000000E+00    0.0000000000E+00    0.0000000000E+00
    0.0000000000E+00    0.0000000000E+00    0.0000000000E+00    0.0000000000E+00
    0.0000000000E+00    0.0000000000E+00    0.0000000000E+00    0.0000000000E+00
    0.0000000000E+00    0.0000000000E+00    0.0000000000E+00    0.0000000000E+00
    0.0000000000E+00    0.0000000000E+00    0.0000000000E+00    0.0000000000E+00
    0.0000000000E+00    0.0000000000E+00    0.0000000000E+00    0.0000000000E+00
    0.0000000000E+00    0.0000000000E+00    0.0000000000E+00    0.0000000000E+00
    0.0000000000E+00    0.0000000000E+00    0.0000000000E+00    0.0000000000E+00
    0.0000000000E+00    0.0000000000E+00    0.0000000000E+00    0.0000000000E+00
    0.0000000000E+00    0.0000000000E+00    0.0000000000E+00    0.0000000000E+00
    0.0000000000E+00    0.0000000000E+00    0.0000000000E+00    0.0000000000E+00
    0.0000000000E+00    0.0000000000E+00    0.0000000000E+00    0.0000000000E+00
    0.0000000000E+00    0.0000000000E+00    0.0000000000E+00    0.0000000000E+00
    0.0000000000E+00    0.0000000000E+00    0.0000000000E+00    0.0000000000E+00
    0.0000000000E+00    0.0000000000E+00    0.0000000000E+00    0.0000000000E+00
    0.0000000000E+00    0.0000000000E+00    0.0000000000E+00    0.0000000000E+00
    0.0000000000E+00    0.0000000000E+00    0.0000000000E+00    0.0000000000E+00
    0.0000000000E+00    0.0000000000E+00    0.0000000000E+00    0.0000000000E+00
    0.0000000000E+00    0.0000000000E+00    0.0000000000E+00    0.0000000000E+00
    0.0000000000E+00    0.0000000000E+00    0.0000000000E+00    0.0000000000E+00
    0.0000000000E+00    0.0000000000E+00    0.0000000000E+00    0.0000000000E+00
    0.0000000000E+00    0.0000000000E+00    0.0000000000E+00    0.0000000000E+00
    0.0000000000E+00    0.0000000000E+00    0.0000000000E+00    0.0000000000E+00
    0.0000000000E+00    0.0000000000E+00    0.0000000000E+00    0.0000000000E+00
    0.0000000000E+00    0.0000000000E+00    0.0000000000E+00    0.0000000000E+00
    0.0000000000E+00    0.0000000000E+00    0.0000000000E+00    0.0000000000E+00
    0.0000000000E+00    0.0000000000E+00    0.0000000000E+00    0.0000000000E+00
    0.0000000000E+00    0.0000000000E+00    0.0000000000E+00    0.0000000000E+00
    0.0000000000E+00    0.0000000000E+00    0.0000000000E+00    0.0000000000E+00
    0.0000000000E+00    0.0000000000E+00    0.0000000000E+00    0.0000000000E+00
    0.0000000000E+00    0.0000000000E+00    0.0000000000E+00    0.0000000000E+00
    0.0000000000E+00    0.0000000000E+00    0.0000000000E+00    0.0000000000E+00
    0.0000000000E+00    0.0000000000E+00    0.0000000000E+00    0.0000000000E+00
    0.0000000000E+00    0.0000000000E+00    0.0000000000E+00    0.0000000000E+00
    0.0000000000E+00    0.0000000000E+00    0.0000000000E+00    0.0000000000E+00
    0.0000000000E+00    0.0000000000E+00    0.0000000000E+00    0.0000000000E+00
    0.0000000000E+00    0.0000000000E+00    0.0000000000E+00    0.0000000000E+00
    0.0000000000E+00    0.0000000000E+00    0.0000000000E+00    0.0000000000E+00
    0.0000000000E+00    0.0000000000E+00    0.0000000000E+00    0.0000000000E+00
    0.0000000000E+00    0.0000000000E+00    0.0000000000E+00    0.0000000000E+00
    0.0000000000E+00    0.0000000000E+00    0.0000000000E+00    0.0000000000E+00
    0.0000000000E+00    0.0000000000E+00    0.0000000000E+00    0.0000000000E+00
    0.0000000000E+00    0.0000000000E+00    0.0000000000E+00    0.0000000000E+00
    0.0000000000E+00    0.0000000000E+00    0.0000000000E+00    0.0000000000E+00
    0.0000000000E+00    0.0000000000E+00    0.0000000000E+00    0.0000000000E+00
    0.0000000000E+00    0.0000000000E+00    0.0000000000E+00    0.0000000000E+00
    0.0000000000E+00    0.0000000000E+00    0.0000000000E+00    0.0000000000E+00
    0.0000000000E+00    0.0000000000E+00    0.0000000000E+00    0.0000000000E+00
    0.0000000000E+00    0.0000000000E+00    0.0000000000E+00    0.0000000000E+00
    0.0000000000E+00    0.0000000000E+00    0.0000000000E+00    0.0000000000E+00
    0.0000000000E+00    0.0000000000E+00    0.0000000000E+00    0.0000000000E+00
    0.0000000000E+00    0.0000000000E+00    0.0000000000E+00    0.0000000000E+00
    0.0000000000E+00    0.0000000000E+00    0.0000000000E+00    0.0000000000E+00
    0.0000000000E+00    0.0000000000E+00    0.0000000000E+00    0.0000000000E+00
    0.0000000000E+00    0.0000000000E+00    0.0000000000E+00    0.0000000000E+00
    0.0000000000E+00    0.0000000000E+00    0.0000000000E+00    0.0000000000E+00
    0.0000000000E+00    0.0000000000E+00    0.0000000000E+00    0.0000000000E+00
    0.0000000000E+00    0.0000000000E+00    0.0000000000E+00    0.0000000000E+00
    0.0000000000E+00    0.0000000000E+00    0.0000000000E+00    0.0000000000E+00
    0.0000000000E+00    0.0000000000E+00    0.0000000000E+00    0.0000000000E+00
    0.0000000000E+00    0.0000000000E+00    0.0000000000E+00    0.0000000000E+00
    0.0000000000E+00    0.0000000000E+00    0.0000000000E+00    0.0000000000E+00
 </PP_NLCC>
 <PP_RHOATOM type="real"  size="1148" columns="4">
    0.0000000000E+00    9.1602811834E-06    3.6733152731E-05    8.3117693337E-05
    1.4938667436E-04    2.3788985815E-04    3.5308241954E-04    5.0256259031E-04
    6.9829850190E-04    9.5802038217E-04    1.3067508063E-03    1.7784426645E-03
    2.4176919346E-03    3.2814902806E-03    4.4409809688E-03    5.9831806255E-03
    8.0126289775E-03    1.0652928922E-02    1.4048140063E-02    1.8363990240E-02
    2.3788871490E-02    3.0534589398E-02    3.8836837741E-02    4.8955373814E-02
    6.1173873656E-02    7.5799450661E-02    9.3161825584E-02    1.1361214070E-01
    1.3752141586E-01    1.6527864929E-01    1.9728857086E-01    2.3396906087E-01
    2.7574825224E-01    3.2306133850E-01    3.7634711497E-01    4.3604428418E-01
    5.0258756081E-01    5.7640361460E-01    6.5790689265E-01    7.4749536486E-01
    8.4554623832E-01    9.5241168742E-01    1.0684146473E+00    1.1938447182E+00
    1.3289542283E+00    1.4739545001E+00    1.6290123653E+00    1.7942469698E+00
    1.9697269082E+00    2.1554677225E+00    2.3514297989E+00    2.5575166888E+00
    2.7735738775E+00    2.9993880206E+00    3.2346866593E+00    3.4791384257E+00
    3.7323537379E+00    3.9938859858E+00    4.2632331985E+00    4.5398401812E+00
    4.8231011037E+00    5.1123625197E+00    5.4069267888E+00    5.7060558712E+00
    6.0089754617E+00    6.3148794237E+00    6.6229344848E+00    6.9322851498E+00
    7.2420587880E+00    7.5513708484E+00    7.8593301566E+00    8.1650442465E+00
    8.4676246817E+00    8.7661923189E+00    9.0598824715E+00    9.3478499288E+00
    9.6292737917E+00    9.9033620864E+00    1.0169356122E+01    1.0426534556E+01
    1.0674217152E+01    1.0911768182E+01    1.1138599478E+01    1.1354173097E+01
    1.1558003595E+01    1.1749659900E+01    1.1928766776E+01    1.2095005880E+01
    1.2248116412E+01    1.2387895363E+01    1.2514197377E+01    1.2626934231E+01
    1.2726073955E+01    1.2811639605E+01    1.2883707718E+01    1.2942406458E+01
    1.2987913496E+01    1.3020453628E+01    1.3040296181E+01    1.3047752215E+01
    1.3043171566E+01    1.3026939741E+01    1.2999474713E+01    1.2961223629E+01
    1.2912659467E+01    1.2854277662E+01    1.2786592735E+01    1.2710134945E+01
    1.2625446982E+01    1.2533080738E+01    1.2433594153E+01    1.2327548180E+01
    1.2215503861E+01    1.2098019550E+01    1.1975648276E+01    1.1848935273E+01
    1.1718415677E+01    1.1584612395E+01    1.1448034161E+01    1.1309173771E+01
    1.1168506510E+01    1.1026488755E+01    1.0883556778E+01    1.0740125716E+01
    1.0596588728E+01    1.0453316327E+01    1.0310655872E+01    1.0168931227E+01
    1.0028442571E+01    9.8894663523E+00    9.7522553761E+00    9.6170390253E+00
    9.4840235925E+00    9.3533927219E+00    9.2253079483E+00    9.0999093244E+00
    8.9773161261E+00    8.8576276255E+00    8.7409239246E+00    8.6272668378E+00
    8.5167008159E+00    8.4092539040E+00    8.3049387227E+00    8.2037534683E+00
    8.1056829222E+00    8.0106994640E+00    7.9187640829E+00    7.8298273801E+00
    7.7438305583E+00    7.6607063927E+00    7.5803801806E+00    7.5027706637E+00
    7.4277909224E+00    7.3553492367E+00    7.2853499128E+00    7.2176940725E+00
    7.1522804044E+00    7.0890058740E+00    7.0277663935E+00    6.9684574486E+00
    6.9109746836E+00    6.8552144424E+00    6.8010742675E+00    6.7484533553E+00
    6.6972529690E+00    6.6473768098E+00    6.5987313467E+00    6.5512261049E+00
    6.5047739160E+00    6.4592911286E+00    6.4146977830E+00    6.3709177484E+00
    6.3278788274E+00    6.2855128259E+00    6.2437555905E+00    6.2025470192E+00
    6.1618310473E+00    6.1215556054E+00    6.0816725541E+00    6.0421375946E+00
    6.0029101628E+00    5.9639532903E+00    5.9252332907E+00    5.8867191547E+00
    5.8483821436E+00    5.8101958436E+00    5.7721360950E+00    5.7341809473E+00
    5.6963106038E+00    5.6585073629E+00    5.6207555552E+00    5.5830414768E+00
    5.5453533202E+00    5.5076811032E+00    5.4700165958E+00    5.4323532453E+00
    5.3946860996E+00    5.3570117315E+00    5.3193281624E+00    5.2816347861E+00
    5.2439322955E+00    5.2062226099E+00    5.1685087504E+00    5.1307945530E+00
    5.0930842462E+00    5.0553822577E+00    5.0176932064E+00    4.9800218963E+00
    4.9423732157E+00    4.9047521040E+00    4.8671635084E+00    4.8296123427E+00
    4.7921034512E+00    4.7546415761E+00    4.7172313281E+00    4.6798771610E+00
    4.6425833498E+00    4.6053539715E+00    4.5681928897E+00    4.5311037423E+00
    4.4940899312E+00    4.4571546159E+00    4.4203007256E+00    4.3835310453E+00
    4.3468483636E+00    4.3102555708E+00    4.2737556395E+00    4.2373515797E+00
    4.2010464363E+00    4.1648432966E+00    4.1287452723E+00    4.0927554947E+00
    4.0568771071E+00    4.0211132583E+00    3.9854670959E+00    3.9499417608E+00
    3.9145403808E+00    3.8792660664E+00    3.8441219049E+00    3.8091109562E+00
    3.7742362487E+00    3.7395007748E+00    3.7049074876E+00    3.6704592974E+00
    3.6361590684E+00    3.6020096157E+00    3.5680137029E+00    3.5341740393E+00
    3.5004932781E+00    3.4669740139E+00    3.4336187812E+00    3.4004300526E+00
    3.3674102375E+00    3.3345616805E+00    3.3018866608E+00    3.2693873907E+00
    3.2370660150E+00    3.2049246105E+00    3.1729651852E+00    3.1411896779E+00
    3.1095999581E+00    3.0781978255E+00    3.0469850101E+00    3.0159631724E+00
    2.9851339029E+00    2.9544987231E+00    2.9240590850E+00    2.8938163720E+00
    2.8637718989E+00    2.8339269129E+00    2.8042825936E+00    2.7748400539E+00
    2.7456003406E+00    2.7165644351E+00    2.6877332541E+00    2.6591076506E+00
    2.6306884145E+00    2.6024762735E+00    2.5744718940E+00    2.5466758823E+00
    2.5190887850E+00    2.4917110905E+00    2.4645432298E+00    2.4375855775E+00
    2.4108384526E+00    2.3843021201E+00    2.3579767915E+00    2.3318626263E+00
    2.3059597327E+00    2.2802681688E+00    2.2547879441E+00    2.2295190197E+00
    2.2044613102E+00    2.1796146844E+00    2.1549789666E+00    2.1305539373E+00
    2.1063393348E+00    2.0823348558E+00    2.0585401567E+00    2.0349548547E+00
    2.0115785287E+00    1.9884107205E+00    1.9654509358E+00    1.9426986449E+00
    1.9201532843E+00    1.8978142574E+00    1.8756809353E+00    1.8537526580E+00
    1.8320287355E+00    1.8105084486E+00    1.7891910495E+00    1.7680757634E+00
    1.7471617891E+00    1.7264482996E+00    1.7059344434E+00    1.6856193454E+00
    1.6655021074E+00    1.6455818090E+00    1.6258575089E+00    1.6063282451E+00
    1.5869930361E+00    1.5678508815E+00    1.5489007627E+00    1.5301416440E+00
    1.5115724730E+00    1.4931921812E+00    1.4749996853E+00    1.4569938873E+00
    1.4391736754E+00    1.4215379246E+00    1.4040854977E+00    1.3868152452E+00
    1.3697260066E+00    1.3528166109E+00    1.3360858767E+00    1.3195326135E+00
    1.3031556214E+00    1.2869536927E+00    1.2709256115E+00    1.2550701547E+00
    1.2393860923E+00    1.2238721883E+00    1.2085272005E+00    1.1933498816E+00
    1.1783389793E+00    1.1634932370E+00    1.1488113940E+00    1.1342921860E+00
    1.1199343455E+00    1.1057366024E+00    1.0916976841E+00    1.0778163161E+00
    1.0640912221E+00    1.0505211246E+00    1.0371047454E+00    1.0238408055E+00
    1.0107280256E+00    9.9776512664E-01    9.8495082985E-01    9.7228385718E-01
    9.5976293152E-01    9.4738677704E-01    9.3515411943E-01    9.2306368619E-01
    9.1111420688E-01    8.9930441335E-01    8.8763304002E-01    8.7609882410E-01
    8.6470050581E-01    8.5343682860E-01    8.4230653937E-01    8.3130838870E-01
    8.2044113100E-01    8.0970352474E-01    7.9909433264E-01    7.8861232183E-01
    7.7825626402E-01    7.6802493571E-01    7.5791711831E-01    7.4793159832E-01
    7.3806716747E-01    7.2832262288E-01    7.1869676719E-01    7.0918840869E-01
    6.9979636148E-01    6.9051944557E-01    6.8135648699E-01    6.7230631795E-01
    6.6336777692E-01    6.5453970874E-01    6.4582096472E-01    6.3721040277E-01
    6.2870688745E-01    6.2030929011E-01    6.1201648891E-01    6.0382736897E-01
    5.9574082242E-01    5.8775574848E-01    5.7987105351E-01    5.7208565112E-01
    5.6439846219E-01    5.5680841497E-01    5.4931444511E-01    5.4191549574E-01
    5.3461051750E-01    5.2739846859E-01    5.2027831483E-01    5.1324902968E-01
    5.0630959432E-01    4.9945899763E-01    4.9269623628E-01    4.8602031471E-01
    4.7943024521E-01    4.7292504789E-01    4.6650375075E-01    4.6016538969E-01
    4.5390900851E-01    4.4773365893E-01    4.4163840062E-01    4.3562230121E-01
    4.2968443627E-01    4.2382388936E-01    4.1803975199E-01    4.1233112366E-01
    4.0669711184E-01    4.0113683197E-01    3.9564940747E-01    3.9023396971E-01
    3.8488965802E-01    3.7961561969E-01    3.7441100993E-01    3.6927499188E-01
    3.6420673658E-01    3.5920542300E-01    3.5427023793E-01    3.4940037606E-01
    3.4459503990E-01    3.3985343976E-01    3.3517479376E-01    3.3055832778E-01
    3.2600327542E-01    3.2150887801E-01    3.1707438456E-01    3.1269905171E-01
    3.0838214375E-01    3.0412293252E-01    2.9992069743E-01    2.9577472542E-01
    2.9168431089E-01    2.8764875569E-01    2.8366736907E-01    2.7973946766E-01
    2.7586437541E-01    2.7204142354E-01    2.6826995055E-01    2.6454930211E-01
    2.6087883105E-01    2.5725789733E-01    2.5368586797E-01    2.5016211702E-01
    2.4668602549E-01    2.4325698134E-01    2.3987437940E-01    2.3653762136E-01
    2.3324611566E-01    2.2999927751E-01    2.2679652879E-01    2.2363729803E-01
    2.2052102035E-01    2.1744713739E-01    2.1441509730E-01    2.1142435464E-01
    2.0847437039E-01    2.0556461183E-01    2.0269455254E-01    1.9986367230E-01
    1.9707145710E-01    1.9431739903E-01    1.9160099625E-01    1.8892175294E-01
    1.8627917924E-01    1.8367279120E-01    1.8110211072E-01    1.7856666551E-01
    1.7606598902E-01    1.7359962039E-01    1.7116710442E-01    1.6876799148E-01
    1.6640183747E-01    1.6406820379E-01    1.6176665723E-01    1.5949676999E-01
    1.5725811956E-01    1.5505028873E-01    1.5287286545E-01    1.5072544288E-01
    1.4860761925E-01    1.4651899788E-01    1.4445918705E-01    1.4242780002E-01
    1.4042445492E-01    1.3844877475E-01    1.3650038729E-01    1.3457892507E-01
    1.3268402528E-01    1.3081532978E-01    1.2897248502E-01    1.2715514196E-01
    1.2536295606E-01    1.2359558723E-01    1.2185269975E-01    1.2013396224E-01
    1.1843904761E-01    1.1676763302E-01    1.1511939981E-01    1.1349403347E-01
    1.1189122357E-01    1.1031066375E-01    1.0875205164E-01    1.0721508882E-01
    1.0569948079E-01    1.0420493689E-01    1.0273117030E-01    1.0127789796E-01
    9.9844840526E-02    9.8431722352E-02    9.7038271419E-02    9.5664219300E-02
    9.4309301120E-02    9.2973255508E-02    9.1655824558E-02    9.0356753784E-02
    8.9075792078E-02    8.7812691672E-02    8.6567208090E-02    8.5339100114E-02
    8.4128129740E-02    8.2934062141E-02    8.1756665621E-02    8.0595711582E-02
    7.9450974485E-02    7.8322231805E-02    7.7209264002E-02    7.6111854476E-02
    7.5029789533E-02    7.3962858347E-02    7.2910852925E-02    7.1873568070E-02
    7.0850801344E-02    6.9842353033E-02    6.8848026115E-02    6.7867626222E-02
    6.6900961606E-02    6.5947843106E-02    6.5008084116E-02    6.4081500550E-02
    6.3167910807E-02    6.2267135746E-02    6.1378998645E-02    6.0503325176E-02
    5.9639943371E-02    5.8788683591E-02    5.7949378498E-02    5.7121863019E-02
    5.6305974324E-02    5.5501551790E-02    5.4708436977E-02    5.3926473593E-02
    5.3155507472E-02    5.2395386543E-02    5.1645960802E-02    5.0907082285E-02
    5.0178605041E-02    4.9460385105E-02    4.8752280472E-02    4.8054151072E-02
    4.7365858741E-02    4.6687267199E-02    4.6018242023E-02    4.5358650624E-02
    4.4708362218E-02    4.4067247807E-02    4.3435180155E-02    4.2812033760E-02
    4.2197684834E-02    4.1592011279E-02    4.0994892665E-02    4.0406210208E-02
    3.9825846745E-02    3.9253686718E-02    3.8689616144E-02    3.8133522603E-02
    3.7585295210E-02    3.7044824598E-02    3.6512002895E-02    3.5986723706E-02
    3.5468882094E-02    3.4958374555E-02    3.4455099007E-02    3.3958954761E-02
    3.3469842511E-02    3.2987664310E-02    3.2512323553E-02    3.2043724961E-02
    3.1581774559E-02    3.1126379662E-02    3.0677448854E-02    3.0234891975E-02
    2.9798620101E-02    2.9368545528E-02    2.8944581756E-02    2.8526643472E-02
    2.8114646533E-02    2.7708507954E-02    2.7308145888E-02    2.6913479611E-02
    2.6524429510E-02    2.6140917065E-02    2.5762864836E-02    2.5390196446E-02
    2.5022836568E-02    2.4660710912E-02    2.4303746209E-02    2.3951870198E-02
    2.3605011611E-02    2.3263100162E-02    2.2926066532E-02    2.2593842355E-02
    2.2266360208E-02    2.1943553595E-02    2.1625356937E-02    2.1311705557E-02
    2.1002535670E-02    2.0697784370E-02    2.0397389618E-02    2.0101290229E-02
    1.9809425863E-02    1.9521737012E-02    1.9238164988E-02    1.8958651915E-02
    1.8683140712E-02    1.8411575088E-02    1.8143899530E-02    1.7880059289E-02
    1.7620000375E-02    1.7363669541E-02    1.7111014278E-02    1.6861982801E-02
    1.6616524042E-02    1.6374587637E-02    1.6136123922E-02    1.5901083917E-02
    1.5669419320E-02    1.5441082499E-02    1.5216026480E-02    1.4994204940E-02
    1.4775572196E-02    1.4560083199E-02    1.4347693525E-02    1.4138359364E-02
    1.3932037514E-02    1.3728685372E-02    1.3528260925E-02    1.3330722744E-02
    1.3136029974E-02    1.2944142327E-02    1.2755020076E-02    1.2568624042E-02
    1.2384915595E-02    1.2203856637E-02    1.2025409602E-02    1.1849537446E-02
    1.1676203639E-02    1.1505372161E-02    1.1337007490E-02    1.1171074602E-02
    1.1007538958E-02    1.0846366501E-02    1.0687523646E-02    1.0530977279E-02
    1.0376694747E-02    1.0224643850E-02    1.0074792838E-02    9.9271104050E-03
    9.7815656801E-03    9.6381282239E-03    9.4967680220E-03    9.3574554786E-03
    9.2201614118E-03    9.0848570470E-03    8.9515140119E-03    8.8201043307E-03
    8.6906004190E-03    8.5629750780E-03    8.4372014897E-03    8.3132532111E-03
    8.1911041697E-03    8.0707286581E-03    7.9521013288E-03    7.8351971899E-03
    7.7199915993E-03    7.6064602610E-03    7.4945792192E-03    7.3843248546E-03
    7.2756738792E-03    7.1686033321E-03    7.0630905747E-03    6.9591132864E-03
    6.8566494605E-03    6.7556773994E-03    6.6561757106E-03    6.5581233027E-03
    6.4614993808E-03    6.3662834428E-03    6.2724552753E-03    6.1799949495E-03
    6.0888828174E-03    5.9990995078E-03    5.9106259227E-03    5.8234432333E-03
    5.7375328764E-03    5.6528765509E-03    5.5694562139E-03    5.4872540771E-03
    5.4062526038E-03    5.3264345047E-03    5.2477827352E-03    5.1702804914E-03
    5.0939112072E-03    5.0186585507E-03    4.9445064213E-03    4.8714389462E-03
    4.7994404775E-03    4.7284955889E-03    4.6585890725E-03    4.5897059361E-03
    4.5218314003E-03    4.4549508949E-03    4.3890500568E-03    4.3241147264E-03
    4.2601309455E-03    4.1970849537E-03    4.1349631865E-03    4.0737522719E-03
    4.0134390281E-03    3.9540104607E-03    3.8954537602E-03    3.8377562992E-03
    3.7809056301E-03    3.7248894828E-03    3.6696957615E-03    3.6153125431E-03
    3.5617280741E-03    3.5089307690E-03    3.4569092071E-03    3.4056521307E-03
    3.3551484430E-03    3.3053872053E-03    3.2563576352E-03    3.2080491043E-03
    3.1604511361E-03    3.1135534037E-03    3.0673457280E-03    3.0218180754E-03
    2.9769605558E-03    2.9327634206E-03    2.8892170608E-03    2.8463120051E-03
    2.8040389175E-03    2.7623885962E-03    2.7213519709E-03    2.6809201017E-03
    2.6410841765E-03    2.6018355098E-03    2.5631655409E-03    2.5250658316E-03
    2.4875280652E-03    2.4505440443E-03    2.4141056891E-03    2.3782050363E-03
    2.3428342367E-03    2.3079855541E-03    2.2736513636E-03    2.2398241499E-03
    2.2064965061E-03    2.1736611317E-03    2.1413108313E-03    2.1094385133E-03
    2.0780371882E-03    2.0470999672E-03    2.0166200609E-03    1.9865907778E-03
    1.9570055228E-03    1.9278577961E-03    1.8991411916E-03    1.8708493958E-03
    1.8429761863E-03    1.8155154305E-03    1.7884610847E-03    1.7618071921E-03
    1.7355478825E-03    1.7096773703E-03    1.6841899535E-03    1.6590800130E-03
    1.6343420106E-03    1.6099704884E-03    1.5859600678E-03    1.5623054476E-03
    1.5390014040E-03    1.5160427884E-03    1.4934245270E-03    1.4711416198E-03
    1.4491891389E-03    1.4275622283E-03    1.4062561021E-03    1.3852660442E-03
    1.3645874067E-03    1.3442156093E-03    1.3241461384E-03    1.3043745457E-03
    1.2848964477E-03    1.2657075246E-03    1.2468035195E-03    1.2281802372E-03
    1.2098335437E-03    1.1917593651E-03    1.1739536869E-03    1.1564125529E-03
    1.1391320646E-03    1.1221083802E-03    1.1053377140E-03    1.0888163353E-03
    1.0725405680E-03    1.0565067894E-03    1.0407114297E-03    1.0251509712E-03
    1.0098219474E-03    9.9472094266E-04    9.7984459091E-04    9.6518957537E-04
    9.5075262766E-04    9.3653052716E-04    9.2252010027E-04    9.0871821981E-04
    8.9512180429E-04    8.8172781725E-04    8.6853326667E-04    8.5553520426E-04
    8.4273072490E-04    8.3011696595E-04    8.1769110668E-04    8.0545036764E-04
    7.9339201010E-04    7.8151333543E-04    7.6981168454E-04    7.5828443727E-04
    7.4692901189E-04    7.3574286451E-04    7.2472348853E-04    7.1386841410E-04
    7.0317520760E-04    6.9264147112E-04    6.8226484192E-04    6.7204299196E-04
    6.6197362735E-04    6.5205448788E-04    6.4228334655E-04    6.3265800905E-04
    6.2317631332E-04    6.1383612905E-04    6.0463535727E-04    5.9557192983E-04
    5.8664380901E-04    5.7784898703E-04    5.6918548567E-04    5.6065135579E-04
    5.5224467694E-04    5.4396355692E-04    5.3580613139E-04    5.2777056345E-04
    5.1985504325E-04    5.1205778760E-04    5.0437703956E-04    4.9681106809E-04
    4.8935816766E-04    4.8201665784E-04    4.7478488303E-04    4.6766121197E-04
    4.6064403751E-04    4.5373177616E-04    4.4692286783E-04    4.4021577542E-04
    4.3360898450E-04    4.2710100300E-04    4.2069036090E-04    4.1437560985E-04
    4.0815532290E-04    4.0202809417E-04    3.9599253853E-04    3.9004729134E-04
    3.8419100811E-04    3.7842236422E-04    3.7274005462E-04    3.6714279357E-04
    3.6162931432E-04    3.5619836885E-04    3.5084872763E-04    3.4557917928E-04
    3.4038853036E-04    3.3527560508E-04    3.3023924506E-04    3.2527830906E-04
    3.2039167273E-04    3.1557822837E-04    3.1083688468E-04    3.0616656653E-04
    3.0156621471E-04    2.9703478570E-04    2.9257125143E-04    2.8817459909E-04
    2.8384383086E-04    2.7957796372E-04    2.7537602922E-04    2.7123707326E-04
    2.6716015591E-04    2.6314435117E-04    2.5918874676E-04    2.5529244395E-04
    2.5145455736E-04    2.4767421470E-04    2.4395055669E-04    2.4028273674E-04
    2.3666992087E-04    2.3311128748E-04    2.2960602715E-04    2.2615334249E-04
    2.2275244797E-04    2.1940256969E-04    2.1610294529E-04    2.1285282372E-04
    2.0965146509E-04    2.0649814050E-04    2.0339213189E-04    2.0033273188E-04
    1.9731924361E-04    1.9435098058E-04    1.9142726648E-04    1.8854743508E-04
    1.8571083007E-04    1.8291680486E-04    1.8016472254E-04    1.7745395563E-04
    1.7478388601E-04    1.7215390475E-04    1.6956341200E-04    1.6701181682E-04
    1.6449853708E-04    1.6202299932E-04    1.5958463862E-04    1.5718289847E-04
    1.5481723065E-04    1.5248709510E-04    1.5019195983E-04    1.4793130074E-04
    1.4570460159E-04    1.4351135378E-04    1.4135105632E-04    1.3922321570E-04
    1.3712734574E-04    1.3506296753E-04    1.3302960928E-04    1.3102680626E-04
    1.2905410066E-04    1.2711104149E-04    1.2519718450E-04    1.2331209207E-04
    1.2145533309E-04    1.1962648291E-04    1.1782512320E-04    1.1605084189E-04
    1.1430323303E-04    1.1258189675E-04    1.1088643916E-04    1.0921647224E-04
    1.0757161376E-04    1.0595148719E-04    1.0435572165E-04    1.0278395179E-04
    1.0123581770E-04    9.9710964855E-05    9.8209044044E-05    9.6729711256E-05
    9.5272627625E-05    9.3837459350E-05    9.2423877616E-05    9.1031558528E-05
    8.9660183030E-05    8.8309436835E-05    8.6979010356E-05    8.5668598635E-05
    8.4377901271E-05    8.3106622361E-05    8.1854470423E-05    8.0621158339E-05
    7.9406403280E-05    7.8209926654E-05    7.7031454031E-05    7.5870715092E-05
    7.4727443560E-05    7.3601377146E-05    7.2492257481E-05    7.1399830068E-05
    7.0323844215E-05    6.9264052986E-05    6.8220213139E-05    6.7192085077E-05
    6.6179432787E-05    6.5182023792E-05    6.4199629093E-05    6.3232023125E-05
    6.2278983699E-05    6.1340291953E-05    6.0415732305E-05    5.9505092401E-05
    5.8608163069E-05    5.7724738270E-05    5.6854615055E-05    5.5997593512E-05
    5.5153476728E-05    5.4322070738E-05    5.3503184486E-05    5.2696629779E-05
    5.1902221246E-05    5.1119776293E-05    5.0349115063E-05    4.9590060398E-05
    4.8842437794E-05    4.8106075363E-05    4.7380803797E-05    4.6666456325E-05
    4.5962868678E-05    4.5269879050E-05    4.4587328062E-05    4.3915058724E-05
    4.3252916405E-05    4.2600748790E-05    4.1958405852E-05    4.1325739812E-05
    4.0702605110E-05    4.0088858370E-05    3.9484358366E-05    3.8888965994E-05
    3.8302544237E-05    3.7724958132E-05    3.7156074743E-05    3.6595763131E-05
    3.6043894321E-05    3.5500341274E-05    3.4964978859E-05    3.4437683823E-05
    3.3918334764E-05    3.3406812103E-05    3.2902998054E-05    3.2406776605E-05
    3.1918033482E-05    3.1436656128E-05    3.0962533677E-05    3.0495556929E-05
    3.0035618322E-05    2.9582611911E-05    2.9136433343E-05    2.8696979833E-05
    2.8264150138E-05    2.7837844539E-05    2.7417964812E-05    2.7004414211E-05
    2.6597097443E-05    2.6195920649E-05    2.5800791378E-05    2.5411618569E-05
    2.5028312530E-05    2.4650784916E-05    2.4278948712E-05    2.3912718208E-05
    2.3552008986E-05    2.3196737894E-05    2.2846823031E-05    2.2502183727E-05
    2.2162740526E-05    2.1828415166E-05    2.1499130560E-05    2.1174810784E-05
    2.0855381052E-05    2.0540767703E-05    2.0230898187E-05    1.9925701040E-05
    1.9625105878E-05    1.9329043372E-05    1.9037445237E-05    1.8750244215E-05
    1.8467374059E-05    1.8188769520E-05    1.7914366330E-05    1.7644101186E-05
    1.7377911741E-05    1.7115736582E-05    1.6857515223E-05    1.6603188085E-05
    1.6352696490E-05    1.6105982638E-05    1.5862989603E-05    1.5623661313E-05
    1.5387942539E-05    1.5155778886E-05    1.4927116776E-05    1.4701903437E-05
    1.4480086893E-05    1.4261615948E-05    1.4046440178E-05    1.3834509918E-05
    1.3625776249E-05    1.3420190991E-05    1.3217706688E-05    1.3018276597E-05
    1.2821854682E-05    1.2628395596E-05    1.2437854679E-05    1.2250187939E-05
    1.2065352050E-05    1.1883304336E-05    1.1704002766E-05    1.1527405939E-05
    1.1353473080E-05    1.1182164026E-05    1.1013439220E-05    1.0847259700E-05
    1.0683587092E-05    1.0522383598E-05    1.0363611992E-05    1.0207235606E-05
    1.0053218325E-05    9.9015245785E-06    9.7521193319E-06    9.6049680779E-06
    9.4600368292E-06    9.3172921103E-06    9.1767009500E-06    9.0382308737E-06
 </PP_RHOATOM>
</UPF>

END_PSP
