Begin PSP_UPF
<UPF version="2.0.1">
  <PP_INFO>

 This pseudopotential file has been produced using the code
 ONCVPSP  (Optimized Norm-Conservinng Vanderbilt PSeudopotential)
 scalar-relativistic version 4.0.1 06/04/2019 by D. R. Hamann
 The code is available through a link at URL www.mat-simresearch.com.
 Documentation with the package provides a full discription of the
 input data below.


 While it is not required under the terms of the GNU GPL, it is
 suggested that you cite D. R. Hamann, Phys. Rev. B 88, 085117 (2013)
 in any publication using these pseudopotentials.

    <PP_INPUTFILE>
# ATOM AND REFERENCE CONFIGURATION
# atsym  z   nc   nv     iexc    psfile
  Pb 82.00   12    3 -116133      upf
#
#   n    l    f        energy (Ha)
    1    0    2.00
    2    0    2.00
    2    1    6.00
    3    0    2.00
    3    1    6.00
    3    2   10.00
    4    0    2.00
    4    1    6.00
    4    2   10.00
    5    0    2.00
    5    1    6.00
    4    3   14.00
    5    2   10.00
    6    0    2.00
    6    1    2.00
#
# PSEUDOPOTENTIAL AND OPTIMIZATION
# lmax
    2
#
#   l,   rc,      ep,       ncon, nbas, qcut
    0   3.09860  -0.44247    4    7   3.13049
    1   2.96143  -0.12854    4    9   4.37870
    2   3.10000  -0.77825    4    7   4.97968
#
# LOCAL POTENTIAL
# lloc, lpopt,  rc(5),   dvloc0
    4    5   1.90000      0.00000
#
# VANDERBILT-KLEINMAN-BYLANDER PROJECTORs
# l, nproj, debl
    0    2   2.70000
    1    2   2.70000
    2    2   1.00000
#
# MODEL CORE CHARGE
# icmod, fcfact, rcfact
    3   6.00000   1.34000
#
# LOG DERIVATIVE ANALYSIS
# epsh1, epsh2, depsh
  -15.00   12.00    0.02
#
# OUTPUT GRID
# rlmax, drl
    6.00    0.01
#
# TEST CONFIGURATIONS
# ncnf
    0
# nvcnf
#   n    l    f
    </PP_INPUTFILE>
  </PP_INFO>
  <!--                               -->
  <!-- END OF HUMAN READABLE SECTION -->
  <!--                               -->
    <PP_HEADER
       generated="Generated using ONCVPSP code by D. R. Hamann"
       author="anonymous"
       date="251029"
       comment=""
       element="Pb"
       pseudo_type="NC"
       relativistic="scalar"
       is_ultrasoft="F"
       is_paw="F"
       is_coulomb="F"
       has_so="F"
       has_wfc="F"
       has_gipaw="F"
       core_correction="T"
       functional="PBESOL"
       z_valence="   14.00"
       total_psenergy="  -1.11357427254E+02"
       rho_cutoff="   1.67100000000E+01"
       l_max="2"
       l_local="-1"
       mesh_size="  1672"
       number_of_wfc="3"
       number_of_proj="6"/>
 <PP_MESH>
   <PP_R type="real"  size="1672" columns="8">
    0.0000    0.0100    0.0200    0.0300    0.0400    0.0500    0.0600    0.0700
    0.0800    0.0900    0.1000    0.1100    0.1200    0.1300    0.1400    0.1500
    0.1600    0.1700    0.1800    0.1900    0.2000    0.2100    0.2200    0.2300
    0.2400    0.2500    0.2600    0.2700    0.2800    0.2900    0.3000    0.3100
    0.3200    0.3300    0.3400    0.3500    0.3600    0.3700    0.3800    0.3900
    0.4000    0.4100    0.4200    0.4300    0.4400    0.4500    0.4600    0.4700
    0.4800    0.4900    0.5000    0.5100    0.5200    0.5300    0.5400    0.5500
    0.5600    0.5700    0.5800    0.5900    0.6000    0.6100    0.6200    0.6300
    0.6400    0.6500    0.6600    0.6700    0.6800    0.6900    0.7000    0.7100
    0.7200    0.7300    0.7400    0.7500    0.7600    0.7700    0.7800    0.7900
    0.8000    0.8100    0.8200    0.8300    0.8400    0.8500    0.8600    0.8700
    0.8800    0.8900    0.9000    0.9100    0.9200    0.9300    0.9400    0.9500
    0.9600    0.9700    0.9800    0.9900    1.0000    1.0100    1.0200    1.0300
    1.0400    1.0500    1.0600    1.0700    1.0800    1.0900    1.1000    1.1100
    1.1200    1.1300    1.1400    1.1500    1.1600    1.1700    1.1800    1.1900
    1.2000    1.2100    1.2200    1.2300    1.2400    1.2500    1.2600    1.2700
    1.2800    1.2900    1.3000    1.3100    1.3200    1.3300    1.3400    1.3500
    1.3600    1.3700    1.3800    1.3900    1.4000    1.4100    1.4200    1.4300
    1.4400    1.4500    1.4600    1.4700    1.4800    1.4900    1.5000    1.5100
    1.5200    1.5300    1.5400    1.5500    1.5600    1.5700    1.5800    1.5900
    1.6000    1.6100    1.6200    1.6300    1.6400    1.6500    1.6600    1.6700
    1.6800    1.6900    1.7000    1.7100    1.7200    1.7300    1.7400    1.7500
    1.7600    1.7700    1.7800    1.7900    1.8000    1.8100    1.8200    1.8300
    1.8400    1.8500    1.8600    1.8700    1.8800    1.8900    1.9000    1.9100
    1.9200    1.9300    1.9400    1.9500    1.9600    1.9700    1.9800    1.9900
    2.0000    2.0100    2.0200    2.0300    2.0400    2.0500    2.0600    2.0700
    2.0800    2.0900    2.1000    2.1100    2.1200    2.1300    2.1400    2.1500
    2.1600    2.1700    2.1800    2.1900    2.2000    2.2100    2.2200    2.2300
    2.2400    2.2500    2.2600    2.2700    2.2800    2.2900    2.3000    2.3100
    2.3200    2.3300    2.3400    2.3500    2.3600    2.3700    2.3800    2.3900
    2.4000    2.4100    2.4200    2.4300    2.4400    2.4500    2.4600    2.4700
    2.4800    2.4900    2.5000    2.5100    2.5200    2.5300    2.5400    2.5500
    2.5600    2.5700    2.5800    2.5900    2.6000    2.6100    2.6200    2.6300
    2.6400    2.6500    2.6600    2.6700    2.6800    2.6900    2.7000    2.7100
    2.7200    2.7300    2.7400    2.7500    2.7600    2.7700    2.7800    2.7900
    2.8000    2.8100    2.8200    2.8300    2.8400    2.8500    2.8600    2.8700
    2.8800    2.8900    2.9000    2.9100    2.9200    2.9300    2.9400    2.9500
    2.9600    2.9700    2.9800    2.9900    3.0000    3.0100    3.0200    3.0300
    3.0400    3.0500    3.0600    3.0700    3.0800    3.0900    3.1000    3.1100
    3.1200    3.1300    3.1400    3.1500    3.1600    3.1700    3.1800    3.1900
    3.2000    3.2100    3.2200    3.2300    3.2400    3.2500    3.2600    3.2700
    3.2800    3.2900    3.3000    3.3100    3.3200    3.3300    3.3400    3.3500
    3.3600    3.3700    3.3800    3.3900    3.4000    3.4100    3.4200    3.4300
    3.4400    3.4500    3.4600    3.4700    3.4800    3.4900    3.5000    3.5100
    3.5200    3.5300    3.5400    3.5500    3.5600    3.5700    3.5800    3.5900
    3.6000    3.6100    3.6200    3.6300    3.6400    3.6500    3.6600    3.6700
    3.6800    3.6900    3.7000    3.7100    3.7200    3.7300    3.7400    3.7500
    3.7600    3.7700    3.7800    3.7900    3.8000    3.8100    3.8200    3.8300
    3.8400    3.8500    3.8600    3.8700    3.8800    3.8900    3.9000    3.9100
    3.9200    3.9300    3.9400    3.9500    3.9600    3.9700    3.9800    3.9900
    4.0000    4.0100    4.0200    4.0300    4.0400    4.0500    4.0600    4.0700
    4.0800    4.0900    4.1000    4.1100    4.1200    4.1300    4.1400    4.1500
    4.1600    4.1700    4.1800    4.1900    4.2000    4.2100    4.2200    4.2300
    4.2400    4.2500    4.2600    4.2700    4.2800    4.2900    4.3000    4.3100
    4.3200    4.3300    4.3400    4.3500    4.3600    4.3700    4.3800    4.3900
    4.4000    4.4100    4.4200    4.4300    4.4400    4.4500    4.4600    4.4700
    4.4800    4.4900    4.5000    4.5100    4.5200    4.5300    4.5400    4.5500
    4.5600    4.5700    4.5800    4.5900    4.6000    4.6100    4.6200    4.6300
    4.6400    4.6500    4.6600    4.6700    4.6800    4.6900    4.7000    4.7100
    4.7200    4.7300    4.7400    4.7500    4.7600    4.7700    4.7800    4.7900
    4.8000    4.8100    4.8200    4.8300    4.8400    4.8500    4.8600    4.8700
    4.8800    4.8900    4.9000    4.9100    4.9200    4.9300    4.9400    4.9500
    4.9600    4.9700    4.9800    4.9900    5.0000    5.0100    5.0200    5.0300
    5.0400    5.0500    5.0600    5.0700    5.0800    5.0900    5.1000    5.1100
    5.1200    5.1300    5.1400    5.1500    5.1600    5.1700    5.1800    5.1900
    5.2000    5.2100    5.2200    5.2300    5.2400    5.2500    5.2600    5.2700
    5.2800    5.2900    5.3000    5.3100    5.3200    5.3300    5.3400    5.3500
    5.3600    5.3700    5.3800    5.3900    5.4000    5.4100    5.4200    5.4300
    5.4400    5.4500    5.4600    5.4700    5.4800    5.4900    5.5000    5.5100
    5.5200    5.5300    5.5400    5.5500    5.5600    5.5700    5.5800    5.5900
    5.6000    5.6100    5.6200    5.6300    5.6400    5.6500    5.6600    5.6700
    5.6800    5.6900    5.7000    5.7100    5.7200    5.7300    5.7400    5.7500
    5.7600    5.7700    5.7800    5.7900    5.8000    5.8100    5.8200    5.8300
    5.8400    5.8500    5.8600    5.8700    5.8800    5.8900    5.9000    5.9100
    5.9200    5.9300    5.9400    5.9500    5.9600    5.9700    5.9800    5.9900
    6.0000    6.0100    6.0200    6.0300    6.0400    6.0500    6.0600    6.0700
    6.0800    6.0900    6.1000    6.1100    6.1200    6.1300    6.1400    6.1500
    6.1600    6.1700    6.1800    6.1900    6.2000    6.2100    6.2200    6.2300
    6.2400    6.2500    6.2600    6.2700    6.2800    6.2900    6.3000    6.3100
    6.3200    6.3300    6.3400    6.3500    6.3600    6.3700    6.3800    6.3900
    6.4000    6.4100    6.4200    6.4300    6.4400    6.4500    6.4600    6.4700
    6.4800    6.4900    6.5000    6.5100    6.5200    6.5300    6.5400    6.5500
    6.5600    6.5700    6.5800    6.5900    6.6000    6.6100    6.6200    6.6300
    6.6400    6.6500    6.6600    6.6700    6.6800    6.6900    6.7000    6.7100
    6.7200    6.7300    6.7400    6.7500    6.7600    6.7700    6.7800    6.7900
    6.8000    6.8100    6.8200    6.8300    6.8400    6.8500    6.8600    6.8700
    6.8800    6.8900    6.9000    6.9100    6.9200    6.9300    6.9400    6.9500
    6.9600    6.9700    6.9800    6.9900    7.0000    7.0100    7.0200    7.0300
    7.0400    7.0500    7.0600    7.0700    7.0800    7.0900    7.1000    7.1100
    7.1200    7.1300    7.1400    7.1500    7.1600    7.1700    7.1800    7.1900
    7.2000    7.2100    7.2200    7.2300    7.2400    7.2500    7.2600    7.2700
    7.2800    7.2900    7.3000    7.3100    7.3200    7.3300    7.3400    7.3500
    7.3600    7.3700    7.3800    7.3900    7.4000    7.4100    7.4200    7.4300
    7.4400    7.4500    7.4600    7.4700    7.4800    7.4900    7.5000    7.5100
    7.5200    7.5300    7.5400    7.5500    7.5600    7.5700    7.5800    7.5900
    7.6000    7.6100    7.6200    7.6300    7.6400    7.6500    7.6600    7.6700
    7.6800    7.6900    7.7000    7.7100    7.7200    7.7300    7.7400    7.7500
    7.7600    7.7700    7.7800    7.7900    7.8000    7.8100    7.8200    7.8300
    7.8400    7.8500    7.8600    7.8700    7.8800    7.8900    7.9000    7.9100
    7.9200    7.9300    7.9400    7.9500    7.9600    7.9700    7.9800    7.9900
    8.0000    8.0100    8.0200    8.0300    8.0400    8.0500    8.0600    8.0700
    8.0800    8.0900    8.1000    8.1100    8.1200    8.1300    8.1400    8.1500
    8.1600    8.1700    8.1800    8.1900    8.2000    8.2100    8.2200    8.2300
    8.2400    8.2500    8.2600    8.2700    8.2800    8.2900    8.3000    8.3100
    8.3200    8.3300    8.3400    8.3500    8.3600    8.3700    8.3800    8.3900
    8.4000    8.4100    8.4200    8.4300    8.4400    8.4500    8.4600    8.4700
    8.4800    8.4900    8.5000    8.5100    8.5200    8.5300    8.5400    8.5500
    8.5600    8.5700    8.5800    8.5900    8.6000    8.6100    8.6200    8.6300
    8.6400    8.6500    8.6600    8.6700    8.6800    8.6900    8.7000    8.7100
    8.7200    8.7300    8.7400    8.7500    8.7600    8.7700    8.7800    8.7900
    8.8000    8.8100    8.8200    8.8300    8.8400    8.8500    8.8600    8.8700
    8.8800    8.8900    8.9000    8.9100    8.9200    8.9300    8.9400    8.9500
    8.9600    8.9700    8.9800    8.9900    9.0000    9.0100    9.0200    9.0300
    9.0400    9.0500    9.0600    9.0700    9.0800    9.0900    9.1000    9.1100
    9.1200    9.1300    9.1400    9.1500    9.1600    9.1700    9.1800    9.1900
    9.2000    9.2100    9.2200    9.2300    9.2400    9.2500    9.2600    9.2700
    9.2800    9.2900    9.3000    9.3100    9.3200    9.3300    9.3400    9.3500
    9.3600    9.3700    9.3800    9.3900    9.4000    9.4100    9.4200    9.4300
    9.4400    9.4500    9.4600    9.4700    9.4800    9.4900    9.5000    9.5100
    9.5200    9.5300    9.5400    9.5500    9.5600    9.5700    9.5800    9.5900
    9.6000    9.6100    9.6200    9.6300    9.6400    9.6500    9.6600    9.6700
    9.6800    9.6900    9.7000    9.7100    9.7200    9.7300    9.7400    9.7500
    9.7600    9.7700    9.7800    9.7900    9.8000    9.8100    9.8200    9.8300
    9.8400    9.8500    9.8600    9.8700    9.8800    9.8900    9.9000    9.9100
    9.9200    9.9300    9.9400    9.9500    9.9600    9.9700    9.9800    9.9900
   10.0000   10.0100   10.0200   10.0300   10.0400   10.0500   10.0600   10.0700
   10.0800   10.0900   10.1000   10.1100   10.1200   10.1300   10.1400   10.1500
   10.1600   10.1700   10.1800   10.1900   10.2000   10.2100   10.2200   10.2300
   10.2400   10.2500   10.2600   10.2700   10.2800   10.2900   10.3000   10.3100
   10.3200   10.3300   10.3400   10.3500   10.3600   10.3700   10.3800   10.3900
   10.4000   10.4100   10.4200   10.4300   10.4400   10.4500   10.4600   10.4700
   10.4800   10.4900   10.5000   10.5100   10.5200   10.5300   10.5400   10.5500
   10.5600   10.5700   10.5800   10.5900   10.6000   10.6100   10.6200   10.6300
   10.6400   10.6500   10.6600   10.6700   10.6800   10.6900   10.7000   10.7100
   10.7200   10.7300   10.7400   10.7500   10.7600   10.7700   10.7800   10.7900
   10.8000   10.8100   10.8200   10.8300   10.8400   10.8500   10.8600   10.8700
   10.8800   10.8900   10.9000   10.9100   10.9200   10.9300   10.9400   10.9500
   10.9600   10.9700   10.9800   10.9900   11.0000   11.0100   11.0200   11.0300
   11.0400   11.0500   11.0600   11.0700   11.0800   11.0900   11.1000   11.1100
   11.1200   11.1300   11.1400   11.1500   11.1600   11.1700   11.1800   11.1900
   11.2000   11.2100   11.2200   11.2300   11.2400   11.2500   11.2600   11.2700
   11.2800   11.2900   11.3000   11.3100   11.3200   11.3300   11.3400   11.3500
   11.3600   11.3700   11.3800   11.3900   11.4000   11.4100   11.4200   11.4300
   11.4400   11.4500   11.4600   11.4700   11.4800   11.4900   11.5000   11.5100
   11.5200   11.5300   11.5400   11.5500   11.5600   11.5700   11.5800   11.5900
   11.6000   11.6100   11.6200   11.6300   11.6400   11.6500   11.6600   11.6700
   11.6800   11.6900   11.7000   11.7100   11.7200   11.7300   11.7400   11.7500
   11.7600   11.7700   11.7800   11.7900   11.8000   11.8100   11.8200   11.8300
   11.8400   11.8500   11.8600   11.8700   11.8800   11.8900   11.9000   11.9100
   11.9200   11.9300   11.9400   11.9500   11.9600   11.9700   11.9800   11.9900
   12.0000   12.0100   12.0200   12.0300   12.0400   12.0500   12.0600   12.0700
   12.0800   12.0900   12.1000   12.1100   12.1200   12.1300   12.1400   12.1500
   12.1600   12.1700   12.1800   12.1900   12.2000   12.2100   12.2200   12.2300
   12.2400   12.2500   12.2600   12.2700   12.2800   12.2900   12.3000   12.3100
   12.3200   12.3300   12.3400   12.3500   12.3600   12.3700   12.3800   12.3900
   12.4000   12.4100   12.4200   12.4300   12.4400   12.4500   12.4600   12.4700
   12.4800   12.4900   12.5000   12.5100   12.5200   12.5300   12.5400   12.5500
   12.5600   12.5700   12.5800   12.5900   12.6000   12.6100   12.6200   12.6300
   12.6400   12.6500   12.6600   12.6700   12.6800   12.6900   12.7000   12.7100
   12.7200   12.7300   12.7400   12.7500   12.7600   12.7700   12.7800   12.7900
   12.8000   12.8100   12.8200   12.8300   12.8400   12.8500   12.8600   12.8700
   12.8800   12.8900   12.9000   12.9100   12.9200   12.9300   12.9400   12.9500
   12.9600   12.9700   12.9800   12.9900   13.0000   13.0100   13.0200   13.0300
   13.0400   13.0500   13.0600   13.0700   13.0800   13.0900   13.1000   13.1100
   13.1200   13.1300   13.1400   13.1500   13.1600   13.1700   13.1800   13.1900
   13.2000   13.2100   13.2200   13.2300   13.2400   13.2500   13.2600   13.2700
   13.2800   13.2900   13.3000   13.3100   13.3200   13.3300   13.3400   13.3500
   13.3600   13.3700   13.3800   13.3900   13.4000   13.4100   13.4200   13.4300
   13.4400   13.4500   13.4600   13.4700   13.4800   13.4900   13.5000   13.5100
   13.5200   13.5300   13.5400   13.5500   13.5600   13.5700   13.5800   13.5900
   13.6000   13.6100   13.6200   13.6300   13.6400   13.6500   13.6600   13.6700
   13.6800   13.6900   13.7000   13.7100   13.7200   13.7300   13.7400   13.7500
   13.7600   13.7700   13.7800   13.7900   13.8000   13.8100   13.8200   13.8300
   13.8400   13.8500   13.8600   13.8700   13.8800   13.8900   13.9000   13.9100
   13.9200   13.9300   13.9400   13.9500   13.9600   13.9700   13.9800   13.9900
   14.0000   14.0100   14.0200   14.0300   14.0400   14.0500   14.0600   14.0700
   14.0800   14.0900   14.1000   14.1100   14.1200   14.1300   14.1400   14.1500
   14.1600   14.1700   14.1800   14.1900   14.2000   14.2100   14.2200   14.2300
   14.2400   14.2500   14.2600   14.2700   14.2800   14.2900   14.3000   14.3100
   14.3200   14.3300   14.3400   14.3500   14.3600   14.3700   14.3800   14.3900
   14.4000   14.4100   14.4200   14.4300   14.4400   14.4500   14.4600   14.4700
   14.4800   14.4900   14.5000   14.5100   14.5200   14.5300   14.5400   14.5500
   14.5600   14.5700   14.5800   14.5900   14.6000   14.6100   14.6200   14.6300
   14.6400   14.6500   14.6600   14.6700   14.6800   14.6900   14.7000   14.7100
   14.7200   14.7300   14.7400   14.7500   14.7600   14.7700   14.7800   14.7900
   14.8000   14.8100   14.8200   14.8300   14.8400   14.8500   14.8600   14.8700
   14.8800   14.8900   14.9000   14.9100   14.9200   14.9300   14.9400   14.9500
   14.9600   14.9700   14.9800   14.9900   15.0000   15.0100   15.0200   15.0300
   15.0400   15.0500   15.0600   15.0700   15.0800   15.0900   15.1000   15.1100
   15.1200   15.1300   15.1400   15.1500   15.1600   15.1700   15.1800   15.1900
   15.2000   15.2100   15.2200   15.2300   15.2400   15.2500   15.2600   15.2700
   15.2800   15.2900   15.3000   15.3100   15.3200   15.3300   15.3400   15.3500
   15.3600   15.3700   15.3800   15.3900   15.4000   15.4100   15.4200   15.4300
   15.4400   15.4500   15.4600   15.4700   15.4800   15.4900   15.5000   15.5100
   15.5200   15.5300   15.5400   15.5500   15.5600   15.5700   15.5800   15.5900
   15.6000   15.6100   15.6200   15.6300   15.6400   15.6500   15.6600   15.6700
   15.6800   15.6900   15.7000   15.7100   15.7200   15.7300   15.7400   15.7500
   15.7600   15.7700   15.7800   15.7900   15.8000   15.8100   15.8200   15.8300
   15.8400   15.8500   15.8600   15.8700   15.8800   15.8900   15.9000   15.9100
   15.9200   15.9300   15.9400   15.9500   15.9600   15.9700   15.9800   15.9900
   16.0000   16.0100   16.0200   16.0300   16.0400   16.0500   16.0600   16.0700
   16.0800   16.0900   16.1000   16.1100   16.1200   16.1300   16.1400   16.1500
   16.1600   16.1700   16.1800   16.1900   16.2000   16.2100   16.2200   16.2300
   16.2400   16.2500   16.2600   16.2700   16.2800   16.2900   16.3000   16.3100
   16.3200   16.3300   16.3400   16.3500   16.3600   16.3700   16.3800   16.3900
   16.4000   16.4100   16.4200   16.4300   16.4400   16.4500   16.4600   16.4700
   16.4800   16.4900   16.5000   16.5100   16.5200   16.5300   16.5400   16.5500
   16.5600   16.5700   16.5800   16.5900   16.6000   16.6100   16.6200   16.6300
   16.6400   16.6500   16.6600   16.6700   16.6800   16.6900   16.7000   16.7100
   </PP_R>
   <PP_RAB type="real"  size="1672" columns="8">
    0.0100    0.0100    0.0100    0.0100    0.0100    0.0100    0.0100    0.0100
    0.0100    0.0100    0.0100    0.0100    0.0100    0.0100    0.0100    0.0100
    0.0100    0.0100    0.0100    0.0100    0.0100    0.0100    0.0100    0.0100
    0.0100    0.0100    0.0100    0.0100    0.0100    0.0100    0.0100    0.0100
    0.0100    0.0100    0.0100    0.0100    0.0100    0.0100    0.0100    0.0100
    0.0100    0.0100    0.0100    0.0100    0.0100    0.0100    0.0100    0.0100
    0.0100    0.0100    0.0100    0.0100    0.0100    0.0100    0.0100    0.0100
    0.0100    0.0100    0.0100    0.0100    0.0100    0.0100    0.0100    0.0100
    0.0100    0.0100    0.0100    0.0100    0.0100    0.0100    0.0100    0.0100
    0.0100    0.0100    0.0100    0.0100    0.0100    0.0100    0.0100    0.0100
    0.0100    0.0100    0.0100    0.0100    0.0100    0.0100    0.0100    0.0100
    0.0100    0.0100    0.0100    0.0100    0.0100    0.0100    0.0100    0.0100
    0.0100    0.0100    0.0100    0.0100    0.0100    0.0100    0.0100    0.0100
    0.0100    0.0100    0.0100    0.0100    0.0100    0.0100    0.0100    0.0100
    0.0100    0.0100    0.0100    0.0100    0.0100    0.0100    0.0100    0.0100
    0.0100    0.0100    0.0100    0.0100    0.0100    0.0100    0.0100    0.0100
    0.0100    0.0100    0.0100    0.0100    0.0100    0.0100    0.0100    0.0100
    0.0100    0.0100    0.0100    0.0100    0.0100    0.0100    0.0100    0.0100
    0.0100    0.0100    0.0100    0.0100    0.0100    0.0100    0.0100    0.0100
    0.0100    0.0100    0.0100    0.0100    0.0100    0.0100    0.0100    0.0100
    0.0100    0.0100    0.0100    0.0100    0.0100    0.0100    0.0100    0.0100
    0.0100    0.0100    0.0100    0.0100    0.0100    0.0100    0.0100    0.0100
    0.0100    0.0100    0.0100    0.0100    0.0100    0.0100    0.0100    0.0100
    0.0100    0.0100    0.0100    0.0100    0.0100    0.0100    0.0100    0.0100
    0.0100    0.0100    0.0100    0.0100    0.0100    0.0100    0.0100    0.0100
    0.0100    0.0100    0.0100    0.0100    0.0100    0.0100    0.0100    0.0100
    0.0100    0.0100    0.0100    0.0100    0.0100    0.0100    0.0100    0.0100
    0.0100    0.0100    0.0100    0.0100    0.0100    0.0100    0.0100    0.0100
    0.0100    0.0100    0.0100    0.0100    0.0100    0.0100    0.0100    0.0100
    0.0100    0.0100    0.0100    0.0100    0.0100    0.0100    0.0100    0.0100
    0.0100    0.0100    0.0100    0.0100    0.0100    0.0100    0.0100    0.0100
    0.0100    0.0100    0.0100    0.0100    0.0100    0.0100    0.0100    0.0100
    0.0100    0.0100    0.0100    0.0100    0.0100    0.0100    0.0100    0.0100
    0.0100    0.0100    0.0100    0.0100    0.0100    0.0100    0.0100    0.0100
    0.0100    0.0100    0.0100    0.0100    0.0100    0.0100    0.0100    0.0100
    0.0100    0.0100    0.0100    0.0100    0.0100    0.0100    0.0100    0.0100
    0.0100    0.0100    0.0100    0.0100    0.0100    0.0100    0.0100    0.0100
    0.0100    0.0100    0.0100    0.0100    0.0100    0.0100    0.0100    0.0100
    0.0100    0.0100    0.0100    0.0100    0.0100    0.0100    0.0100    0.0100
    0.0100    0.0100    0.0100    0.0100    0.0100    0.0100    0.0100    0.0100
    0.0100    0.0100    0.0100    0.0100    0.0100    0.0100    0.0100    0.0100
    0.0100    0.0100    0.0100    0.0100    0.0100    0.0100    0.0100    0.0100
    0.0100    0.0100    0.0100    0.0100    0.0100    0.0100    0.0100    0.0100
    0.0100    0.0100    0.0100    0.0100    0.0100    0.0100    0.0100    0.0100
    0.0100    0.0100    0.0100    0.0100    0.0100    0.0100    0.0100    0.0100
    0.0100    0.0100    0.0100    0.0100    0.0100    0.0100    0.0100    0.0100
    0.0100    0.0100    0.0100    0.0100    0.0100    0.0100    0.0100    0.0100
    0.0100    0.0100    0.0100    0.0100    0.0100    0.0100    0.0100    0.0100
    0.0100    0.0100    0.0100    0.0100    0.0100    0.0100    0.0100    0.0100
    0.0100    0.0100    0.0100    0.0100    0.0100    0.0100    0.0100    0.0100
    0.0100    0.0100    0.0100    0.0100    0.0100    0.0100    0.0100    0.0100
    0.0100    0.0100    0.0100    0.0100    0.0100    0.0100    0.0100    0.0100
    0.0100    0.0100    0.0100    0.0100    0.0100    0.0100    0.0100    0.0100
    0.0100    0.0100    0.0100    0.0100    0.0100    0.0100    0.0100    0.0100
    0.0100    0.0100    0.0100    0.0100    0.0100    0.0100    0.0100    0.0100
    0.0100    0.0100    0.0100    0.0100    0.0100    0.0100    0.0100    0.0100
    0.0100    0.0100    0.0100    0.0100    0.0100    0.0100    0.0100    0.0100
    0.0100    0.0100    0.0100    0.0100    0.0100    0.0100    0.0100    0.0100
    0.0100    0.0100    0.0100    0.0100    0.0100    0.0100    0.0100    0.0100
    0.0100    0.0100    0.0100    0.0100    0.0100    0.0100    0.0100    0.0100
    0.0100    0.0100    0.0100    0.0100    0.0100    0.0100    0.0100    0.0100
    0.0100    0.0100    0.0100    0.0100    0.0100    0.0100    0.0100    0.0100
    0.0100    0.0100    0.0100    0.0100    0.0100    0.0100    0.0100    0.0100
    0.0100    0.0100    0.0100    0.0100    0.0100    0.0100    0.0100    0.0100
    0.0100    0.0100    0.0100    0.0100    0.0100    0.0100    0.0100    0.0100
    0.0100    0.0100    0.0100    0.0100    0.0100    0.0100    0.0100    0.0100
    0.0100    0.0100    0.0100    0.0100    0.0100    0.0100    0.0100    0.0100
    0.0100    0.0100    0.0100    0.0100    0.0100    0.0100    0.0100    0.0100
    0.0100    0.0100    0.0100    0.0100    0.0100    0.0100    0.0100    0.0100
    0.0100    0.0100    0.0100    0.0100    0.0100    0.0100    0.0100    0.0100
    0.0100    0.0100    0.0100    0.0100    0.0100    0.0100    0.0100    0.0100
    0.0100    0.0100    0.0100    0.0100    0.0100    0.0100    0.0100    0.0100
    0.0100    0.0100    0.0100    0.0100    0.0100    0.0100    0.0100    0.0100
    0.0100    0.0100    0.0100    0.0100    0.0100    0.0100    0.0100    0.0100
    0.0100    0.0100    0.0100    0.0100    0.0100    0.0100    0.0100    0.0100
    0.0100    0.0100    0.0100    0.0100    0.0100    0.0100    0.0100    0.0100
    0.0100    0.0100    0.0100    0.0100    0.0100    0.0100    0.0100    0.0100
    0.0100    0.0100    0.0100    0.0100    0.0100    0.0100    0.0100    0.0100
    0.0100    0.0100    0.0100    0.0100    0.0100    0.0100    0.0100    0.0100
    0.0100    0.0100    0.0100    0.0100    0.0100    0.0100    0.0100    0.0100
    0.0100    0.0100    0.0100    0.0100    0.0100    0.0100    0.0100    0.0100
    0.0100    0.0100    0.0100    0.0100    0.0100    0.0100    0.0100    0.0100
    0.0100    0.0100    0.0100    0.0100    0.0100    0.0100    0.0100    0.0100
    0.0100    0.0100    0.0100    0.0100    0.0100    0.0100    0.0100    0.0100
    0.0100    0.0100    0.0100    0.0100    0.0100    0.0100    0.0100    0.0100
    0.0100    0.0100    0.0100    0.0100    0.0100    0.0100    0.0100    0.0100
    0.0100    0.0100    0.0100    0.0100    0.0100    0.0100    0.0100    0.0100
    0.0100    0.0100    0.0100    0.0100    0.0100    0.0100    0.0100    0.0100
    0.0100    0.0100    0.0100    0.0100    0.0100    0.0100    0.0100    0.0100
    0.0100    0.0100    0.0100    0.0100    0.0100    0.0100    0.0100    0.0100
    0.0100    0.0100    0.0100    0.0100    0.0100    0.0100    0.0100    0.0100
    0.0100    0.0100    0.0100    0.0100    0.0100    0.0100    0.0100    0.0100
    0.0100    0.0100    0.0100    0.0100    0.0100    0.0100    0.0100    0.0100
    0.0100    0.0100    0.0100    0.0100    0.0100    0.0100    0.0100    0.0100
    0.0100    0.0100    0.0100    0.0100    0.0100    0.0100    0.0100    0.0100
    0.0100    0.0100    0.0100    0.0100    0.0100    0.0100    0.0100    0.0100
    0.0100    0.0100    0.0100    0.0100    0.0100    0.0100    0.0100    0.0100
    0.0100    0.0100    0.0100    0.0100    0.0100    0.0100    0.0100    0.0100
    0.0100    0.0100    0.0100    0.0100    0.0100    0.0100    0.0100    0.0100
    0.0100    0.0100    0.0100    0.0100    0.0100    0.0100    0.0100    0.0100
    0.0100    0.0100    0.0100    0.0100    0.0100    0.0100    0.0100    0.0100
    0.0100    0.0100    0.0100    0.0100    0.0100    0.0100    0.0100    0.0100
    0.0100    0.0100    0.0100    0.0100    0.0100    0.0100    0.0100    0.0100
    0.0100    0.0100    0.0100    0.0100    0.0100    0.0100    0.0100    0.0100
    0.0100    0.0100    0.0100    0.0100    0.0100    0.0100    0.0100    0.0100
    0.0100    0.0100    0.0100    0.0100    0.0100    0.0100    0.0100    0.0100
    0.0100    0.0100    0.0100    0.0100    0.0100    0.0100    0.0100    0.0100
    0.0100    0.0100    0.0100    0.0100    0.0100    0.0100    0.0100    0.0100
    0.0100    0.0100    0.0100    0.0100    0.0100    0.0100    0.0100    0.0100
    0.0100    0.0100    0.0100    0.0100    0.0100    0.0100    0.0100    0.0100
    0.0100    0.0100    0.0100    0.0100    0.0100    0.0100    0.0100    0.0100
    0.0100    0.0100    0.0100    0.0100    0.0100    0.0100    0.0100    0.0100
    0.0100    0.0100    0.0100    0.0100    0.0100    0.0100    0.0100    0.0100
    0.0100    0.0100    0.0100    0.0100    0.0100    0.0100    0.0100    0.0100
    0.0100    0.0100    0.0100    0.0100    0.0100    0.0100    0.0100    0.0100
    0.0100    0.0100    0.0100    0.0100    0.0100    0.0100    0.0100    0.0100
    0.0100    0.0100    0.0100    0.0100    0.0100    0.0100    0.0100    0.0100
    0.0100    0.0100    0.0100    0.0100    0.0100    0.0100    0.0100    0.0100
    0.0100    0.0100    0.0100    0.0100    0.0100    0.0100    0.0100    0.0100
    0.0100    0.0100    0.0100    0.0100    0.0100    0.0100    0.0100    0.0100
    0.0100    0.0100    0.0100    0.0100    0.0100    0.0100    0.0100    0.0100
    0.0100    0.0100    0.0100    0.0100    0.0100    0.0100    0.0100    0.0100
    0.0100    0.0100    0.0100    0.0100    0.0100    0.0100    0.0100    0.0100
    0.0100    0.0100    0.0100    0.0100    0.0100    0.0100    0.0100    0.0100
    0.0100    0.0100    0.0100    0.0100    0.0100    0.0100    0.0100    0.0100
    0.0100    0.0100    0.0100    0.0100    0.0100    0.0100    0.0100    0.0100
    0.0100    0.0100    0.0100    0.0100    0.0100    0.0100    0.0100    0.0100
    0.0100    0.0100    0.0100    0.0100    0.0100    0.0100    0.0100    0.0100
    0.0100    0.0100    0.0100    0.0100    0.0100    0.0100    0.0100    0.0100
    0.0100    0.0100    0.0100    0.0100    0.0100    0.0100    0.0100    0.0100
    0.0100    0.0100    0.0100    0.0100    0.0100    0.0100    0.0100    0.0100
    0.0100    0.0100    0.0100    0.0100    0.0100    0.0100    0.0100    0.0100
    0.0100    0.0100    0.0100    0.0100    0.0100    0.0100    0.0100    0.0100
    0.0100    0.0100    0.0100    0.0100    0.0100    0.0100    0.0100    0.0100
    0.0100    0.0100    0.0100    0.0100    0.0100    0.0100    0.0100    0.0100
    0.0100    0.0100    0.0100    0.0100    0.0100    0.0100    0.0100    0.0100
    0.0100    0.0100    0.0100    0.0100    0.0100    0.0100    0.0100    0.0100
    0.0100    0.0100    0.0100    0.0100    0.0100    0.0100    0.0100    0.0100
    0.0100    0.0100    0.0100    0.0100    0.0100    0.0100    0.0100    0.0100
    0.0100    0.0100    0.0100    0.0100    0.0100    0.0100    0.0100    0.0100
    0.0100    0.0100    0.0100    0.0100    0.0100    0.0100    0.0100    0.0100
    0.0100    0.0100    0.0100    0.0100    0.0100    0.0100    0.0100    0.0100
    0.0100    0.0100    0.0100    0.0100    0.0100    0.0100    0.0100    0.0100
    0.0100    0.0100    0.0100    0.0100    0.0100    0.0100    0.0100    0.0100
    0.0100    0.0100    0.0100    0.0100    0.0100    0.0100    0.0100    0.0100
    0.0100    0.0100    0.0100    0.0100    0.0100    0.0100    0.0100    0.0100
    0.0100    0.0100    0.0100    0.0100    0.0100    0.0100    0.0100    0.0100
    0.0100    0.0100    0.0100    0.0100    0.0100    0.0100    0.0100    0.0100
    0.0100    0.0100    0.0100    0.0100    0.0100    0.0100    0.0100    0.0100
    0.0100    0.0100    0.0100    0.0100    0.0100    0.0100    0.0100    0.0100
    0.0100    0.0100    0.0100    0.0100    0.0100    0.0100    0.0100    0.0100
    0.0100    0.0100    0.0100    0.0100    0.0100    0.0100    0.0100    0.0100
    0.0100    0.0100    0.0100    0.0100    0.0100    0.0100    0.0100    0.0100
    0.0100    0.0100    0.0100    0.0100    0.0100    0.0100    0.0100    0.0100
    0.0100    0.0100    0.0100    0.0100    0.0100    0.0100    0.0100    0.0100
    0.0100    0.0100    0.0100    0.0100    0.0100    0.0100    0.0100    0.0100
    0.0100    0.0100    0.0100    0.0100    0.0100    0.0100    0.0100    0.0100
    0.0100    0.0100    0.0100    0.0100    0.0100    0.0100    0.0100    0.0100
    0.0100    0.0100    0.0100    0.0100    0.0100    0.0100    0.0100    0.0100
    0.0100    0.0100    0.0100    0.0100    0.0100    0.0100    0.0100    0.0100
    0.0100    0.0100    0.0100    0.0100    0.0100    0.0100    0.0100    0.0100
    0.0100    0.0100    0.0100    0.0100    0.0100    0.0100    0.0100    0.0100
    0.0100    0.0100    0.0100    0.0100    0.0100    0.0100    0.0100    0.0100
    0.0100    0.0100    0.0100    0.0100    0.0100    0.0100    0.0100    0.0100
    0.0100    0.0100    0.0100    0.0100    0.0100    0.0100    0.0100    0.0100
    0.0100    0.0100    0.0100    0.0100    0.0100    0.0100    0.0100    0.0100
    0.0100    0.0100    0.0100    0.0100    0.0100    0.0100    0.0100    0.0100
    0.0100    0.0100    0.0100    0.0100    0.0100    0.0100    0.0100    0.0100
    0.0100    0.0100    0.0100    0.0100    0.0100    0.0100    0.0100    0.0100
    0.0100    0.0100    0.0100    0.0100    0.0100    0.0100    0.0100    0.0100
    0.0100    0.0100    0.0100    0.0100    0.0100    0.0100    0.0100    0.0100
    0.0100    0.0100    0.0100    0.0100    0.0100    0.0100    0.0100    0.0100
    0.0100    0.0100    0.0100    0.0100    0.0100    0.0100    0.0100    0.0100
    0.0100    0.0100    0.0100    0.0100    0.0100    0.0100    0.0100    0.0100
    0.0100    0.0100    0.0100    0.0100    0.0100    0.0100    0.0100    0.0100
    0.0100    0.0100    0.0100    0.0100    0.0100    0.0100    0.0100    0.0100
    0.0100    0.0100    0.0100    0.0100    0.0100    0.0100    0.0100    0.0100
    0.0100    0.0100    0.0100    0.0100    0.0100    0.0100    0.0100    0.0100
    0.0100    0.0100    0.0100    0.0100    0.0100    0.0100    0.0100    0.0100
    0.0100    0.0100    0.0100    0.0100    0.0100    0.0100    0.0100    0.0100
    0.0100    0.0100    0.0100    0.0100    0.0100    0.0100    0.0100    0.0100
    0.0100    0.0100    0.0100    0.0100    0.0100    0.0100    0.0100    0.0100
    0.0100    0.0100    0.0100    0.0100    0.0100    0.0100    0.0100    0.0100
    0.0100    0.0100    0.0100    0.0100    0.0100    0.0100    0.0100    0.0100
    0.0100    0.0100    0.0100    0.0100    0.0100    0.0100    0.0100    0.0100
    0.0100    0.0100    0.0100    0.0100    0.0100    0.0100    0.0100    0.0100
    0.0100    0.0100    0.0100    0.0100    0.0100    0.0100    0.0100    0.0100
    0.0100    0.0100    0.0100    0.0100    0.0100    0.0100    0.0100    0.0100
    0.0100    0.0100    0.0100    0.0100    0.0100    0.0100    0.0100    0.0100
    0.0100    0.0100    0.0100    0.0100    0.0100    0.0100    0.0100    0.0100
    0.0100    0.0100    0.0100    0.0100    0.0100    0.0100    0.0100    0.0100
    0.0100    0.0100    0.0100    0.0100    0.0100    0.0100    0.0100    0.0100
    0.0100    0.0100    0.0100    0.0100    0.0100    0.0100    0.0100    0.0100
    0.0100    0.0100    0.0100    0.0100    0.0100    0.0100    0.0100    0.0100
    0.0100    0.0100    0.0100    0.0100    0.0100    0.0100    0.0100    0.0100
    0.0100    0.0100    0.0100    0.0100    0.0100    0.0100    0.0100    0.0100
    0.0100    0.0100    0.0100    0.0100    0.0100    0.0100    0.0100    0.0100
    0.0100    0.0100    0.0100    0.0100    0.0100    0.0100    0.0100    0.0100
    0.0100    0.0100    0.0100    0.0100    0.0100    0.0100    0.0100    0.0100
    0.0100    0.0100    0.0100    0.0100    0.0100    0.0100    0.0100    0.0100
    0.0100    0.0100    0.0100    0.0100    0.0100    0.0100    0.0100    0.0100
    0.0100    0.0100    0.0100    0.0100    0.0100    0.0100    0.0100    0.0100
    0.0100    0.0100    0.0100    0.0100    0.0100    0.0100    0.0100    0.0100
    0.0100    0.0100    0.0100    0.0100    0.0100    0.0100    0.0100    0.0100
    0.0100    0.0100    0.0100    0.0100    0.0100    0.0100    0.0100    0.0100
    0.0100    0.0100    0.0100    0.0100    0.0100    0.0100    0.0100    0.0100
    0.0100    0.0100    0.0100    0.0100    0.0100    0.0100    0.0100    0.0100
    0.0100    0.0100    0.0100    0.0100    0.0100    0.0100    0.0100    0.0100
    0.0100    0.0100    0.0100    0.0100    0.0100    0.0100    0.0100    0.0100
   </PP_RAB>
 </PP_MESH>
  <PP_LOCAL type="real"  size="1672" columns="4">
   -2.7975780248E+01   -2.7992019841E+01   -2.7990487510E+01   -2.7987933853E+01
   -2.7984359211E+01   -2.7979764060E+01   -2.7974149005E+01   -2.7967514783E+01
   -2.7959862254E+01   -2.7951192397E+01   -2.7941506311E+01   -2.7930805200E+01
   -2.7919090374E+01   -2.7906363240E+01   -2.7892625297E+01   -2.7877878122E+01
   -2.7862123371E+01   -2.7845362764E+01   -2.7827598079E+01   -2.7808831143E+01
   -2.7789063821E+01   -2.7768298010E+01   -2.7746535628E+01   -2.7723778602E+01
   -2.7700028864E+01   -2.7675288336E+01   -2.7649558925E+01   -2.7622842510E+01
   -2.7595140937E+01   -2.7566456008E+01   -2.7536789475E+01   -2.7506143029E+01
   -2.7474518295E+01   -2.7441916826E+01   -2.7408340094E+01   -2.7373789487E+01
   -2.7338266304E+01   -2.7301771750E+01   -2.7264306934E+01   -2.7225872866E+01
   -2.7186470454E+01   -2.7146100508E+01   -2.7104763735E+01   -2.7062460744E+01
   -2.7019192049E+01   -2.6974958069E+01   -2.6929759137E+01   -2.6883595503E+01
   -2.6836467340E+01   -2.6788374754E+01   -2.6739317793E+01   -2.6689296455E+01
   -2.6638310701E+01   -2.6586360464E+01   -2.6533445666E+01   -2.6479566228E+01
   -2.6424722089E+01   -2.6368913217E+01   -2.6312139627E+01   -2.6254401399E+01
   -2.6195698695E+01   -2.6136031777E+01   -2.6075401024E+01   -2.6013806955E+01
   -2.5951250244E+01   -2.5887731741E+01   -2.5823252493E+01   -2.5757813760E+01
   -2.5691417040E+01   -2.5624064082E+01   -2.5555756912E+01   -2.5486497843E+01
   -2.5416289503E+01   -2.5345134847E+01   -2.5273037175E+01   -2.5200000150E+01
   -2.5126027814E+01   -2.5051124602E+01   -2.4975295358E+01   -2.4898545349E+01
   -2.4820880277E+01   -2.4742306291E+01   -2.4662829998E+01   -2.4582458475E+01
   -2.4501199276E+01   -2.4419060444E+01   -2.4336050513E+01   -2.4252178522E+01
   -2.4167454014E+01   -2.4081887045E+01   -2.3995488188E+01   -2.3908268532E+01
   -2.3820239692E+01   -2.3731413805E+01   -2.3641803532E+01   -2.3551422059E+01
   -2.3460283097E+01   -2.3368400881E+01   -2.3275790164E+01   -2.3182466223E+01
   -2.3088444846E+01   -2.2993742335E+01   -2.2898375500E+01   -2.2802361651E+01
   -2.2705718598E+01   -2.2608464640E+01   -2.2510618559E+01   -2.2412199614E+01
   -2.2313227533E+01   -2.2213722502E+01   -2.2113705158E+01   -2.2013196578E+01
   -2.1912218270E+01   -2.1810792158E+01   -2.1708940574E+01   -2.1606686244E+01
   -2.1504052273E+01   -2.1401062135E+01   -2.1297739654E+01   -2.1194108991E+01
   -2.1090194627E+01   -2.0986021345E+01   -2.0881614214E+01   -2.0776998570E+01
   -2.0672199996E+01   -2.0567244300E+01   -2.0462157500E+01   -2.0356965794E+01
   -2.0251695544E+01   -2.0146373249E+01   -2.0041025525E+01   -1.9935679073E+01
   -1.9830360662E+01   -1.9725097097E+01   -1.9619915194E+01   -1.9514841752E+01
   -1.9409903526E+01   -1.9305127199E+01   -1.9200539351E+01   -1.9096166430E+01
   -1.8992034726E+01   -1.8888170336E+01   -1.8784599135E+01   -1.8681346747E+01
   -1.8578438515E+01   -1.8475899467E+01   -1.8373754290E+01   -1.8272027293E+01
   -1.8170742384E+01   -1.8069923034E+01   -1.7969592249E+01   -1.7869772538E+01
   -1.7770485886E+01   -1.7671753725E+01   -1.7573596901E+01   -1.7476035649E+01
   -1.7379089564E+01   -1.7282777570E+01   -1.7187117899E+01   -1.7092128059E+01
   -1.6997824808E+01   -1.6904224134E+01   -1.6811341220E+01   -1.6719190428E+01
   -1.6627785273E+01   -1.6537138395E+01   -1.6447261545E+01   -1.6358165554E+01
   -1.6269860318E+01   -1.6182354775E+01   -1.6095656888E+01   -1.6009773622E+01
   -1.5924710930E+01   -1.5840473736E+01   -1.5757065919E+01   -1.5674490296E+01
   -1.5592748615E+01   -1.5511841536E+01   -1.5431768627E+01   -1.5352528350E+01
   -1.5274118057E+01   -1.5196533983E+01   -1.5119771242E+01   -1.5043823825E+01
   -1.4968684601E+01   -1.4894345313E+01   -1.4820796589E+01   -1.4748027937E+01
   -1.4676027763E+01   -1.4604783366E+01   -1.4534280968E+01   -1.4464505676E+01
   -1.4395441854E+01   -1.4327073772E+01   -1.4259385965E+01   -1.4192363210E+01
   -1.4125990545E+01   -1.4060253279E+01   -1.3995137012E+01   -1.3930627642E+01
   -1.3866711380E+01   -1.3803374761E+01   -1.3740604658E+01   -1.3678388285E+01
   -1.3616713211E+01   -1.3555567360E+01   -1.3494939021E+01   -1.3434816848E+01
   -1.3375189860E+01   -1.3316047440E+01   -1.3257379332E+01   -1.3199175636E+01
   -1.3141426802E+01   -1.3084123622E+01   -1.3027257221E+01   -1.2970819049E+01
   -1.2914800867E+01   -1.2859194743E+01   -1.2803993036E+01   -1.2749188390E+01
   -1.2694773723E+01   -1.2640742220E+01   -1.2587087323E+01   -1.2533802729E+01
   -1.2480882384E+01   -1.2428320478E+01   -1.2376111444E+01   -1.2324249957E+01
   -1.2272730938E+01   -1.2221549548E+01   -1.2170701198E+01   -1.2120181547E+01
   -1.2069986505E+01   -1.2020112239E+01   -1.1970555170E+01   -1.1921311981E+01
   -1.1872379610E+01   -1.1823755257E+01   -1.1775436373E+01   -1.1727420665E+01
   -1.1679706082E+01   -1.1632290812E+01   -1.1585173269E+01   -1.1538352083E+01
   -1.1491826086E+01   -1.1445594295E+01   -1.1399655897E+01   -1.1354010230E+01
   -1.1308656764E+01   -1.1263595082E+01   -1.1218824858E+01   -1.1174345838E+01
   -1.1130157821E+01   -1.1086260638E+01   -1.1042654133E+01   -1.0999338146E+01
   -1.0956312499E+01   -1.0913576976E+01   -1.0871131312E+01   -1.0828975182E+01
   -1.0787108189E+01   -1.0745529856E+01   -1.0704239620E+01   -1.0663236823E+01
   -1.0622520714E+01   -1.0582090442E+01   -1.0541945059E+01   -1.0502083515E+01
   -1.0462504667E+01   -1.0423207275E+01   -1.0384190011E+01   -1.0345451459E+01
   -1.0306990123E+01   -1.0268804429E+01   -1.0230892737E+01   -1.0193253340E+01
   -1.0155884475E+01   -1.0118784327E+01   -1.0081951036E+01   -1.0045382705E+01
   -1.0009077400E+01   -9.9730331643E+00   -9.9372480145E+00   -9.9017199520E+00
   -9.8664469645E+00   -9.8314270305E+00   -9.7966581227E+00   -9.7621382113E+00
   -9.7278652653E+00   -9.6938372571E+00   -9.6600521620E+00   -9.6265079627E+00
   -9.5932026431E+00   -9.5601341576E+00   -9.5273004783E+00   -9.4946996090E+00
   -9.4623297907E+00   -9.4301896265E+00   -9.3982779637E+00   -9.3665937369E+00
   -9.3351355391E+00   -9.3039016038E+00   -9.2728899476E+00   -9.2420985066E+00
   -9.2115253718E+00   -9.1811686554E+00   -9.1510264119E+00   -9.1210968131E+00
   -9.0913779906E+00   -9.0618679998E+00   -9.0325642018E+00   -9.0034617076E+00
   -8.9745542074E+00   -8.9458348744E+00   -8.9172978502E+00   -8.8889405764E+00
   -8.8607619281E+00   -8.8327611140E+00   -8.8049372984E+00   -8.7772889232E+00
   -8.7498144428E+00   -8.7225125881E+00   -8.6953820400E+00   -8.6684214333E+00
   -8.6416294119E+00   -8.6150046209E+00   -8.5885457004E+00   -8.5622512859E+00
   -8.5361200087E+00   -8.5101504953E+00   -8.4843413673E+00   -8.4586912417E+00
   -8.4331987308E+00   -8.4078624428E+00   -8.3826809821E+00   -8.3576529497E+00
   -8.3327769441E+00   -8.3080515616E+00   -8.2834753978E+00   -8.2590470475E+00
   -8.2347651067E+00   -8.2106281728E+00   -8.1866348460E+00   -8.1627837303E+00
   -8.1390734347E+00   -8.1155025743E+00   -8.0920697712E+00   -8.0687736562E+00
   -8.0456128696E+00   -8.0225860621E+00   -7.9996918966E+00   -7.9769290487E+00
   -7.9542962080E+00   -7.9317920791E+00   -7.9094153827E+00   -7.8871648562E+00
   -7.8650392549E+00   -7.8430373526E+00   -7.8211579427E+00   -7.7993998382E+00
   -7.7777618731E+00   -7.7562429021E+00   -7.7348418020E+00   -7.7135574711E+00
   -7.6923888302E+00   -7.6713348225E+00   -7.6503944138E+00   -7.6295665926E+00
   -7.6088503698E+00   -7.5882447792E+00   -7.5677488765E+00   -7.5473617399E+00
   -7.5270824690E+00   -7.5069101850E+00   -7.4868440299E+00   -7.4668831660E+00
   -7.4470267756E+00   -7.4272740599E+00   -7.4076242387E+00   -7.3880765496E+00
   -7.3686302471E+00   -7.3492846017E+00   -7.3300388995E+00   -7.3108924409E+00
   -7.2918445399E+00   -7.2728945231E+00   -7.2540417289E+00   -7.2352855065E+00
   -7.2166252152E+00   -7.1980602233E+00   -7.1795899069E+00   -7.1612136499E+00
   -7.1429308421E+00   -7.1247408793E+00   -7.1066431618E+00   -7.0886370940E+00
   -7.0707220837E+00   -7.0528975411E+00   -7.0351628786E+00   -7.0175175099E+00
   -6.9999608495E+00   -6.9824923124E+00   -6.9651113134E+00   -6.9478172671E+00
   -6.9306095872E+00   -6.9134876863E+00   -6.8964509759E+00   -6.8794988664E+00
   -6.8626307664E+00   -6.8458460833E+00   -6.8291442229E+00   -6.8125245897E+00
   -6.7959865870E+00   -6.7795296170E+00   -6.7631530811E+00   -6.7468563799E+00
   -6.7306389139E+00   -6.7145000835E+00   -6.6984392896E+00   -6.6824559336E+00
   -6.6665494184E+00   -6.6507191481E+00   -6.6349645290E+00   -6.6192849699E+00
   -6.6036798825E+00   -6.5881486816E+00   -6.5726907861E+00   -6.5573056190E+00
   -6.5419926081E+00   -6.5267511861E+00   -6.5115807915E+00   -6.4964808685E+00
   -6.4814508677E+00   -6.4664902461E+00   -6.4515984678E+00   -6.4367750042E+00
   -6.4220193340E+00   -6.4073309437E+00   -6.3927093276E+00   -6.3781539883E+00
   -6.3636644362E+00   -6.3492401905E+00   -6.3348807781E+00   -6.3205857345E+00
   -6.3063546033E+00   -6.2921869385E+00   -6.2780823005E+00   -6.2640402564E+00
   -6.2500603801E+00   -6.2361422897E+00   -6.2222855067E+00   -6.2084895777E+00
   -6.1947541008E+00   -6.1810791552E+00   -6.1674646652E+00   -6.1539099034E+00
   -6.1404134766E+00   -6.1269740902E+00   -6.1135907238E+00   -6.1002628445E+00
   -6.0869901722E+00   -6.0737745652E+00   -6.0606177752E+00   -6.0475210709E+00
   -6.0344838718E+00   -6.0215053210E+00   -6.0085841676E+00   -5.9957190507E+00
   -5.9829085030E+00   -5.9701519922E+00   -5.9574493932E+00   -5.9448008325E+00
   -5.9322059028E+00   -5.9196642576E+00   -5.9071755134E+00   -5.8947393666E+00
   -5.8823554761E+00   -5.8700235022E+00   -5.8577431230E+00   -5.8455140177E+00
   -5.8333358677E+00   -5.8212083540E+00   -5.8091311613E+00   -5.7971039770E+00
   -5.7851264912E+00   -5.7731983966E+00   -5.7613193882E+00   -5.7494891638E+00
   -5.7377074234E+00   -5.7259738696E+00   -5.7142882074E+00   -5.7026501443E+00
   -5.6910593899E+00   -5.6795156564E+00   -5.6680186584E+00   -5.6565681125E+00
   -5.6451637378E+00   -5.6338052556E+00   -5.6224923896E+00   -5.6112248653E+00
   -5.6000024109E+00   -5.5888247565E+00   -5.5776916342E+00   -5.5666027786E+00
   -5.5555579262E+00   -5.5445568155E+00   -5.5335991873E+00   -5.5226847842E+00
   -5.5118133510E+00   -5.5009846344E+00   -5.4901983832E+00   -5.4794543481E+00
   -5.4687522817E+00   -5.4580919387E+00   -5.4474730754E+00   -5.4368954502E+00
   -5.4263588235E+00   -5.4158629573E+00   -5.4054076156E+00   -5.3949925640E+00
   -5.3846175703E+00   -5.3742824037E+00   -5.3639868353E+00   -5.3537306380E+00
   -5.3435135865E+00   -5.3333354569E+00   -5.3231960274E+00   -5.3130950776E+00
   -5.3030323889E+00   -5.2930077444E+00   -5.2830209286E+00   -5.2730717279E+00
   -5.2631599301E+00   -5.2532853248E+00   -5.2434477029E+00   -5.2336468572E+00
   -5.2238825818E+00   -5.2141546723E+00   -5.2044629260E+00   -5.1948071416E+00
   -5.1851871194E+00   -5.1756026610E+00   -5.1660535696E+00   -5.1565396497E+00
   -5.1470607075E+00   -5.1376165504E+00   -5.1282069872E+00   -5.1188318282E+00
   -5.1094908852E+00   -5.1001839711E+00   -5.0909109003E+00   -5.0816714885E+00
   -5.0724655529E+00   -5.0632929118E+00   -5.0541533849E+00   -5.0450467932E+00
   -5.0359729591E+00   -5.0269317060E+00   -5.0179228589E+00   -5.0089462438E+00
   -5.0000016881E+00   -4.9910890202E+00   -4.9822080701E+00   -4.9733586686E+00
   -4.9645406480E+00   -4.9557538416E+00   -4.9469980840E+00   -4.9382732110E+00
   -4.9295790593E+00   -4.9209154671E+00   -4.9122822735E+00   -4.9036793187E+00
   -4.8951064442E+00   -4.8865634925E+00   -4.8780503072E+00   -4.8695667331E+00
   -4.8611126158E+00   -4.8526878022E+00   -4.8442921402E+00   -4.8359254789E+00
   -4.8275876681E+00   -4.8192785589E+00   -4.8109980034E+00   -4.8027458547E+00
   -4.7945219668E+00   -4.7863261947E+00   -4.7781583946E+00   -4.7700184235E+00
   -4.7619061394E+00   -4.7538214013E+00   -4.7457640691E+00   -4.7377340038E+00
   -4.7297310670E+00   -4.7217551217E+00   -4.7138060314E+00   -4.7058836608E+00
   -4.6979878754E+00   -4.6901185416E+00   -4.6822755266E+00   -4.6744586988E+00
   -4.6666679270E+00   -4.6589030813E+00   -4.6511640325E+00   -4.6434506523E+00
   -4.6357628130E+00   -4.6281003882E+00   -4.6204632519E+00   -4.6128512792E+00
   -4.6052643460E+00   -4.5977023288E+00   -4.5901651052E+00   -4.5826525534E+00
   -4.5751645524E+00   -4.5677009822E+00   -4.5602617233E+00   -4.5528466572E+00
   -4.5454556661E+00   -4.5380886328E+00   -4.5307454410E+00   -4.5234259754E+00
   -4.5161301209E+00   -4.5088577636E+00   -4.5016087902E+00   -4.4943830880E+00
   -4.4871805451E+00   -4.4800010504E+00   -4.4728444935E+00   -4.4657107645E+00
   -4.4585997545E+00   -4.4515113550E+00   -4.4444454585E+00   -4.4374019579E+00
   -4.4303807468E+00   -4.4233817198E+00   -4.4164047718E+00   -4.4094497984E+00
   -4.4025166961E+00   -4.3956053618E+00   -4.3887156932E+00   -4.3818475886E+00
   -4.3750009468E+00   -4.3681756675E+00   -4.3613716507E+00   -4.3545887974E+00
   -4.3478270089E+00   -4.3410861872E+00   -4.3343662350E+00   -4.3276670555E+00
   -4.3209885525E+00   -4.3143306305E+00   -4.3076931944E+00   -4.3010761499E+00
   -4.2944794032E+00   -4.2879028609E+00   -4.2813464304E+00   -4.2748100196E+00
   -4.2682935370E+00   -4.2617968914E+00   -4.2553199926E+00   -4.2488627506E+00
   -4.2424250760E+00   -4.2360068800E+00   -4.2296080745E+00   -4.2232285715E+00
   -4.2168682840E+00   -4.2105271252E+00   -4.2042050090E+00   -4.1979018497E+00
   -4.1916175621E+00   -4.1853520618E+00   -4.1791052644E+00   -4.1728770865E+00
   -4.1666674449E+00   -4.1604762569E+00   -4.1543034405E+00   -4.1481489139E+00
   -4.1420125961E+00   -4.1358944062E+00   -4.1297942642E+00   -4.1237120902E+00
   -4.1176478050E+00   -4.1116013298E+00   -4.1055725862E+00   -4.0995614964E+00
   -4.0935679829E+00   -4.0875919688E+00   -4.0816333775E+00   -4.0756921329E+00
   -4.0697681595E+00   -4.0638613819E+00   -4.0579717255E+00   -4.0520991159E+00
   -4.0462434792E+00   -4.0404047419E+00   -4.0345828309E+00   -4.0287776738E+00
   -4.0229891981E+00   -4.0172173322E+00   -4.0114620046E+00   -4.0057231443E+00
   -4.0000006809E+00   -3.9942945440E+00   -3.9886046640E+00   -3.9829309715E+00
   -3.9772733974E+00   -3.9716318732E+00   -3.9660063307E+00   -3.9603967021E+00
   -3.9548029199E+00   -3.9492249171E+00   -3.9436626271E+00   -3.9381159834E+00
   -3.9325849203E+00   -3.9270693720E+00   -3.9215692736E+00   -3.9160845600E+00
   -3.9106151669E+00   -3.9051610302E+00   -3.8997220861E+00   -3.8942982712E+00
   -3.8888895224E+00   -3.8834957772E+00   -3.8781169731E+00   -3.8727530482E+00
   -3.8674039408E+00   -3.8620695895E+00   -3.8567499335E+00   -3.8514449121E+00
   -3.8461544649E+00   -3.8408785319E+00   -3.8356170537E+00   -3.8303699707E+00
   -3.8251372240E+00   -3.8199187550E+00   -3.8147145053E+00   -3.8095244168E+00
   -3.8043484319E+00   -3.7991864930E+00   -3.7940385432E+00   -3.7889045256E+00
   -3.7837843837E+00   -3.7786780615E+00   -3.7735855029E+00   -3.7685066524E+00
   -3.7634414548E+00   -3.7583898550E+00   -3.7533517984E+00   -3.7483272306E+00
   -3.7433160975E+00   -3.7383183453E+00   -3.7333339204E+00   -3.7283627697E+00
   -3.7234048401E+00   -3.7184600790E+00   -3.7135284340E+00   -3.7086098530E+00
   -3.7037042841E+00   -3.6988116757E+00   -3.6939319767E+00   -3.6890651359E+00
   -3.6842111025E+00   -3.6793698262E+00   -3.6745412567E+00   -3.6697253439E+00
   -3.6649220383E+00   -3.6601312904E+00   -3.6553530509E+00   -3.6505872710E+00
   -3.6458339021E+00   -3.6410928955E+00   -3.6363642034E+00   -3.6316477776E+00
   -3.6269435705E+00   -3.6222515347E+00   -3.6175716231E+00   -3.6129037887E+00
   -3.6082479848E+00   -3.6036041649E+00   -3.5989722829E+00   -3.5943522928E+00
   -3.5897441488E+00   -3.5851478054E+00   -3.5805632174E+00   -3.5759903397E+00
   -3.5714291275E+00   -3.5668795363E+00   -3.5623415216E+00   -3.5578150394E+00
   -3.5533000457E+00   -3.5487964969E+00   -3.5443043494E+00   -3.5398235602E+00
   -3.5353540860E+00   -3.5308958842E+00   -3.5264489121E+00   -3.5220131274E+00
   -3.5175884878E+00   -3.5131749515E+00   -3.5087724767E+00   -3.5043810218E+00
   -3.5000005456E+00   -3.4956310069E+00   -3.4912723649E+00   -3.4869245787E+00
   -3.4825876079E+00   -3.4782614122E+00   -3.4739459515E+00   -3.4696411858E+00
   -3.4653470755E+00   -3.4610635811E+00   -3.4567906632E+00   -3.4525282827E+00
   -3.4482764006E+00   -3.4440349783E+00   -3.4398039772E+00   -3.4355833590E+00
   -3.4313730853E+00   -3.4271731184E+00   -3.4229834203E+00   -3.4188039534E+00
   -3.4146346804E+00   -3.4104755639E+00   -3.4063265670E+00   -3.4021876527E+00
   -3.3980587843E+00   -3.3939399252E+00   -3.3898310392E+00   -3.3857320900E+00
   -3.3816430417E+00   -3.3775638584E+00   -3.3734945044E+00   -3.3694349443E+00
   -3.3653851428E+00   -3.3613450646E+00   -3.3573146749E+00   -3.3532939389E+00
   -3.3492828218E+00   -3.3452812892E+00   -3.3412893068E+00   -3.3373068405E+00
   -3.3333338562E+00   -3.3293703202E+00   -3.3254161987E+00   -3.3214714583E+00
   -3.3175360656E+00   -3.3136099875E+00   -3.3096931908E+00   -3.3057856428E+00
   -3.3018873107E+00   -3.2979981620E+00   -3.2941181642E+00   -3.2902472851E+00
   -3.2863854925E+00   -3.2825327545E+00   -3.2786890394E+00   -3.2748543153E+00
   -3.2710285510E+00   -3.2672117149E+00   -3.2634037758E+00   -3.2596047027E+00
   -3.2558144647E+00   -3.2520330309E+00   -3.2482603707E+00   -3.2444964537E+00
   -3.2407412495E+00   -3.2369947278E+00   -3.2332568585E+00   -3.2295276118E+00
   -3.2258069578E+00   -3.2220948669E+00   -3.2183913096E+00   -3.2146962563E+00
   -3.2110096780E+00   -3.2073315454E+00   -3.2036618296E+00   -3.2000005017E+00
   -3.1963475330E+00   -3.1927028950E+00   -3.1890665590E+00   -3.1854384968E+00
   -3.1818186803E+00   -3.1782070812E+00   -3.1746036717E+00   -3.1710084239E+00
   -3.1674213102E+00   -3.1638423030E+00   -3.1602713747E+00   -3.1567084982E+00
   -3.1531536462E+00   -3.1496067915E+00   -3.1460679074E+00   -3.1425369668E+00
   -3.1390139431E+00   -3.1354988098E+00   -3.1319915403E+00   -3.1284921082E+00
   -3.1250004874E+00   -3.1215166517E+00   -3.1180405750E+00   -3.1145722316E+00
   -3.1111115956E+00   -3.1076586414E+00   -3.1042133433E+00   -3.1007756761E+00
   -3.0973456143E+00   -3.0939231327E+00   -3.0905082063E+00   -3.0871008101E+00
   -3.0837009191E+00   -3.0803085086E+00   -3.0769235540E+00   -3.0735460306E+00
   -3.0701759141E+00   -3.0668131801E+00   -3.0634578044E+00   -3.0601097628E+00
   -3.0567690314E+00   -3.0534355861E+00   -3.0501094033E+00   -3.0467904592E+00
   -3.0434787302E+00   -3.0401741927E+00   -3.0368768235E+00   -3.0335865991E+00
   -3.0303034964E+00   -3.0270274923E+00   -3.0237585639E+00   -3.0204966881E+00
   -3.0172418422E+00   -3.0139940035E+00   -3.0107531494E+00   -3.0075192574E+00
   -3.0042923051E+00   -3.0010722702E+00   -2.9978591304E+00   -2.9946528636E+00
   -2.9914534478E+00   -2.9882608610E+00   -2.9850750815E+00   -2.9818960875E+00
   -2.9787238572E+00   -2.9755583693E+00   -2.9723996021E+00   -2.9692475342E+00
   -2.9661021445E+00   -2.9629634117E+00   -2.9598313147E+00   -2.9567058325E+00
   -2.9535869441E+00   -2.9504746287E+00   -2.9473688655E+00   -2.9442696340E+00
   -2.9411769134E+00   -2.9380906832E+00   -2.9350109232E+00   -2.9319376129E+00
   -2.9288707322E+00   -2.9258102608E+00   -2.9227561787E+00   -2.9197084659E+00
   -2.9166671025E+00   -2.9136320686E+00   -2.9106033446E+00   -2.9075809108E+00
   -2.9045647476E+00   -2.9015548355E+00   -2.8985511551E+00   -2.8955536871E+00
   -2.8925624122E+00   -2.8895773112E+00   -2.8865983651E+00   -2.8836255548E+00
   -2.8806588614E+00   -2.8776982660E+00   -2.8747437498E+00   -2.8717952943E+00
   -2.8688528806E+00   -2.8659164903E+00   -2.8629861048E+00   -2.8600617059E+00
   -2.8571432751E+00   -2.8542307942E+00   -2.8513242451E+00   -2.8484236095E+00
   -2.8455288696E+00   -2.8426400073E+00   -2.8397570048E+00   -2.8368798442E+00
   -2.8340085078E+00   -2.8311429780E+00   -2.8282832371E+00   -2.8254292677E+00
   -2.8225810522E+00   -2.8197385733E+00   -2.8169018136E+00   -2.8140707560E+00
   -2.8112453833E+00   -2.8084256783E+00   -2.8056116240E+00   -2.8028032034E+00
   -2.8000003997E+00   -2.7972031960E+00   -2.7944115755E+00   -2.7916255215E+00
   -2.7888450175E+00   -2.7860700468E+00   -2.7833005930E+00   -2.7805366395E+00
   -2.7777781701E+00   -2.7750251684E+00   -2.7722776182E+00   -2.7695355033E+00
   -2.7667988076E+00   -2.7640675150E+00   -2.7613416096E+00   -2.7586210755E+00
   -2.7559058967E+00   -2.7531960575E+00   -2.7504915422E+00   -2.7477923350E+00
   -2.7450984204E+00   -2.7424097828E+00   -2.7397264068E+00   -2.7370482768E+00
   -2.7343753775E+00   -2.7317076937E+00   -2.7290452100E+00   -2.7263879113E+00
   -2.7237357824E+00   -2.7210888083E+00   -2.7184469739E+00   -2.7158102644E+00
   -2.7131786647E+00   -2.7105521601E+00   -2.7079307358E+00   -2.7053143770E+00
   -2.7027030692E+00   -2.7000967975E+00   -2.6974955477E+00   -2.6948993050E+00
   -2.6923080551E+00   -2.6897217836E+00   -2.6871404761E+00   -2.6845641184E+00
   -2.6819926963E+00   -2.6794261955E+00   -2.6768646020E+00   -2.6743079017E+00
   -2.6717560806E+00   -2.6692091248E+00   -2.6666670203E+00   -2.6641297533E+00
   -2.6615973100E+00   -2.6590696766E+00   -2.6565468395E+00   -2.6540287851E+00
   -2.6515154997E+00   -2.6490069698E+00   -2.6465031819E+00   -2.6440041226E+00
   -2.6415097785E+00   -2.6390201363E+00   -2.6365351826E+00   -2.6340549044E+00
   -2.6315792883E+00   -2.6291083212E+00   -2.6266419901E+00   -2.6241802820E+00
   -2.6217231837E+00   -2.6192706825E+00   -2.6168227654E+00   -2.6143794196E+00
   -2.6119406322E+00   -2.6095063906E+00   -2.6070766820E+00   -2.6046514938E+00
   -2.6022308134E+00   -2.5998146282E+00   -2.5974029258E+00   -2.5949956936E+00
   -2.5925929192E+00   -2.5901945903E+00   -2.5878006945E+00   -2.5854112196E+00
   -2.5830261533E+00   -2.5806454835E+00   -2.5782691979E+00   -2.5758972845E+00
   -2.5735297313E+00   -2.5711665262E+00   -2.5688076572E+00   -2.5664531125E+00
   -2.5641028801E+00   -2.5617569483E+00   -2.5594153052E+00   -2.5570779390E+00
   -2.5547448381E+00   -2.5524159908E+00   -2.5500913855E+00   -2.5477710106E+00
   -2.5454548546E+00   -2.5431429059E+00   -2.5408351531E+00   -2.5385315849E+00
   -2.5362321897E+00   -2.5339369564E+00   -2.5316458736E+00   -2.5293589300E+00
   -2.5270761145E+00   -2.5247974159E+00   -2.5225228231E+00   -2.5202523249E+00
   -2.5179859104E+00   -2.5157235685E+00   -2.5134652882E+00   -2.5112110587E+00
   -2.5089608690E+00   -2.5067147083E+00   -2.5044725657E+00   -2.5022344306E+00
   -2.5000002922E+00   -2.4977701397E+00   -2.4955439625E+00   -2.4933217500E+00
   -2.4911034917E+00   -2.4888891769E+00   -2.4866787952E+00   -2.4844723360E+00
   -2.4822697891E+00   -2.4800711439E+00   -2.4778763901E+00   -2.4756855174E+00
   -2.4734985155E+00   -2.4713153741E+00   -2.4691360831E+00   -2.4669606323E+00
   -2.4647890114E+00   -2.4626212105E+00   -2.4604572194E+00   -2.4582970281E+00
   -2.4561406267E+00   -2.4539880051E+00   -2.4518391534E+00   -2.4496940617E+00
   -2.4475527202E+00   -2.4454151190E+00   -2.4432812483E+00   -2.4411510985E+00
   -2.4390246597E+00   -2.4369019223E+00   -2.4347828766E+00   -2.4326675130E+00
   -2.4305558219E+00   -2.4284477937E+00   -2.4263434190E+00   -2.4242426882E+00
   -2.4221455919E+00   -2.4200521207E+00   -2.4179622651E+00   -2.4158760158E+00
   -2.4137933635E+00   -2.4117142990E+00   -2.4096388128E+00   -2.4075668958E+00
   -2.4054985388E+00   -2.4034337327E+00   -2.4013724682E+00   -2.3993147363E+00
   -2.3972605280E+00   -2.3952098341E+00   -2.3931626457E+00   -2.3911189537E+00
   -2.3890787493E+00   -2.3870420235E+00   -2.3850087674E+00   -2.3829789722E+00
   -2.3809526290E+00   -2.3789297290E+00   -2.3769102635E+00   -2.3748942237E+00
   -2.3728816010E+00   -2.3708723866E+00   -2.3688665719E+00   -2.3668641482E+00
   -2.3648651070E+00   -2.3628694397E+00   -2.3608771378E+00   -2.3588881928E+00
   -2.3569025961E+00   -2.3549203395E+00   -2.3529414143E+00   -2.3509658122E+00
   -2.3489935250E+00   -2.3470245441E+00   -2.3450588614E+00   -2.3430964686E+00
   -2.3411373573E+00   -2.3391815194E+00   -2.3372289467E+00   -2.3352796309E+00
   -2.3333335641E+00   -2.3313907379E+00   -2.3294511445E+00   -2.3275147756E+00
   -2.3255816233E+00   -2.3236516795E+00   -2.3217249363E+00   -2.3198013858E+00
   -2.3178810199E+00   -2.3159638308E+00   -2.3140498106E+00   -2.3121389515E+00
   -2.3102312456E+00   -2.3083266851E+00   -2.3064252623E+00   -2.3045269694E+00
   -2.3026317987E+00   -2.3007397425E+00   -2.2988507931E+00   -2.2969649429E+00
   -2.2950821843E+00   -2.2932025096E+00   -2.2913259113E+00   -2.2894523819E+00
   -2.2875819138E+00   -2.2857144995E+00   -2.2838501316E+00   -2.2819888025E+00
   -2.2801305050E+00   -2.2782752315E+00   -2.2764229747E+00   -2.2745737273E+00
   -2.2727274819E+00   -2.2708842313E+00   -2.2690439681E+00   -2.2672066850E+00
   -2.2653723749E+00   -2.2635410306E+00   -2.2617126448E+00   -2.2598872104E+00
   -2.2580647202E+00   -2.2562451672E+00   -2.2544285442E+00   -2.2526148442E+00
   -2.2508040601E+00   -2.2489961849E+00   -2.2471912116E+00   -2.2453891332E+00
   -2.2435899427E+00   -2.2417936333E+00   -2.2400001979E+00   -2.2382096297E+00
   -2.2364219219E+00   -2.2346370676E+00   -2.2328550599E+00   -2.2310758921E+00
   -2.2292995573E+00   -2.2275260488E+00   -2.2257553600E+00   -2.2239874839E+00
   -2.2222224141E+00   -2.2204601437E+00   -2.2187006661E+00   -2.2169439747E+00
   -2.2151900629E+00   -2.2134389240E+00   -2.2116905516E+00   -2.2099449391E+00
   -2.2082020799E+00   -2.2064619675E+00   -2.2047245954E+00   -2.2029899572E+00
   -2.2012580464E+00   -2.1995288566E+00   -2.1978023814E+00   -2.1960786144E+00
   -2.1943575493E+00   -2.1926391796E+00   -2.1909234990E+00   -2.1892105013E+00
   -2.1875001802E+00   -2.1857925294E+00   -2.1840875426E+00   -2.1823852136E+00
   -2.1806855362E+00   -2.1789885043E+00   -2.1772941115E+00   -2.1756023519E+00
   -2.1739132192E+00   -2.1722267074E+00   -2.1705428103E+00   -2.1688615219E+00
   -2.1671828361E+00   -2.1655067469E+00   -2.1638332482E+00   -2.1621623341E+00
   -2.1604939985E+00   -2.1588282356E+00   -2.1571650393E+00   -2.1555044038E+00
   -2.1538463231E+00   -2.1521907913E+00   -2.1505378026E+00   -2.1488873511E+00
   -2.1472394309E+00   -2.1455940363E+00   -2.1439511615E+00   -2.1423108006E+00
   -2.1406729479E+00   -2.1390375976E+00   -2.1374047441E+00   -2.1357743816E+00
   -2.1341465044E+00   -2.1325211068E+00   -2.1308981832E+00   -2.1292777279E+00
   -2.1276597354E+00   -2.1260441999E+00   -2.1244311159E+00   -2.1228204778E+00
   -2.1212122801E+00   -2.1196065172E+00   -2.1180031836E+00   -2.1164022738E+00
   -2.1148037822E+00   -2.1132077035E+00   -2.1116140322E+00   -2.1100227628E+00
   -2.1084338898E+00   -2.1068474080E+00   -2.1052633118E+00   -2.1036815959E+00
   -2.1021022550E+00   -2.1005252837E+00   -2.0989506767E+00   -2.0973784286E+00
   -2.0958085342E+00   -2.0942409882E+00   -2.0926757853E+00   -2.0911129203E+00
   -2.0895523879E+00   -2.0879941829E+00   -2.0864383002E+00   -2.0848847344E+00
   -2.0833334805E+00   -2.0817845334E+00   -2.0802378877E+00   -2.0786935385E+00
   -2.0771514807E+00   -2.0756117090E+00   -2.0740742185E+00   -2.0725390041E+00
   -2.0710060607E+00   -2.0694753833E+00   -2.0679469668E+00   -2.0664208063E+00
   -2.0648968968E+00   -2.0633752334E+00   -2.0618558109E+00   -2.0603386245E+00
   -2.0588236693E+00   -2.0573109403E+00   -2.0558004327E+00   -2.0542921415E+00
   -2.0527860619E+00   -2.0512821890E+00   -2.0497805179E+00   -2.0482810439E+00
   -2.0467837621E+00   -2.0452886677E+00   -2.0437957559E+00   -2.0423050220E+00
   -2.0408164612E+00   -2.0393300686E+00   -2.0378458397E+00   -2.0363637697E+00
   -2.0348838538E+00   -2.0334060875E+00   -2.0319304659E+00   -2.0304569844E+00
   -2.0289856385E+00   -2.0275164233E+00   -2.0260493344E+00   -2.0245843671E+00
   -2.0231215168E+00   -2.0216607790E+00   -2.0202021489E+00   -2.0187456222E+00
   -2.0172911942E+00   -2.0158388604E+00   -2.0143886163E+00   -2.0129404574E+00
   -2.0114943791E+00   -2.0100503771E+00   -2.0086084468E+00   -2.0071685838E+00
   -2.0057307837E+00   -2.0042950419E+00   -2.0028613542E+00   -2.0014297160E+00
   -2.0000001231E+00   -1.9985725709E+00   -1.9971470552E+00   -1.9957235716E+00
   -1.9943021158E+00   -1.9928826834E+00   -1.9914652701E+00   -1.9900498716E+00
   -1.9886364836E+00   -1.9872251018E+00   -1.9858157220E+00   -1.9844083399E+00
   -1.9830029513E+00   -1.9815995519E+00   -1.9801981375E+00   -1.9787987039E+00
   -1.9774012469E+00   -1.9760057623E+00   -1.9746122459E+00   -1.9732206937E+00
   -1.9718311013E+00   -1.9704434648E+00   -1.9690577799E+00   -1.9676740426E+00
   -1.9662922488E+00   -1.9649123943E+00   -1.9635344751E+00   -1.9621584871E+00
   -1.9607844262E+00   -1.9594122885E+00   -1.9580420698E+00   -1.9566737662E+00
   -1.9553073736E+00   -1.9539428881E+00   -1.9525803056E+00   -1.9512196222E+00
   -1.9498608339E+00   -1.9485039367E+00   -1.9471489267E+00   -1.9457958000E+00
   -1.9444445527E+00   -1.9430951807E+00   -1.9417476803E+00   -1.9404020476E+00
   -1.9390582786E+00   -1.9377163695E+00   -1.9363763164E+00   -1.9350381155E+00
   -1.9337017629E+00   -1.9323672549E+00   -1.9310345875E+00   -1.9297037571E+00
   -1.9283747598E+00   -1.9270475917E+00   -1.9257222492E+00   -1.9243987285E+00
   -1.9230770258E+00   -1.9217571374E+00   -1.9204390596E+00   -1.9191227885E+00
   -1.9178083206E+00   -1.9164956521E+00   -1.9151847793E+00   -1.9138756986E+00
   -1.9125684062E+00   -1.9112628985E+00   -1.9099591718E+00   -1.9086572226E+00
   -1.9073570471E+00   -1.9060586418E+00   -1.9047620030E+00   -1.9034671271E+00
   -1.9021740106E+00   -1.9008826499E+00   -1.8995930413E+00   -1.8983051814E+00
   -1.8970190665E+00   -1.8957346932E+00   -1.8944520578E+00   -1.8931711569E+00
   -1.8918919870E+00   -1.8906145445E+00   -1.8893388259E+00   -1.8880648278E+00
   -1.8867925467E+00   -1.8855219791E+00   -1.8842531215E+00   -1.8829859706E+00
   -1.8817205228E+00   -1.8804567747E+00   -1.8791947229E+00   -1.8779343641E+00
   -1.8766756947E+00   -1.8754187114E+00   -1.8741634108E+00   -1.8729097896E+00
   -1.8716578443E+00   -1.8704075716E+00   -1.8691589682E+00   -1.8679120307E+00
   -1.8666667558E+00   -1.8654231401E+00   -1.8641811804E+00   -1.8629408734E+00
   -1.8617022156E+00   -1.8604652040E+00   -1.8592298351E+00   -1.8579961057E+00
   -1.8567640126E+00   -1.8555335524E+00   -1.8543047221E+00   -1.8530775182E+00
   -1.8518519376E+00   -1.8506279771E+00   -1.8494056334E+00   -1.8481849034E+00
   -1.8469657838E+00   -1.8457482716E+00   -1.8445323634E+00   -1.8433180562E+00
   -1.8421053467E+00   -1.8408942319E+00   -1.8396847085E+00   -1.8384767735E+00
   -1.8372704237E+00   -1.8360656560E+00   -1.8348624673E+00   -1.8336608544E+00
   -1.8324608144E+00   -1.8312623441E+00   -1.8300654404E+00   -1.8288701002E+00
   -1.8276763206E+00   -1.8264840984E+00   -1.8252934305E+00   -1.8241043141E+00
   -1.8229167460E+00   -1.8217307232E+00   -1.8205462427E+00   -1.8193633014E+00
   -1.8181818965E+00   -1.8170020248E+00   -1.8158236835E+00   -1.8146468695E+00
   -1.8134715799E+00   -1.8122978117E+00   -1.8111255619E+00   -1.8099548277E+00
   -1.8087856060E+00   -1.8076178940E+00   -1.8064516887E+00   -1.8052869872E+00
   -1.8041237866E+00   -1.8029620841E+00   -1.8018018766E+00   -1.8006431614E+00
   -1.7994859355E+00   -1.7983301961E+00   -1.7971759403E+00   -1.7960231653E+00
   -1.7948718682E+00   -1.7937220462E+00   -1.7925736965E+00   -1.7914268161E+00
   -1.7902814023E+00   -1.7891374524E+00   -1.7879949634E+00   -1.7868539326E+00
   -1.7857143572E+00   -1.7845762344E+00   -1.7834395615E+00   -1.7823043356E+00
   -1.7811705540E+00   -1.7800382140E+00   -1.7789073128E+00   -1.7777778477E+00
   -1.7766498158E+00   -1.7755232146E+00   -1.7743980413E+00   -1.7732742932E+00
   -1.7721519675E+00   -1.7710310616E+00   -1.7699115727E+00   -1.7687934983E+00
   -1.7676768355E+00   -1.7665615818E+00   -1.7654477345E+00   -1.7643352909E+00
   -1.7632242483E+00   -1.7621146042E+00   -1.7610063559E+00   -1.7598995006E+00
   -1.7587940360E+00   -1.7576899592E+00   -1.7565872677E+00   -1.7554859589E+00
   -1.7543860302E+00   -1.7532874789E+00   -1.7521903026E+00   -1.7510944986E+00
   -1.7500000644E+00   -1.7489069974E+00   -1.7478152950E+00   -1.7467249546E+00
   -1.7456359738E+00   -1.7445483500E+00   -1.7434620806E+00   -1.7423771632E+00
   -1.7412935951E+00   -1.7402113739E+00   -1.7391304971E+00   -1.7380509622E+00
   -1.7369727667E+00   -1.7358959080E+00   -1.7348203837E+00   -1.7337461914E+00
   -1.7326733285E+00   -1.7316017925E+00   -1.7305315811E+00   -1.7294626918E+00
   -1.7283951221E+00   -1.7273288695E+00   -1.7262639317E+00   -1.7252003062E+00
   -1.7241379906E+00   -1.7230769825E+00   -1.7220172794E+00   -1.7209588789E+00
   -1.7199017787E+00   -1.7188459764E+00   -1.7177914695E+00   -1.7167382557E+00
   -1.7156863326E+00   -1.7146356978E+00   -1.7135863490E+00   -1.7125382838E+00
   -1.7114914998E+00   -1.7104459948E+00   -1.7094017663E+00   -1.7083588121E+00
   -1.7073171297E+00   -1.7062767169E+00   -1.7052375714E+00   -1.7041996908E+00
   -1.7031630728E+00   -1.7021277152E+00   -1.7010936156E+00   -1.7000607717E+00
   -1.6990291813E+00   -1.6979988421E+00   -1.6969697517E+00   -1.6959419080E+00
   -1.6949153086E+00   -1.6938899514E+00   -1.6928658340E+00   -1.6918429542E+00
   -1.6908213097E+00   -1.6898008984E+00   -1.6887817180E+00   -1.6877637662E+00
   -1.6867470409E+00   -1.6857315399E+00   -1.6847172608E+00   -1.6837042016E+00
   -1.6826923600E+00   -1.6816817338E+00   -1.6806723209E+00   -1.6796641190E+00
   -1.6786571260E+00   -1.6776513396E+00   -1.6766467579E+00   -1.6756433785E+00
  </PP_LOCAL>
 <PP_NONLOCAL>
   <PP_BETA.1
       type="real"
       size="1672"
       columns="4"
       index="1"
       angular_momentum="0"
       cutoff_radius_index=" 316"
       cutoff_radius="    3.1500000000E+00" >
    3.1810665213E-13    2.4251916216E-02    4.8489872489E-02    7.2699923221E-02
    9.6868151485E-02    1.2098068333E-01    1.4502370206E-01    1.6898346240E-01
    1.9284630470E-01    2.1659866894E-01    2.4022710874E-01    2.6371830518E-01
    2.8705908053E-01    3.1023641185E-01    3.3323744440E-01    3.5604950486E-01
    3.7866011443E-01    4.0105700159E-01    4.2322811476E-01    4.4516163460E-01
    4.6684598608E-01    4.8826985025E-01    5.0942217570E-01    5.3029218962E-01
    5.5086940859E-01    5.7114364885E-01    5.9110503632E-01    6.1074401600E-01
    6.3005136109E-01    6.4901818143E-01    6.6763593161E-01    6.8589641841E-01
    7.0379180773E-01    7.2131463093E-01    7.3845779059E-01    7.5521456556E-01
    7.7157861541E-01    7.8754398425E-01    8.0310510372E-01    8.1825679539E-01
    8.3299427241E-01    8.4731314034E-01    8.6120939730E-01    8.7467943331E-01
    8.8772002885E-01    9.0032835264E-01    9.1250195864E-01    9.2423878219E-01
    9.3553713543E-01    9.4639570190E-01    9.5681353029E-01    9.6679002751E-01
    9.7632495091E-01    9.8541839979E-01    9.9407080613E-01    1.0022829246E+00
    1.0100558221E+00    1.0173908659E+00    1.0242897125E+00    1.0307542942E+00
    1.0367868066E+00    1.0423896946E+00    1.0475656383E+00    1.0523175383E+00
    1.0566485011E+00    1.0605618233E+00    1.0640609762E+00    1.0671495898E+00
    1.0698314370E+00    1.0721104172E+00    1.0739905401E+00    1.0754759096E+00
    1.0765707076E+00    1.0772791781E+00    1.0776056110E+00    1.0775543270E+00
    1.0771296623E+00    1.0763359535E+00    1.0751775236E+00    1.0736586678E+00
    1.0717836407E+00    1.0695566435E+00    1.0669818120E+00    1.0640632058E+00
    1.0608047980E+00    1.0572104655E+00    1.0532839812E+00    1.0490290059E+00
    1.0444490825E+00    1.0395476303E+00    1.0343279408E+00    1.0287931747E+00
    1.0229463602E+00    1.0167903918E+00    1.0103280313E+00    1.0035619093E+00
    9.9649452803E-01    9.8912826587E-01    9.8146538251E-01    9.7350802571E-01
    9.6525823913E-01    9.5671797141E-01    9.4788908636E-01    9.3877337430E-01
    9.2937256451E-01    9.1968833869E-01    9.0972234545E-01    8.9947621577E-01
    8.8895157925E-01    8.7815008129E-01    8.6707340095E-01    8.5572326950E-01
    8.4410148959E-01    8.3220995487E-01    8.2005067011E-01    8.0762577158E-01
    7.9493754772E-01    7.8198845992E-01    7.6878116333E-01    7.5531852763E-01
    7.4160365766E-01    7.2763991367E-01    7.1343093133E-01    6.9898064117E-01
    6.8429328743E-01    6.6937344628E-01    6.5422604314E-01    6.3885636923E-01
    6.2327009698E-01    6.0747329446E-01    5.9147243851E-01    5.7527442673E-01
    5.5888658792E-01    5.4231669121E-01    5.2557295364E-01    5.0866404605E-01
    4.9159909742E-01    4.7438769741E-01    4.5703989718E-01    4.3956620829E-01
    4.2197759987E-01    4.0428549378E-01    3.8650175793E-01    3.6863869763E-01
    3.5070904501E-01    3.3272594650E-01    3.1470294844E-01    2.9665398064E-01
    2.7859333825E-01    2.6053566163E-01    2.4249591451E-01    2.2448936033E-01
    2.0653153699E-01    1.8863822994E-01    1.7082544368E-01    1.5310937189E-01
    1.3550636621E-01    1.1803290366E-01    1.0070555307E-01    8.3540940322E-02
    6.6555712815E-02    4.9766503051E-02    3.3189891621E-02    1.6842369662E-02
    7.4030093975E-04   -1.5100116296E-02   -3.0662887534E-02   -4.5932260162E-02
   -6.0892761397E-02   -7.5529235849E-02   -8.9826882550E-02   -1.0377129131E-01
   -1.1734847823E-01   -1.3054492022E-01   -1.4334758844E-01   -1.5574398036E-01
   -1.6772215048E-01   -1.7927073947E-01   -1.9037900160E-01   -2.0103683035E-01
   -2.1123478209E-01   -2.2096409770E-01   -2.3021672200E-01   -2.3898532094E-01
   -2.4726329645E-01   -2.5504479879E-01   -2.6232473647E-01   -2.6909878352E-01
   -2.7536338419E-01   -2.8111575493E-01   -2.8635388442E-01   -2.9107652726E-01
   -2.9528322333E-01   -2.9897434263E-01   -3.0215111679E-01   -3.0481564304E-01
   -3.0697088890E-01   -3.0862069367E-01   -3.0976976725E-01   -3.1042368644E-01
   -3.1058888856E-01   -3.1027266259E-01   -3.0948313765E-01   -3.0822926900E-01
   -3.0652082156E-01   -3.0436835094E-01   -3.0178318214E-01   -2.9877738584E-01
   -2.9536375253E-01   -2.9155576439E-01   -2.8736756506E-01   -2.8281392746E-01
   -2.7791021965E-01   -2.7267236885E-01   -2.6711682386E-01   -2.6126051572E-01
   -2.5512081707E-01   -2.4871550002E-01   -2.4206269287E-01   -2.3518083570E-01
   -2.2808863501E-01   -2.2080501754E-01   -2.1334908338E-01   -2.0574005857E-01
   -1.9799724728E-01   -1.9013998375E-01   -1.8218758411E-01   -1.7415929826E-01
   -1.6607426190E-01   -1.5795144897E-01   -1.4980962446E-01   -1.4166729797E-01
   -1.3354267793E-01   -1.2545362679E-01   -1.1741761724E-01   -1.0945168960E-01
   -1.0157241053E-01   -9.3795833223E-02   -8.6137459062E-02   -7.8612201057E-02
   -7.1234349027E-02   -6.4017536699E-02   -5.6974710812E-02   -5.0118102320E-02
   -4.3459199797E-02   -3.7008725108E-02   -3.0776611441E-02   -2.4771983756E-02
   -1.9003141721E-02   -1.3477545190E-02   -8.2018022620E-03   -3.1816599676E-03
    1.5780023853E-03    6.0731771907E-03    1.0300729827E-02    1.4258397240E-02
    1.7944783824E-02    2.1359354619E-02    2.4502425829E-02    2.7375152703E-02
    2.9979514804E-02    3.2318298702E-02    3.4395078163E-02    3.6214191863E-02
    3.7780718723E-02    3.9100450908E-02    4.0179864599E-02    4.1026088595E-02
    4.1646870872E-02    4.2050543165E-02    4.2245983707E-02    4.2242578217E-02
    4.2050179273E-02    4.1679064167E-02    4.1139891398E-02    4.0443655910E-02
    3.9601643226E-02    3.8625382609E-02    3.7526599393E-02    3.6317166627E-02
    3.5009056182E-02    3.3614289473E-02    3.2144887937E-02    3.0612823425E-02
    2.9029968635E-02    2.7408047778E-02    2.5758587601E-02    2.4092868934E-02
    2.2421878872E-02    2.0756263780E-02    1.9106284081E-02    1.7481765824E-02
    1.5892057444E-02    1.4346006954E-02    1.2851881980E-02    1.1417355646E-02
    1.0049292950E-02    8.7535669822E-03    7.5357006620E-03    6.4009733851E-03
    5.3538198887E-03    4.3977772743E-03    3.5355583819E-03    2.7689970608E-03
    2.0990386326E-03    1.5257210759E-03    1.0483244111E-03    6.6474512166E-04
    3.7088501411E-04    1.6641652929E-04    5.0170455165E-05    2.5754564329E-06
   -5.6149759426E-06    7.9149303804E-08    1.7490066005E-06   -9.0945580293E-08
 0. 0. 0. 0.
 0. 0. 0. 0.
 0. 0. 0. 0.
 0. 0. 0. 0.
 0. 0. 0. 0.
 0. 0. 0. 0.
 0. 0. 0. 0.
 0. 0. 0. 0.
 0. 0. 0. 0.
 0. 0. 0. 0.
 0. 0. 0. 0.
 0. 0. 0. 0.
 0. 0. 0. 0.
 0. 0. 0. 0.
 0. 0. 0. 0.
 0. 0. 0. 0.
 0. 0. 0. 0.
 0. 0. 0. 0.
 0. 0. 0. 0.
 0. 0. 0. 0.
 0. 0. 0. 0.
 0. 0. 0. 0.
 0. 0. 0. 0.
 0. 0. 0. 0.
 0. 0. 0. 0.
 0. 0. 0. 0.
 0. 0. 0. 0.
 0. 0. 0. 0.
 0. 0. 0. 0.
 0. 0. 0. 0.
 0. 0. 0. 0.
 0. 0. 0. 0.
 0. 0. 0. 0.
 0. 0. 0. 0.
 0. 0. 0. 0.
 0. 0. 0. 0.
 0. 0. 0. 0.
 0. 0. 0. 0.
 0. 0. 0. 0.
 0. 0. 0. 0.
 0. 0. 0. 0.
 0. 0. 0. 0.
 0. 0. 0. 0.
 0. 0. 0. 0.
 0. 0. 0. 0.
 0. 0. 0. 0.
 0. 0. 0. 0.
 0. 0. 0. 0.
 0. 0. 0. 0.
 0. 0. 0. 0.
 0. 0. 0. 0.
 0. 0. 0. 0.
 0. 0. 0. 0.
 0. 0. 0. 0.
 0. 0. 0. 0.
 0. 0. 0. 0.
 0. 0. 0. 0.
 0. 0. 0. 0.
 0. 0. 0. 0.
 0. 0. 0. 0.
 0. 0. 0. 0.
 0. 0. 0. 0.
 0. 0. 0. 0.
 0. 0. 0. 0.
 0. 0. 0. 0.
 0. 0. 0. 0.
 0. 0. 0. 0.
 0. 0. 0. 0.
 0. 0. 0. 0.
 0. 0. 0. 0.
 0. 0. 0. 0.
 0. 0. 0. 0.
 0. 0. 0. 0.
 0. 0. 0. 0.
 0. 0. 0. 0.
 0. 0. 0. 0.
 0. 0. 0. 0.
 0. 0. 0. 0.
 0. 0. 0. 0.
 0. 0. 0. 0.
 0. 0. 0. 0.
 0. 0. 0. 0.
 0. 0. 0. 0.
 0. 0. 0. 0.
 0. 0. 0. 0.
 0. 0. 0. 0.
 0. 0. 0. 0.
 0. 0. 0. 0.
 0. 0. 0. 0.
 0. 0. 0. 0.
 0. 0. 0. 0.
 0. 0. 0. 0.
 0. 0. 0. 0.
 0. 0. 0. 0.
 0. 0. 0. 0.
 0. 0. 0. 0.
 0. 0. 0. 0.
 0. 0. 0. 0.
 0. 0. 0. 0.
 0. 0. 0. 0.
 0. 0. 0. 0.
 0. 0. 0. 0.
 0. 0. 0. 0.
 0. 0. 0. 0.
 0. 0. 0. 0.
 0. 0. 0. 0.
 0. 0. 0. 0.
 0. 0. 0. 0.
 0. 0. 0. 0.
 0. 0. 0. 0.
 0. 0. 0. 0.
 0. 0. 0. 0.
 0. 0. 0. 0.
 0. 0. 0. 0.
 0. 0. 0. 0.
 0. 0. 0. 0.
 0. 0. 0. 0.
 0. 0. 0. 0.
 0. 0. 0. 0.
 0. 0. 0. 0.
 0. 0. 0. 0.
 0. 0. 0. 0.
 0. 0. 0. 0.
 0. 0. 0. 0.
 0. 0. 0. 0.
 0. 0. 0. 0.
 0. 0. 0. 0.
 0. 0. 0. 0.
 0. 0. 0. 0.
 0. 0. 0. 0.
 0. 0. 0. 0.
 0. 0. 0. 0.
 0. 0. 0. 0.
 0. 0. 0. 0.
 0. 0. 0. 0.
 0. 0. 0. 0.
 0. 0. 0. 0.
 0. 0. 0. 0.
 0. 0. 0. 0.
 0. 0. 0. 0.
 0. 0. 0. 0.
 0. 0. 0. 0.
 0. 0. 0. 0.
 0. 0. 0. 0.
 0. 0. 0. 0.
 0. 0. 0. 0.
 0. 0. 0. 0.
 0. 0. 0. 0.
 0. 0. 0. 0.
 0. 0. 0. 0.
 0. 0. 0. 0.
 0. 0. 0. 0.
 0. 0. 0. 0.
 0. 0. 0. 0.
 0. 0. 0. 0.
 0. 0. 0. 0.
 0. 0. 0. 0.
 0. 0. 0. 0.
 0. 0. 0. 0.
 0. 0. 0. 0.
 0. 0. 0. 0.
 0. 0. 0. 0.
 0. 0. 0. 0.
 0. 0. 0. 0.
 0. 0. 0. 0.
 0. 0. 0. 0.
 0. 0. 0. 0.
 0. 0. 0. 0.
 0. 0. 0. 0.
 0. 0. 0. 0.
 0. 0. 0. 0.
 0. 0. 0. 0.
 0. 0. 0. 0.
 0. 0. 0. 0.
 0. 0. 0. 0.
 0. 0. 0. 0.
 0. 0. 0. 0.
 0. 0. 0. 0.
 0. 0. 0. 0.
 0. 0. 0. 0.
 0. 0. 0. 0.
 0. 0. 0. 0.
 0. 0. 0. 0.
 0. 0. 0. 0.
 0. 0. 0. 0.
 0. 0. 0. 0.
 0. 0. 0. 0.
 0. 0. 0. 0.
 0. 0. 0. 0.
 0. 0. 0. 0.
 0. 0. 0. 0.
 0. 0. 0. 0.
 0. 0. 0. 0.
 0. 0. 0. 0.
 0. 0. 0. 0.
 0. 0. 0. 0.
 0. 0. 0. 0.
 0. 0. 0. 0.
 0. 0. 0. 0.
 0. 0. 0. 0.
 0. 0. 0. 0.
 0. 0. 0. 0.
 0. 0. 0. 0.
 0. 0. 0. 0.
 0. 0. 0. 0.
 0. 0. 0. 0.
 0. 0. 0. 0.
 0. 0. 0. 0.
 0. 0. 0. 0.
 0. 0. 0. 0.
 0. 0. 0. 0.
 0. 0. 0. 0.
 0. 0. 0. 0.
 0. 0. 0. 0.
 0. 0. 0. 0.
 0. 0. 0. 0.
 0. 0. 0. 0.
 0. 0. 0. 0.
 0. 0. 0. 0.
 0. 0. 0. 0.
 0. 0. 0. 0.
 0. 0. 0. 0.
 0. 0. 0. 0.
 0. 0. 0. 0.
 0. 0. 0. 0.
 0. 0. 0. 0.
 0. 0. 0. 0.
 0. 0. 0. 0.
 0. 0. 0. 0.
 0. 0. 0. 0.
 0. 0. 0. 0.
 0. 0. 0. 0.
 0. 0. 0. 0.
 0. 0. 0. 0.
 0. 0. 0. 0.
 0. 0. 0. 0.
 0. 0. 0. 0.
 0. 0. 0. 0.
 0. 0. 0. 0.
 0. 0. 0. 0.
 0. 0. 0. 0.
 0. 0. 0. 0.
 0. 0. 0. 0.
 0. 0. 0. 0.
 0. 0. 0. 0.
 0. 0. 0. 0.
 0. 0. 0. 0.
 0. 0. 0. 0.
 0. 0. 0. 0.
 0. 0. 0. 0.
 0. 0. 0. 0.
 0. 0. 0. 0.
 0. 0. 0. 0.
 0. 0. 0. 0.
 0. 0. 0. 0.
 0. 0. 0. 0.
 0. 0. 0. 0.
 0. 0. 0. 0.
 0. 0. 0. 0.
 0. 0. 0. 0.
 0. 0. 0. 0.
 0. 0. 0. 0.
 0. 0. 0. 0.
 0. 0. 0. 0.
 0. 0. 0. 0.
 0. 0. 0. 0.
 0. 0. 0. 0.
 0. 0. 0. 0.
 0. 0. 0. 0.
 0. 0. 0. 0.
 0. 0. 0. 0.
 0. 0. 0. 0.
 0. 0. 0. 0.
 0. 0. 0. 0.
 0. 0. 0. 0.
 0. 0. 0. 0.
 0. 0. 0. 0.
 0. 0. 0. 0.
 0. 0. 0. 0.
 0. 0. 0. 0.
 0. 0. 0. 0.
 0. 0. 0. 0.
 0. 0. 0. 0.
 0. 0. 0. 0.
 0. 0. 0. 0.
 0. 0. 0. 0.
 0. 0. 0. 0.
 0. 0. 0. 0.
 0. 0. 0. 0.
 0. 0. 0. 0.
 0. 0. 0. 0.
 0. 0. 0. 0.
 0. 0. 0. 0.
 0. 0. 0. 0.
 0. 0. 0. 0.
 0. 0. 0. 0.
 0. 0. 0. 0.
 0. 0. 0. 0.
 0. 0. 0. 0.
 0. 0. 0. 0.
 0. 0. 0. 0.
 0. 0. 0. 0.
 0. 0. 0. 0.
 0. 0. 0. 0.
 0. 0. 0. 0.
 0. 0. 0. 0.
 0. 0. 0. 0.
 0. 0. 0. 0.
 0. 0. 0. 0.
 0. 0. 0. 0.
 0. 0. 0. 0.
 0. 0. 0. 0.
 0. 0. 0. 0.
 0. 0. 0. 0.
 0. 0. 0. 0.
 0. 0. 0. 0.
 0. 0. 0. 0.
 0. 0. 0. 0.
 0. 0. 0. 0.
 0. 0. 0. 0.
 0. 0. 0. 0.
 0. 0. 0. 0.
 0. 0. 0. 0.
 0. 0. 0. 0.
 0. 0. 0. 0.
 0. 0. 0. 0.
 0. 0. 0. 0.
 0. 0. 0. 0.
 0. 0. 0. 0.
 0. 0. 0. 0.
 0. 0. 0. 0.
 0. 0. 0. 0.
 0. 0. 0. 0.
 0. 0. 0. 0.
 0. 0. 0. 0.
 0. 0. 0. 0.
 0. 0. 0. 0.
 0. 0. 0. 0.
 0. 0. 0. 0.
   </PP_BETA.1>
   <PP_BETA.2
       type="real"
       size="1672"
       columns="4"
       index="2"
       angular_momentum="0"
       cutoff_radius_index=" 316"
       cutoff_radius="    3.1500000000E+00" >
   -5.5130899845E-13   -1.3815632554E-02   -2.7607785032E-02   -4.1353016664E-02
   -5.5027965246E-02   -6.8609386289E-02   -8.2074192008E-02   -9.5399490109E-02
   -1.0856262229E-01   -1.2154120246E-01   -1.3431315453E-01   -1.4685674980E-01
   -1.5915064390E-01   -1.7117391307E-01   -1.8290608997E-01   -1.9432719875E-01
   -2.0541778936E-01   -2.1615897116E-01   -2.2653244565E-01   -2.3652053822E-01
   -2.4610622900E-01   -2.5527318265E-01   -2.6400577698E-01   -2.7228913050E-01
   -2.8010912859E-01   -2.8745244848E-01   -2.9430658278E-01   -3.0065986156E-01
   -3.0650147300E-01   -3.1182148229E-01   -3.1661084910E-01   -3.2086144317E-01
   -3.2456605822E-01   -3.2771842398E-01   -3.3031321638E-01   -3.3234606577E-01
   -3.3381356314E-01   -3.3471326432E-01   -3.3504369207E-01   -3.3480433606E-01
   -3.3399565068E-01   -3.3261905065E-01   -3.3067690441E-01   -3.2817252528E-01
   -3.2511016034E-01   -3.2149497710E-01   -3.1733304781E-01   -3.1263133161E-01
   -3.0739765437E-01   -3.0164068630E-01   -2.9536991742E-01   -2.8859563077E-01
   -2.8132887358E-01   -2.7358142632E-01   -2.6536576975E-01   -2.5669504999E-01
   -2.4758304180E-01   -2.3804411000E-01   -2.2809316919E-01   -2.1774564192E-01
   -2.0701741534E-01   -1.9592479650E-01   -1.8448446635E-01   -1.7271343267E-01
   -1.6062898200E-01   -1.4824863068E-01   -1.3559007531E-01   -1.2267114255E-01
   -1.0950973861E-01   -9.6123798504E-02   -8.2531235288E-02   -6.8749889386E-02
   -5.4797478256E-02   -4.0691546510E-02   -2.6449416718E-02   -1.2088141031E-02
    2.3755461572E-03    1.6925274360E-02    3.1545081768E-02    4.6219458459E-02
    6.0933387889E-02    7.5672386486E-02    9.0422541178E-02    1.0517054471E-01
    1.1990372857E-01    1.3461009342E-01    1.4927833689E-01    1.6389787847E-01
    1.7845888166E-01    1.9295227297E-01    2.0736975788E-01    2.2170383349E-01
    2.3594779803E-01    2.5009575687E-01    2.6414262519E-01    2.7808412724E-01
    2.9191679201E-01    3.0563794557E-01    3.1924569976E-01    3.3273893756E-01
    3.4611729493E-01    3.5938113929E-01    3.7253154464E-01    3.8557026351E-01
    3.9849969564E-01    4.1132285366E-01    4.2404332582E-01    4.3666523589E-01
    4.4919320042E-01    4.6163228351E-01    4.7398794919E-01    4.8626601171E-01
    4.9847258387E-01    5.1061402357E-01    5.2269687889E-01    5.3472783179E-01
    5.4671364082E-01    5.5866108297E-01    5.7057689489E-01    5.8246771389E-01
    5.9434001877E-01    6.0620007086E-01    6.1805385561E-01    6.2990702472E-01
    6.4176483942E-01    6.5363211489E-01    6.6551316619E-01    6.7741175601E-01
    6.8933104433E-01    7.0127354041E-01    7.1324105722E-01    7.2523466862E-01
    7.3725466939E-01    7.4930053853E-01    7.6137090578E-01    7.7346352171E-01
    7.8557523147E-01    7.9770195239E-01    8.0983865557E-01    8.2197935152E-01
    8.3411708006E-01    8.4624390440E-01    8.5835090972E-01    8.7042820598E-01
    8.8246493528E-01    8.9444928360E-01    9.0636849690E-01    9.1820890171E-01
    9.2995592997E-01    9.4159414812E-01    9.5310729037E-01    9.6447829601E-01
    9.7568935056E-01    9.8672193072E-01    9.9755685288E-01    1.0081743250E+00
    1.0185540014E+00    1.0286750411E+00    1.0385161683E+00    1.0480557349E+00
    1.0572717865E+00    1.0661421288E+00    1.0746443964E+00    1.0827561224E+00
    1.0904548094E+00    1.0977180002E+00    1.1045233500E+00    1.1108486969E+00
    1.1166721337E+00    1.1219720772E+00    1.1267273377E+00    1.1309171860E+00
    1.1345214192E+00    1.1375204239E+00    1.1398952369E+00    1.1416276036E+00
    1.1427000318E+00    1.1430958439E+00    1.1427992237E+00    1.1417952596E+00
    1.1400699842E+00    1.1376104079E+00    1.1344045488E+00    1.1304414570E+00
    1.1257112337E+00    1.1202050452E+00    1.1139151307E+00    1.1068348049E+00
    1.0989584548E+00    1.0902815295E+00    1.0808005342E+00    1.0705129739E+00
    1.0594176281E+00    1.0475150819E+00    1.0348080326E+00    1.0213012643E+00
    1.0070016598E+00    9.9191819675E-01    9.7606193854E-01    9.5944601807E-01
    9.4208561568E-01    9.2399793060E-01    9.0520214619E-01    8.8571938903E-01
    8.6557268197E-01    8.4478689128E-01    8.2338866802E-01    8.0140638381E-01
    7.7887006120E-01    7.5581129876E-01    7.3226319125E-01    7.0826024492E-01
    6.8383828840E-01    6.5903437916E-01    6.3388670617E-01    6.0843448869E-01
    5.8271787177E-01    5.5677781860E-01    5.3065600014E-01    5.0439468225E-01
    4.7803661080E-01    4.5162489496E-01    4.2520288913E-01    3.9881407385E-01
    3.7250193596E-01    3.4630984858E-01    3.2028095096E-01    2.9445802897E-01
    2.6888339617E-01    2.4359877622E-01    2.1864518666E-01    1.9406282470E-01
    1.6989095512E-01    1.4616780085E-01    1.2293043641E-01    1.0021468465E-01
    7.8055017032E-02    5.6484457821E-02    3.5534492477E-02    1.5234980524E-02
   -4.3859268194E-03   -2.3301863972E-02   -4.1488323062E-02   -5.8922720477E-02
   -7.5584457700E-02   -9.1454976210E-02   -1.0651780628E-01   -1.2075860950E-01
   -1.3416521489E-01   -1.4672764845E-01   -1.5843815607E-01   -1.6929121972E-01
   -1.7928356676E-01   -1.8841417253E-01   -1.9668425589E-01   -2.0409726804E-01
   -2.1065887435E-01   -2.1637692941E-01   -2.2126144534E-01   -2.2532455329E-01
   -2.2858045846E-01   -2.3104538856E-01   -2.3273753598E-01   -2.3367699369E-01
   -2.3388568521E-01   -2.3338728874E-01   -2.3220715564E-01   -2.3037222359E-01
   -2.2791092455E-01   -2.2485308796E-01   -2.2122983920E-01   -2.1707349388E-01
   -2.1241744803E-01   -2.0729606469E-01   -2.0174455708E-01   -1.9579886880E-01
   -1.8949555131E-01   -1.8287163918E-01   -1.7596452333E-01   -1.6881182271E-01
   -1.6145125476E-01   -1.5392050512E-01   -1.4625709688E-01   -1.3849825972E-01
   -1.3068079946E-01   -1.2284096820E-01   -1.1501433576E-01   -1.0723566255E-01
   -9.9538774187E-02   -9.1956438484E-02   -8.4520246900E-02   -7.7260488949E-02
   -7.0206039113E-02   -6.3384292251E-02   -5.6820965415E-02   -5.0540053847E-02
   -4.4563322553E-02   -3.8909867772E-02   -3.3597610507E-02   -2.8643537558E-02
   -2.4062284296E-02   -1.9866003582E-02   -1.6064532179E-02   -1.2665257008E-02
   -9.6730881547E-03   -7.0904108528E-03   -4.9178907759E-03   -3.1512481587E-03
   -1.7782830086E-03   -8.0803860939E-04   -2.4701316852E-04   -1.2367413475E-05
    2.8547284055E-05   -3.9514948587E-07   -8.7396463105E-06    4.4719932782E-07
 0. 0. 0. 0.
 0. 0. 0. 0.
 0. 0. 0. 0.
 0. 0. 0. 0.
 0. 0. 0. 0.
 0. 0. 0. 0.
 0. 0. 0. 0.
 0. 0. 0. 0.
 0. 0. 0. 0.
 0. 0. 0. 0.
 0. 0. 0. 0.
 0. 0. 0. 0.
 0. 0. 0. 0.
 0. 0. 0. 0.
 0. 0. 0. 0.
 0. 0. 0. 0.
 0. 0. 0. 0.
 0. 0. 0. 0.
 0. 0. 0. 0.
 0. 0. 0. 0.
 0. 0. 0. 0.
 0. 0. 0. 0.
 0. 0. 0. 0.
 0. 0. 0. 0.
 0. 0. 0. 0.
 0. 0. 0. 0.
 0. 0. 0. 0.
 0. 0. 0. 0.
 0. 0. 0. 0.
 0. 0. 0. 0.
 0. 0. 0. 0.
 0. 0. 0. 0.
 0. 0. 0. 0.
 0. 0. 0. 0.
 0. 0. 0. 0.
 0. 0. 0. 0.
 0. 0. 0. 0.
 0. 0. 0. 0.
 0. 0. 0. 0.
 0. 0. 0. 0.
 0. 0. 0. 0.
 0. 0. 0. 0.
 0. 0. 0. 0.
 0. 0. 0. 0.
 0. 0. 0. 0.
 0. 0. 0. 0.
 0. 0. 0. 0.
 0. 0. 0. 0.
 0. 0. 0. 0.
 0. 0. 0. 0.
 0. 0. 0. 0.
 0. 0. 0. 0.
 0. 0. 0. 0.
 0. 0. 0. 0.
 0. 0. 0. 0.
 0. 0. 0. 0.
 0. 0. 0. 0.
 0. 0. 0. 0.
 0. 0. 0. 0.
 0. 0. 0. 0.
 0. 0. 0. 0.
 0. 0. 0. 0.
 0. 0. 0. 0.
 0. 0. 0. 0.
 0. 0. 0. 0.
 0. 0. 0. 0.
 0. 0. 0. 0.
 0. 0. 0. 0.
 0. 0. 0. 0.
 0. 0. 0. 0.
 0. 0. 0. 0.
 0. 0. 0. 0.
 0. 0. 0. 0.
 0. 0. 0. 0.
 0. 0. 0. 0.
 0. 0. 0. 0.
 0. 0. 0. 0.
 0. 0. 0. 0.
 0. 0. 0. 0.
 0. 0. 0. 0.
 0. 0. 0. 0.
 0. 0. 0. 0.
 0. 0. 0. 0.
 0. 0. 0. 0.
 0. 0. 0. 0.
 0. 0. 0. 0.
 0. 0. 0. 0.
 0. 0. 0. 0.
 0. 0. 0. 0.
 0. 0. 0. 0.
 0. 0. 0. 0.
 0. 0. 0. 0.
 0. 0. 0. 0.
 0. 0. 0. 0.
 0. 0. 0. 0.
 0. 0. 0. 0.
 0. 0. 0. 0.
 0. 0. 0. 0.
 0. 0. 0. 0.
 0. 0. 0. 0.
 0. 0. 0. 0.
 0. 0. 0. 0.
 0. 0. 0. 0.
 0. 0. 0. 0.
 0. 0. 0. 0.
 0. 0. 0. 0.
 0. 0. 0. 0.
 0. 0. 0. 0.
 0. 0. 0. 0.
 0. 0. 0. 0.
 0. 0. 0. 0.
 0. 0. 0. 0.
 0. 0. 0. 0.
 0. 0. 0. 0.
 0. 0. 0. 0.
 0. 0. 0. 0.
 0. 0. 0. 0.
 0. 0. 0. 0.
 0. 0. 0. 0.
 0. 0. 0. 0.
 0. 0. 0. 0.
 0. 0. 0. 0.
 0. 0. 0. 0.
 0. 0. 0. 0.
 0. 0. 0. 0.
 0. 0. 0. 0.
 0. 0. 0. 0.
 0. 0. 0. 0.
 0. 0. 0. 0.
 0. 0. 0. 0.
 0. 0. 0. 0.
 0. 0. 0. 0.
 0. 0. 0. 0.
 0. 0. 0. 0.
 0. 0. 0. 0.
 0. 0. 0. 0.
 0. 0. 0. 0.
 0. 0. 0. 0.
 0. 0. 0. 0.
 0. 0. 0. 0.
 0. 0. 0. 0.
 0. 0. 0. 0.
 0. 0. 0. 0.
 0. 0. 0. 0.
 0. 0. 0. 0.
 0. 0. 0. 0.
 0. 0. 0. 0.
 0. 0. 0. 0.
 0. 0. 0. 0.
 0. 0. 0. 0.
 0. 0. 0. 0.
 0. 0. 0. 0.
 0. 0. 0. 0.
 0. 0. 0. 0.
 0. 0. 0. 0.
 0. 0. 0. 0.
 0. 0. 0. 0.
 0. 0. 0. 0.
 0. 0. 0. 0.
 0. 0. 0. 0.
 0. 0. 0. 0.
 0. 0. 0. 0.
 0. 0. 0. 0.
 0. 0. 0. 0.
 0. 0. 0. 0.
 0. 0. 0. 0.
 0. 0. 0. 0.
 0. 0. 0. 0.
 0. 0. 0. 0.
 0. 0. 0. 0.
 0. 0. 0. 0.
 0. 0. 0. 0.
 0. 0. 0. 0.
 0. 0. 0. 0.
 0. 0. 0. 0.
 0. 0. 0. 0.
 0. 0. 0. 0.
 0. 0. 0. 0.
 0. 0. 0. 0.
 0. 0. 0. 0.
 0. 0. 0. 0.
 0. 0. 0. 0.
 0. 0. 0. 0.
 0. 0. 0. 0.
 0. 0. 0. 0.
 0. 0. 0. 0.
 0. 0. 0. 0.
 0. 0. 0. 0.
 0. 0. 0. 0.
 0. 0. 0. 0.
 0. 0. 0. 0.
 0. 0. 0. 0.
 0. 0. 0. 0.
 0. 0. 0. 0.
 0. 0. 0. 0.
 0. 0. 0. 0.
 0. 0. 0. 0.
 0. 0. 0. 0.
 0. 0. 0. 0.
 0. 0. 0. 0.
 0. 0. 0. 0.
 0. 0. 0. 0.
 0. 0. 0. 0.
 0. 0. 0. 0.
 0. 0. 0. 0.
 0. 0. 0. 0.
 0. 0. 0. 0.
 0. 0. 0. 0.
 0. 0. 0. 0.
 0. 0. 0. 0.
 0. 0. 0. 0.
 0. 0. 0. 0.
 0. 0. 0. 0.
 0. 0. 0. 0.
 0. 0. 0. 0.
 0. 0. 0. 0.
 0. 0. 0. 0.
 0. 0. 0. 0.
 0. 0. 0. 0.
 0. 0. 0. 0.
 0. 0. 0. 0.
 0. 0. 0. 0.
 0. 0. 0. 0.
 0. 0. 0. 0.
 0. 0. 0. 0.
 0. 0. 0. 0.
 0. 0. 0. 0.
 0. 0. 0. 0.
 0. 0. 0. 0.
 0. 0. 0. 0.
 0. 0. 0. 0.
 0. 0. 0. 0.
 0. 0. 0. 0.
 0. 0. 0. 0.
 0. 0. 0. 0.
 0. 0. 0. 0.
 0. 0. 0. 0.
 0. 0. 0. 0.
 0. 0. 0. 0.
 0. 0. 0. 0.
 0. 0. 0. 0.
 0. 0. 0. 0.
 0. 0. 0. 0.
 0. 0. 0. 0.
 0. 0. 0. 0.
 0. 0. 0. 0.
 0. 0. 0. 0.
 0. 0. 0. 0.
 0. 0. 0. 0.
 0. 0. 0. 0.
 0. 0. 0. 0.
 0. 0. 0. 0.
 0. 0. 0. 0.
 0. 0. 0. 0.
 0. 0. 0. 0.
 0. 0. 0. 0.
 0. 0. 0. 0.
 0. 0. 0. 0.
 0. 0. 0. 0.
 0. 0. 0. 0.
 0. 0. 0. 0.
 0. 0. 0. 0.
 0. 0. 0. 0.
 0. 0. 0. 0.
 0. 0. 0. 0.
 0. 0. 0. 0.
 0. 0. 0. 0.
 0. 0. 0. 0.
 0. 0. 0. 0.
 0. 0. 0. 0.
 0. 0. 0. 0.
 0. 0. 0. 0.
 0. 0. 0. 0.
 0. 0. 0. 0.
 0. 0. 0. 0.
 0. 0. 0. 0.
 0. 0. 0. 0.
 0. 0. 0. 0.
 0. 0. 0. 0.
 0. 0. 0. 0.
 0. 0. 0. 0.
 0. 0. 0. 0.
 0. 0. 0. 0.
 0. 0. 0. 0.
 0. 0. 0. 0.
 0. 0. 0. 0.
 0. 0. 0. 0.
 0. 0. 0. 0.
 0. 0. 0. 0.
 0. 0. 0. 0.
 0. 0. 0. 0.
 0. 0. 0. 0.
 0. 0. 0. 0.
 0. 0. 0. 0.
 0. 0. 0. 0.
 0. 0. 0. 0.
 0. 0. 0. 0.
 0. 0. 0. 0.
 0. 0. 0. 0.
 0. 0. 0. 0.
 0. 0. 0. 0.
 0. 0. 0. 0.
 0. 0. 0. 0.
 0. 0. 0. 0.
 0. 0. 0. 0.
 0. 0. 0. 0.
 0. 0. 0. 0.
 0. 0. 0. 0.
 0. 0. 0. 0.
 0. 0. 0. 0.
 0. 0. 0. 0.
 0. 0. 0. 0.
 0. 0. 0. 0.
 0. 0. 0. 0.
 0. 0. 0. 0.
 0. 0. 0. 0.
 0. 0. 0. 0.
 0. 0. 0. 0.
 0. 0. 0. 0.
 0. 0. 0. 0.
 0. 0. 0. 0.
 0. 0. 0. 0.
 0. 0. 0. 0.
 0. 0. 0. 0.
 0. 0. 0. 0.
 0. 0. 0. 0.
 0. 0. 0. 0.
 0. 0. 0. 0.
 0. 0. 0. 0.
 0. 0. 0. 0.
 0. 0. 0. 0.
 0. 0. 0. 0.
 0. 0. 0. 0.
 0. 0. 0. 0.
 0. 0. 0. 0.
 0. 0. 0. 0.
 0. 0. 0. 0.
 0. 0. 0. 0.
 0. 0. 0. 0.
   </PP_BETA.2>
   <PP_BETA.3
       type="real"
       size="1672"
       columns="4"
       index="3"
       angular_momentum="1"
       cutoff_radius_index=" 316"
       cutoff_radius="    3.1500000000E+00" >
    2.6612267945E-11    2.7426360055E-04    1.0966603405E-03    2.4660098805E-03
    4.3803511269E-03    6.8369513904E-03    9.8323191090E-03    1.3362220040E-02
    1.7421696793E-02    2.2005091559E-02    2.7106071856E-02    3.2717659100E-02
    3.8832259774E-02    4.5441698962E-02    5.2537255988E-02    6.0109701885E-02
    6.8149338408E-02    7.6646038287E-02    8.5589286414E-02    9.4968221640E-02
    1.0477167887E-01    1.1498823111E-01    1.2560623119E-01    1.3661385273E-01
    1.4799913024E-01    1.5974999772E-01    1.7185432584E-01    1.8429995714E-01
    1.9707473899E-01    2.1016655427E-01    2.2356334928E-01    2.3725315881E-01
    2.5122412814E-01    2.6546453178E-01    2.7996278885E-01    2.9470747497E-01
    3.0968733054E-01    3.2489126541E-01    3.4030835983E-01    3.5592786185E-01
    3.7173918094E-01    3.8773187820E-01    4.0389565300E-01    4.2022032635E-01
    4.3669582104E-01    4.5331213881E-01    4.7005933477E-01    4.8692748923E-01
    5.0390667729E-01    5.2098693643E-01    5.3815823242E-01    5.5541042387E-01
    5.7273322585E-01    5.9011617274E-01    6.0754858090E-01    6.2501951142E-01
    6.4251773338E-01    6.6003168791E-01    6.7754945367E-01    6.9505871381E-01
    7.1254672515E-01    7.3000028962E-01    7.4740572856E-01    7.6474886015E-01
    7.8201498023E-01    7.9918884694E-01    8.1625466938E-01    8.3319610058E-01
    8.4999623504E-01    8.6663761097E-01    8.8310221750E-01    8.9937150693E-01
    9.1542641213E-01    9.3124736918E-01    9.4681434527E-01    9.6210687183E-01
    9.7710408289E-01    9.9178475852E-01    1.0061273732E+00    1.0201101493E+00
    1.0337111146E+00    1.0469081647E+00    1.0596791294E+00    1.0720018427E+00
    1.0838542162E+00    1.0952143159E+00    1.1060604411E+00    1.1163712061E+00
    1.1261256232E+00    1.1353031868E+00    1.1438839593E+00    1.1518486556E+00
    1.1591787289E+00    1.1658564547E+00    1.1718650141E+00    1.1771885744E+00
    1.1818123682E+00    1.1857227691E+00    1.1889073637E+00    1.1913550203E+00
    1.1930559526E+00    1.1940017787E+00    1.1941855749E+00    1.1936019234E+00
    1.1922469542E+00    1.1901183806E+00    1.1872155276E+00    1.1835393535E+00
    1.1790924643E+00    1.1738791208E+00    1.1679052376E+00    1.1611783753E+00
    1.1537077242E+00    1.1455040813E+00    1.1365798187E+00    1.1269488455E+00
    1.1166265618E+00    1.1056298058E+00    1.0939767941E+00    1.0816870559E+00
    1.0687813598E+00    1.0552816368E+00    1.0412108960E+00    1.0265931367E+00
    1.0114532558E+00    9.9581695139E-01    9.7971062294E-01    9.6316126908E-01
    9.4619638319E-01    9.2884384758E-01    9.1113182683E-01    8.9308866103E-01
    8.7474275945E-01    8.5612249535E-01    8.3725610249E-01    8.1817157408E-01
    7.9889656462E-01    7.7945829538E-01    7.5988346394E-01    7.4019815838E-01
    7.2042777667E-01    7.0059695163E-01    6.8072948196E-01    6.6084826967E-01
    6.4097526431E-01    6.2113141424E-01    6.0133662516E-01    5.8160972622E-01
    5.6196844366E-01    5.4242938219E-01    5.2300801416E-01    5.0371867633E-01
    4.8457457437E-01    4.6558779482E-01    4.4676932433E-01    4.2812907597E-01
    4.0967592238E-01    3.9141773528E-01    3.7336143108E-01    3.5551302213E-01
    3.3787767308E-01    3.2045976202E-01    3.0326294565E-01    2.8629022814E-01
    2.6954403289E-01    2.5302627680E-01    2.3673844626E-01    2.2068167436E-01
    2.0485681861E-01    1.8926453862E-01    1.7390537304E-01    1.5877981527E-01
    1.4388838711E-01    1.2923171015E-01    1.1481057395E-01    1.0062600073E-01
    8.6679306072E-02    7.2972155073E-02    5.9506613597E-02    4.6285194286E-02
    3.3310896963E-02    2.0587243173E-02    8.1183046395E-03   -4.0912745297E-03
   -1.6036262003E-02   -2.7710827807E-02   -3.9108541333E-02   -5.0222374708E-02
   -6.1044712428E-02   -7.1567367040E-02   -8.1781601203E-02   -9.1678153257E-02
   -1.0124728319E-01   -1.1047884762E-01   -1.1936238628E-01   -1.2788720440E-01
   -1.3604246077E-01   -1.4381725935E-01   -1.5120074420E-01   -1.5818219694E-01
   -1.6475113592E-01   -1.7089741660E-01   -1.7661133223E-01   -1.8188371406E-01
   -1.8670603054E-01   -1.9107048445E-01   -1.9497010744E-01   -1.9839885117E-01
   -2.0135167432E-01   -2.0382462478E-01   -2.0581491637E-01   -2.0732099942E-01
   -2.0834262466E-01   -2.0888089984E-01   -2.0893833851E-01   -2.0851890065E-01
   -2.0762802456E-01   -2.0627264983E-01   -2.0446123094E-01   -2.0220374143E-01
   -1.9951166832E-01   -1.9639799679E-01   -1.9287718501E-01   -1.8896512930E-01
   -1.8467911948E-01   -1.8003778482E-01   -1.7506103077E-01   -1.6976996660E-01
   -1.6418682462E-01   -1.5833487115E-01   -1.5223830988E-01   -1.4592217810E-01
   -1.3941223645E-01   -1.3273485279E-01   -1.2591688090E-01   -1.1898553483E-01
   -1.1196825948E-01   -1.0489259847E-01   -9.7786059882E-02   -9.0675980909E-02
   -8.3589392175E-02   -7.6552882648E-02   -6.9592465995E-02   -6.2733449284E-02
   -5.6000304865E-02   -4.9416546320E-02   -4.3004609282E-02   -3.6785737948E-02
   -3.0779878056E-02   -2.5005577066E-02   -1.9479892225E-02   -1.4218307195E-02
   -9.2346578201E-03   -4.5410675622E-03   -1.4789312450E-04    3.9363193432E-03
    7.7048671188E-03    1.1152912541E-02    1.4277493208E-02    1.7077520632E-02
    1.9553767218E-02    2.1708841632E-02    2.3547152643E-02    2.5074861548E-02
    2.6299823475E-02    2.7231517848E-02    2.7880968364E-02    2.8260652991E-02
    2.8384404455E-02    2.8267301794E-02    2.7925553667E-02    2.7376374040E-02
    2.6637851052E-02    2.5728809841E-02    2.4668670132E-02    2.3477299510E-02
    2.2174863243E-02    2.0781675779E-02    1.9318018808E-02    1.7804051016E-02
    1.6259595977E-02    1.4703986862E-02    1.3155592307E-02    1.1630435779E-02
    1.0144459306E-02    8.7146334258E-03    7.3566806895E-03    6.0846825025E-03
    4.9113157701E-03    3.8476277973E-03    2.9029632615E-03    2.0848610822E-03
    1.3993849780E-03    8.4906753455E-04    4.3393760537E-04    1.6387024360E-04
    3.0954973810E-05   -8.5243322018E-06   -4.1345515790E-06    2.8759231262E-06
    6.5189771792E-07   -5.3415385845E-07   -4.5081777680E-11   -3.7991966978E-10
    0.0000000000E+00    0.0000000000E+00    0.0000000000E+00    0.0000000000E+00
    0.0000000000E+00    0.0000000000E+00    0.0000000000E+00    0.0000000000E+00
    0.0000000000E+00    0.0000000000E+00    0.0000000000E+00    0.0000000000E+00
 0. 0. 0. 0.
 0. 0. 0. 0.
 0. 0. 0. 0.
 0. 0. 0. 0.
 0. 0. 0. 0.
 0. 0. 0. 0.
 0. 0. 0. 0.
 0. 0. 0. 0.
 0. 0. 0. 0.
 0. 0. 0. 0.
 0. 0. 0. 0.
 0. 0. 0. 0.
 0. 0. 0. 0.
 0. 0. 0. 0.
 0. 0. 0. 0.
 0. 0. 0. 0.
 0. 0. 0. 0.
 0. 0. 0. 0.
 0. 0. 0. 0.
 0. 0. 0. 0.
 0. 0. 0. 0.
 0. 0. 0. 0.
 0. 0. 0. 0.
 0. 0. 0. 0.
 0. 0. 0. 0.
 0. 0. 0. 0.
 0. 0. 0. 0.
 0. 0. 0. 0.
 0. 0. 0. 0.
 0. 0. 0. 0.
 0. 0. 0. 0.
 0. 0. 0. 0.
 0. 0. 0. 0.
 0. 0. 0. 0.
 0. 0. 0. 0.
 0. 0. 0. 0.
 0. 0. 0. 0.
 0. 0. 0. 0.
 0. 0. 0. 0.
 0. 0. 0. 0.
 0. 0. 0. 0.
 0. 0. 0. 0.
 0. 0. 0. 0.
 0. 0. 0. 0.
 0. 0. 0. 0.
 0. 0. 0. 0.
 0. 0. 0. 0.
 0. 0. 0. 0.
 0. 0. 0. 0.
 0. 0. 0. 0.
 0. 0. 0. 0.
 0. 0. 0. 0.
 0. 0. 0. 0.
 0. 0. 0. 0.
 0. 0. 0. 0.
 0. 0. 0. 0.
 0. 0. 0. 0.
 0. 0. 0. 0.
 0. 0. 0. 0.
 0. 0. 0. 0.
 0. 0. 0. 0.
 0. 0. 0. 0.
 0. 0. 0. 0.
 0. 0. 0. 0.
 0. 0. 0. 0.
 0. 0. 0. 0.
 0. 0. 0. 0.
 0. 0. 0. 0.
 0. 0. 0. 0.
 0. 0. 0. 0.
 0. 0. 0. 0.
 0. 0. 0. 0.
 0. 0. 0. 0.
 0. 0. 0. 0.
 0. 0. 0. 0.
 0. 0. 0. 0.
 0. 0. 0. 0.
 0. 0. 0. 0.
 0. 0. 0. 0.
 0. 0. 0. 0.
 0. 0. 0. 0.
 0. 0. 0. 0.
 0. 0. 0. 0.
 0. 0. 0. 0.
 0. 0. 0. 0.
 0. 0. 0. 0.
 0. 0. 0. 0.
 0. 0. 0. 0.
 0. 0. 0. 0.
 0. 0. 0. 0.
 0. 0. 0. 0.
 0. 0. 0. 0.
 0. 0. 0. 0.
 0. 0. 0. 0.
 0. 0. 0. 0.
 0. 0. 0. 0.
 0. 0. 0. 0.
 0. 0. 0. 0.
 0. 0. 0. 0.
 0. 0. 0. 0.
 0. 0. 0. 0.
 0. 0. 0. 0.
 0. 0. 0. 0.
 0. 0. 0. 0.
 0. 0. 0. 0.
 0. 0. 0. 0.
 0. 0. 0. 0.
 0. 0. 0. 0.
 0. 0. 0. 0.
 0. 0. 0. 0.
 0. 0. 0. 0.
 0. 0. 0. 0.
 0. 0. 0. 0.
 0. 0. 0. 0.
 0. 0. 0. 0.
 0. 0. 0. 0.
 0. 0. 0. 0.
 0. 0. 0. 0.
 0. 0. 0. 0.
 0. 0. 0. 0.
 0. 0. 0. 0.
 0. 0. 0. 0.
 0. 0. 0. 0.
 0. 0. 0. 0.
 0. 0. 0. 0.
 0. 0. 0. 0.
 0. 0. 0. 0.
 0. 0. 0. 0.
 0. 0. 0. 0.
 0. 0. 0. 0.
 0. 0. 0. 0.
 0. 0. 0. 0.
 0. 0. 0. 0.
 0. 0. 0. 0.
 0. 0. 0. 0.
 0. 0. 0. 0.
 0. 0. 0. 0.
 0. 0. 0. 0.
 0. 0. 0. 0.
 0. 0. 0. 0.
 0. 0. 0. 0.
 0. 0. 0. 0.
 0. 0. 0. 0.
 0. 0. 0. 0.
 0. 0. 0. 0.
 0. 0. 0. 0.
 0. 0. 0. 0.
 0. 0. 0. 0.
 0. 0. 0. 0.
 0. 0. 0. 0.
 0. 0. 0. 0.
 0. 0. 0. 0.
 0. 0. 0. 0.
 0. 0. 0. 0.
 0. 0. 0. 0.
 0. 0. 0. 0.
 0. 0. 0. 0.
 0. 0. 0. 0.
 0. 0. 0. 0.
 0. 0. 0. 0.
 0. 0. 0. 0.
 0. 0. 0. 0.
 0. 0. 0. 0.
 0. 0. 0. 0.
 0. 0. 0. 0.
 0. 0. 0. 0.
 0. 0. 0. 0.
 0. 0. 0. 0.
 0. 0. 0. 0.
 0. 0. 0. 0.
 0. 0. 0. 0.
 0. 0. 0. 0.
 0. 0. 0. 0.
 0. 0. 0. 0.
 0. 0. 0. 0.
 0. 0. 0. 0.
 0. 0. 0. 0.
 0. 0. 0. 0.
 0. 0. 0. 0.
 0. 0. 0. 0.
 0. 0. 0. 0.
 0. 0. 0. 0.
 0. 0. 0. 0.
 0. 0. 0. 0.
 0. 0. 0. 0.
 0. 0. 0. 0.
 0. 0. 0. 0.
 0. 0. 0. 0.
 0. 0. 0. 0.
 0. 0. 0. 0.
 0. 0. 0. 0.
 0. 0. 0. 0.
 0. 0. 0. 0.
 0. 0. 0. 0.
 0. 0. 0. 0.
 0. 0. 0. 0.
 0. 0. 0. 0.
 0. 0. 0. 0.
 0. 0. 0. 0.
 0. 0. 0. 0.
 0. 0. 0. 0.
 0. 0. 0. 0.
 0. 0. 0. 0.
 0. 0. 0. 0.
 0. 0. 0. 0.
 0. 0. 0. 0.
 0. 0. 0. 0.
 0. 0. 0. 0.
 0. 0. 0. 0.
 0. 0. 0. 0.
 0. 0. 0. 0.
 0. 0. 0. 0.
 0. 0. 0. 0.
 0. 0. 0. 0.
 0. 0. 0. 0.
 0. 0. 0. 0.
 0. 0. 0. 0.
 0. 0. 0. 0.
 0. 0. 0. 0.
 0. 0. 0. 0.
 0. 0. 0. 0.
 0. 0. 0. 0.
 0. 0. 0. 0.
 0. 0. 0. 0.
 0. 0. 0. 0.
 0. 0. 0. 0.
 0. 0. 0. 0.
 0. 0. 0. 0.
 0. 0. 0. 0.
 0. 0. 0. 0.
 0. 0. 0. 0.
 0. 0. 0. 0.
 0. 0. 0. 0.
 0. 0. 0. 0.
 0. 0. 0. 0.
 0. 0. 0. 0.
 0. 0. 0. 0.
 0. 0. 0. 0.
 0. 0. 0. 0.
 0. 0. 0. 0.
 0. 0. 0. 0.
 0. 0. 0. 0.
 0. 0. 0. 0.
 0. 0. 0. 0.
 0. 0. 0. 0.
 0. 0. 0. 0.
 0. 0. 0. 0.
 0. 0. 0. 0.
 0. 0. 0. 0.
 0. 0. 0. 0.
 0. 0. 0. 0.
 0. 0. 0. 0.
 0. 0. 0. 0.
 0. 0. 0. 0.
 0. 0. 0. 0.
 0. 0. 0. 0.
 0. 0. 0. 0.
 0. 0. 0. 0.
 0. 0. 0. 0.
 0. 0. 0. 0.
 0. 0. 0. 0.
 0. 0. 0. 0.
 0. 0. 0. 0.
 0. 0. 0. 0.
 0. 0. 0. 0.
 0. 0. 0. 0.
 0. 0. 0. 0.
 0. 0. 0. 0.
 0. 0. 0. 0.
 0. 0. 0. 0.
 0. 0. 0. 0.
 0. 0. 0. 0.
 0. 0. 0. 0.
 0. 0. 0. 0.
 0. 0. 0. 0.
 0. 0. 0. 0.
 0. 0. 0. 0.
 0. 0. 0. 0.
 0. 0. 0. 0.
 0. 0. 0. 0.
 0. 0. 0. 0.
 0. 0. 0. 0.
 0. 0. 0. 0.
 0. 0. 0. 0.
 0. 0. 0. 0.
 0. 0. 0. 0.
 0. 0. 0. 0.
 0. 0. 0. 0.
 0. 0. 0. 0.
 0. 0. 0. 0.
 0. 0. 0. 0.
 0. 0. 0. 0.
 0. 0. 0. 0.
 0. 0. 0. 0.
 0. 0. 0. 0.
 0. 0. 0. 0.
 0. 0. 0. 0.
 0. 0. 0. 0.
 0. 0. 0. 0.
 0. 0. 0. 0.
 0. 0. 0. 0.
 0. 0. 0. 0.
 0. 0. 0. 0.
 0. 0. 0. 0.
 0. 0. 0. 0.
 0. 0. 0. 0.
 0. 0. 0. 0.
 0. 0. 0. 0.
 0. 0. 0. 0.
 0. 0. 0. 0.
 0. 0. 0. 0.
 0. 0. 0. 0.
 0. 0. 0. 0.
 0. 0. 0. 0.
 0. 0. 0. 0.
 0. 0. 0. 0.
 0. 0. 0. 0.
 0. 0. 0. 0.
 0. 0. 0. 0.
 0. 0. 0. 0.
 0. 0. 0. 0.
 0. 0. 0. 0.
 0. 0. 0. 0.
 0. 0. 0. 0.
 0. 0. 0. 0.
 0. 0. 0. 0.
 0. 0. 0. 0.
 0. 0. 0. 0.
 0. 0. 0. 0.
 0. 0. 0. 0.
 0. 0. 0. 0.
 0. 0. 0. 0.
 0. 0. 0. 0.
 0. 0. 0. 0.
 0. 0. 0. 0.
 0. 0. 0. 0.
 0. 0. 0. 0.
 0. 0. 0. 0.
 0. 0. 0. 0.
   </PP_BETA.3>
   <PP_BETA.4
       type="real"
       size="1672"
       columns="4"
       index="4"
       angular_momentum="1"
       cutoff_radius_index=" 316"
       cutoff_radius="    3.1500000000E+00" >
   -6.7938021528E-11   -2.4329244742E-04   -9.7233272956E-04   -2.1846145479E-03
   -3.8759769750E-03   -6.0406286835E-03   -8.6711816158E-03   -1.1758693845E-02
   -1.5292721312E-02   -1.9261378052E-02   -2.3651404471E-02   -2.8448243162E-02
   -3.3636121703E-02   -3.9198141826E-02   -4.5116374288E-02   -5.1371958759E-02
   -5.7945207967E-02   -6.4815715347E-02   -7.1962465388E-02   -7.9363945857E-02
   -8.6998261087E-02   -9.4843245468E-02   -1.0287657631E-01   -1.1107588527E-01
   -1.1941886745E-01   -1.2788338744E-01   -1.3644758148E-01   -1.4508995500E-01
   -1.5378947477E-01   -1.6252565514E-01   -1.7127863751E-01   -1.8002926262E-01
   -1.8875913516E-01   -1.9745068004E-01   -2.0608719017E-01   -2.1465286523E-01
   -2.2313284127E-01   -2.3151321094E-01   -2.3978103421E-01   -2.4792433954E-01
   -2.5593211561E-01   -2.6379429363E-01   -2.7150172050E-01   -2.7904612308E-01
   -2.8642006384E-01   -2.9361688845E-01   -3.0063066559E-01   -3.0745611983E-01
   -3.1408855782E-01   -3.2052378880E-01   -3.2675803997E-01   -3.3278786751E-01
   -3.3861006417E-01   -3.4422156416E-01   -3.4961934625E-01   -3.5480033610E-01
   -3.5976130859E-01   -3.6449879118E-01   -3.6900896922E-01   -3.7328759414E-01
   -3.7732989541E-01   -3.8113049725E-01   -3.8468334091E-01   -3.8798161338E-01
   -3.9101768327E-01   -3.9378304479E-01   -3.9626827033E-01   -3.9846297239E-01
   -4.0035577546E-01   -4.0193429824E-01   -4.0318514681E-01   -4.0409391889E-01
   -4.0464521963E-01   -4.0482268901E-01   -4.0460904101E-01   -4.0398611448E-01
   -4.0293493559E-01   -4.0143579184E-01   -3.9946831715E-01   -3.9701158770E-01
   -3.9404422817E-01   -3.9054452768E-01   -3.8649056483E-01   -3.8186034115E-01
   -3.7663192213E-01   -3.7078358491E-01   -3.6429397174E-01   -3.5714224817E-01
   -3.4930826491E-01   -3.4077272224E-01   -3.3151733581E-01   -3.2152500266E-01
   -3.1077996622E-01   -2.9926797909E-01   -2.8697646228E-01   -2.7389465987E-01
   -2.6001378758E-01   -2.4532717431E-01   -2.2983039534E-01   -2.1352139604E-01
   -1.9640060506E-01   -1.7847103601E-01   -1.5973837649E-01   -1.4021106376E-01
   -1.1990034615E-01   -9.8820329419E-02   -7.6988007608E-02   -5.4423277640E-02
   -3.1148937385E-02   -7.1906668064E-03    1.7423008014E-02    4.2660768055E-02
    6.8488571718E-02    9.4869742235E-02    1.2176507184E-01    1.4913294234E-01
    1.7692946157E-01    2.0510861507E-01    2.3362243240E-01    2.6242116699E-01
    2.9145348891E-01    3.2066668914E-01    3.5000689457E-01    3.7941929220E-01
    4.0884836144E-01    4.3823811302E-01    4.6753233315E-01    4.9667483138E-01
    5.2560969064E-01    5.5428151802E-01    5.8263569452E-01    6.1061862234E-01
    6.3817796802E-01    6.6526289996E-01    6.9182431869E-01    7.1781507838E-01
    7.4319019820E-01    7.6790706204E-01    7.9192560530E-01    8.1520848743E-01
    8.3772124914E-01    8.5943245307E-01    8.8031380708E-01    9.0034026915E-01
    9.1949013329E-01    9.3774509570E-01    9.5509030078E-01    9.7151436659E-01
    9.8700938950E-01    1.0015709281E+00    1.0151979660E+00    1.0278928545E+00
    1.0396612346E+00    1.0505119390E+00    1.0604568756E+00    1.0695108918E+00
    1.0776916214E+00    1.0850193152E+00    1.0915166552E+00    1.0972085551E+00
    1.1021219478E+00    1.1062855604E+00    1.1097296796E+00    1.1124859081E+00
    1.1145869138E+00    1.1160661734E+00    1.1169577121E+00    1.1172958408E+00
    1.1171148933E+00    1.1164489635E+00    1.1153316464E+00    1.1137957827E+00
    1.1118732093E+00    1.1095945176E+00    1.1069888202E+00    1.1040835279E+00
    1.1009041385E+00    1.0974740377E+00    1.0938143142E+00    1.0899435893E+00
    1.0858778624E+00    1.0816303718E+00    1.0772114737E+00    1.0726285374E+00
    1.0678858584E+00    1.0629845896E+00    1.0579226894E+00    1.0526948885E+00
    1.0472926727E+00    1.0417042833E+00    1.0359147460E+00    1.0299058518E+00
    1.0236566519E+00    1.0171443738E+00    1.0103450553E+00    1.0032337153E+00
    9.9578459958E-01    9.8797142338E-01    9.7976762277E-01    9.7114661178E-01
    9.6208204417E-01    9.5254807771E-01    9.4251963895E-01    9.3197268665E-01
    9.2088447192E-01    9.0923379314E-01    8.9700124373E-01    8.8416945087E-01
    8.7072330343E-01    8.5665016722E-01    8.4194008597E-01    8.2658596638E-01
    8.1058374571E-01    7.9393254058E-01    7.7663477557E-01    7.5869629068E-01
    7.4012642636E-01    7.2093808549E-01    7.0114777146E-01    6.8077560182E-01
    6.5984529717E-01    6.3838414493E-01    6.1642293815E-01    5.9399588926E-01
    5.7114051929E-01    5.4789752273E-01    5.2431060904E-01    5.0042632131E-01
    4.7629383316E-01    4.5196472506E-01    4.2749274124E-01    4.0293352874E-01
    3.7834435998E-01    3.5378384076E-01    3.2931160525E-01    3.0498800008E-01
    2.8087375935E-01    2.5702967278E-01    2.3351624894E-01    2.1039337596E-01
    1.8771998182E-01    1.6555369636E-01    1.4395051755E-01    1.2296448391E-01
    1.0264735551E-01    8.3048305721E-02    6.4213625731E-02    4.6186443904E-02
    2.9006462038E-02    1.2709710309E-02   -2.6716773247E-03   -1.7109665578E-02
   -3.0580496665E-02   -4.3064844165E-02   -5.4547940649E-02   -6.5019678045E-02
   -7.4474679919E-02   -8.2912344869E-02   -9.0336860558E-02   -9.6757188133E-02
   -1.0218701672E-01   -1.0664468819E-01   -1.1015309237E-01   -1.1273953319E-01
   -1.1443556624E-01   -1.1527680882E-01   -1.1530272316E-01   -1.1455637424E-01
   -1.1308416339E-01   -1.1093553922E-01   -1.0816268761E-01   -1.0482020240E-01
   -1.0096473880E-01   -9.6654651693E-02   -9.1949620615E-02   -8.6910264134E-02
   -8.1597745549E-02   -7.6073383062E-02   -7.0398176087E-02   -6.4632562465E-02
   -5.8835869749E-02   -5.3065908304E-02   -4.7377766137E-02   -4.1820326564E-02
   -3.6441945343E-02   -3.1293227215E-02   -2.6421284567E-02   -2.1868736458E-02
   -1.7674295009E-02   -1.3872189203E-02   -1.0491972402E-02   -7.5582549815E-03
   -5.0920485685E-03   -3.1030492465E-03   -1.5937267891E-03   -6.0540024283E-04
   -1.1505767513E-04    3.1943915423E-05    1.5518634280E-05   -1.0705239469E-05
   -2.4278874045E-06    1.9756276149E-06    1.1268965426E-10    9.4967453450E-10
    0.0000000000E+00    0.0000000000E+00    0.0000000000E+00    0.0000000000E+00
    0.0000000000E+00    0.0000000000E+00    0.0000000000E+00    0.0000000000E+00
    0.0000000000E+00    0.0000000000E+00    0.0000000000E+00    0.0000000000E+00
 0. 0. 0. 0.
 0. 0. 0. 0.
 0. 0. 0. 0.
 0. 0. 0. 0.
 0. 0. 0. 0.
 0. 0. 0. 0.
 0. 0. 0. 0.
 0. 0. 0. 0.
 0. 0. 0. 0.
 0. 0. 0. 0.
 0. 0. 0. 0.
 0. 0. 0. 0.
 0. 0. 0. 0.
 0. 0. 0. 0.
 0. 0. 0. 0.
 0. 0. 0. 0.
 0. 0. 0. 0.
 0. 0. 0. 0.
 0. 0. 0. 0.
 0. 0. 0. 0.
 0. 0. 0. 0.
 0. 0. 0. 0.
 0. 0. 0. 0.
 0. 0. 0. 0.
 0. 0. 0. 0.
 0. 0. 0. 0.
 0. 0. 0. 0.
 0. 0. 0. 0.
 0. 0. 0. 0.
 0. 0. 0. 0.
 0. 0. 0. 0.
 0. 0. 0. 0.
 0. 0. 0. 0.
 0. 0. 0. 0.
 0. 0. 0. 0.
 0. 0. 0. 0.
 0. 0. 0. 0.
 0. 0. 0. 0.
 0. 0. 0. 0.
 0. 0. 0. 0.
 0. 0. 0. 0.
 0. 0. 0. 0.
 0. 0. 0. 0.
 0. 0. 0. 0.
 0. 0. 0. 0.
 0. 0. 0. 0.
 0. 0. 0. 0.
 0. 0. 0. 0.
 0. 0. 0. 0.
 0. 0. 0. 0.
 0. 0. 0. 0.
 0. 0. 0. 0.
 0. 0. 0. 0.
 0. 0. 0. 0.
 0. 0. 0. 0.
 0. 0. 0. 0.
 0. 0. 0. 0.
 0. 0. 0. 0.
 0. 0. 0. 0.
 0. 0. 0. 0.
 0. 0. 0. 0.
 0. 0. 0. 0.
 0. 0. 0. 0.
 0. 0. 0. 0.
 0. 0. 0. 0.
 0. 0. 0. 0.
 0. 0. 0. 0.
 0. 0. 0. 0.
 0. 0. 0. 0.
 0. 0. 0. 0.
 0. 0. 0. 0.
 0. 0. 0. 0.
 0. 0. 0. 0.
 0. 0. 0. 0.
 0. 0. 0. 0.
 0. 0. 0. 0.
 0. 0. 0. 0.
 0. 0. 0. 0.
 0. 0. 0. 0.
 0. 0. 0. 0.
 0. 0. 0. 0.
 0. 0. 0. 0.
 0. 0. 0. 0.
 0. 0. 0. 0.
 0. 0. 0. 0.
 0. 0. 0. 0.
 0. 0. 0. 0.
 0. 0. 0. 0.
 0. 0. 0. 0.
 0. 0. 0. 0.
 0. 0. 0. 0.
 0. 0. 0. 0.
 0. 0. 0. 0.
 0. 0. 0. 0.
 0. 0. 0. 0.
 0. 0. 0. 0.
 0. 0. 0. 0.
 0. 0. 0. 0.
 0. 0. 0. 0.
 0. 0. 0. 0.
 0. 0. 0. 0.
 0. 0. 0. 0.
 0. 0. 0. 0.
 0. 0. 0. 0.
 0. 0. 0. 0.
 0. 0. 0. 0.
 0. 0. 0. 0.
 0. 0. 0. 0.
 0. 0. 0. 0.
 0. 0. 0. 0.
 0. 0. 0. 0.
 0. 0. 0. 0.
 0. 0. 0. 0.
 0. 0. 0. 0.
 0. 0. 0. 0.
 0. 0. 0. 0.
 0. 0. 0. 0.
 0. 0. 0. 0.
 0. 0. 0. 0.
 0. 0. 0. 0.
 0. 0. 0. 0.
 0. 0. 0. 0.
 0. 0. 0. 0.
 0. 0. 0. 0.
 0. 0. 0. 0.
 0. 0. 0. 0.
 0. 0. 0. 0.
 0. 0. 0. 0.
 0. 0. 0. 0.
 0. 0. 0. 0.
 0. 0. 0. 0.
 0. 0. 0. 0.
 0. 0. 0. 0.
 0. 0. 0. 0.
 0. 0. 0. 0.
 0. 0. 0. 0.
 0. 0. 0. 0.
 0. 0. 0. 0.
 0. 0. 0. 0.
 0. 0. 0. 0.
 0. 0. 0. 0.
 0. 0. 0. 0.
 0. 0. 0. 0.
 0. 0. 0. 0.
 0. 0. 0. 0.
 0. 0. 0. 0.
 0. 0. 0. 0.
 0. 0. 0. 0.
 0. 0. 0. 0.
 0. 0. 0. 0.
 0. 0. 0. 0.
 0. 0. 0. 0.
 0. 0. 0. 0.
 0. 0. 0. 0.
 0. 0. 0. 0.
 0. 0. 0. 0.
 0. 0. 0. 0.
 0. 0. 0. 0.
 0. 0. 0. 0.
 0. 0. 0. 0.
 0. 0. 0. 0.
 0. 0. 0. 0.
 0. 0. 0. 0.
 0. 0. 0. 0.
 0. 0. 0. 0.
 0. 0. 0. 0.
 0. 0. 0. 0.
 0. 0. 0. 0.
 0. 0. 0. 0.
 0. 0. 0. 0.
 0. 0. 0. 0.
 0. 0. 0. 0.
 0. 0. 0. 0.
 0. 0. 0. 0.
 0. 0. 0. 0.
 0. 0. 0. 0.
 0. 0. 0. 0.
 0. 0. 0. 0.
 0. 0. 0. 0.
 0. 0. 0. 0.
 0. 0. 0. 0.
 0. 0. 0. 0.
 0. 0. 0. 0.
 0. 0. 0. 0.
 0. 0. 0. 0.
 0. 0. 0. 0.
 0. 0. 0. 0.
 0. 0. 0. 0.
 0. 0. 0. 0.
 0. 0. 0. 0.
 0. 0. 0. 0.
 0. 0. 0. 0.
 0. 0. 0. 0.
 0. 0. 0. 0.
 0. 0. 0. 0.
 0. 0. 0. 0.
 0. 0. 0. 0.
 0. 0. 0. 0.
 0. 0. 0. 0.
 0. 0. 0. 0.
 0. 0. 0. 0.
 0. 0. 0. 0.
 0. 0. 0. 0.
 0. 0. 0. 0.
 0. 0. 0. 0.
 0. 0. 0. 0.
 0. 0. 0. 0.
 0. 0. 0. 0.
 0. 0. 0. 0.
 0. 0. 0. 0.
 0. 0. 0. 0.
 0. 0. 0. 0.
 0. 0. 0. 0.
 0. 0. 0. 0.
 0. 0. 0. 0.
 0. 0. 0. 0.
 0. 0. 0. 0.
 0. 0. 0. 0.
 0. 0. 0. 0.
 0. 0. 0. 0.
 0. 0. 0. 0.
 0. 0. 0. 0.
 0. 0. 0. 0.
 0. 0. 0. 0.
 0. 0. 0. 0.
 0. 0. 0. 0.
 0. 0. 0. 0.
 0. 0. 0. 0.
 0. 0. 0. 0.
 0. 0. 0. 0.
 0. 0. 0. 0.
 0. 0. 0. 0.
 0. 0. 0. 0.
 0. 0. 0. 0.
 0. 0. 0. 0.
 0. 0. 0. 0.
 0. 0. 0. 0.
 0. 0. 0. 0.
 0. 0. 0. 0.
 0. 0. 0. 0.
 0. 0. 0. 0.
 0. 0. 0. 0.
 0. 0. 0. 0.
 0. 0. 0. 0.
 0. 0. 0. 0.
 0. 0. 0. 0.
 0. 0. 0. 0.
 0. 0. 0. 0.
 0. 0. 0. 0.
 0. 0. 0. 0.
 0. 0. 0. 0.
 0. 0. 0. 0.
 0. 0. 0. 0.
 0. 0. 0. 0.
 0. 0. 0. 0.
 0. 0. 0. 0.
 0. 0. 0. 0.
 0. 0. 0. 0.
 0. 0. 0. 0.
 0. 0. 0. 0.
 0. 0. 0. 0.
 0. 0. 0. 0.
 0. 0. 0. 0.
 0. 0. 0. 0.
 0. 0. 0. 0.
 0. 0. 0. 0.
 0. 0. 0. 0.
 0. 0. 0. 0.
 0. 0. 0. 0.
 0. 0. 0. 0.
 0. 0. 0. 0.
 0. 0. 0. 0.
 0. 0. 0. 0.
 0. 0. 0. 0.
 0. 0. 0. 0.
 0. 0. 0. 0.
 0. 0. 0. 0.
 0. 0. 0. 0.
 0. 0. 0. 0.
 0. 0. 0. 0.
 0. 0. 0. 0.
 0. 0. 0. 0.
 0. 0. 0. 0.
 0. 0. 0. 0.
 0. 0. 0. 0.
 0. 0. 0. 0.
 0. 0. 0. 0.
 0. 0. 0. 0.
 0. 0. 0. 0.
 0. 0. 0. 0.
 0. 0. 0. 0.
 0. 0. 0. 0.
 0. 0. 0. 0.
 0. 0. 0. 0.
 0. 0. 0. 0.
 0. 0. 0. 0.
 0. 0. 0. 0.
 0. 0. 0. 0.
 0. 0. 0. 0.
 0. 0. 0. 0.
 0. 0. 0. 0.
 0. 0. 0. 0.
 0. 0. 0. 0.
 0. 0. 0. 0.
 0. 0. 0. 0.
 0. 0. 0. 0.
 0. 0. 0. 0.
 0. 0. 0. 0.
 0. 0. 0. 0.
 0. 0. 0. 0.
 0. 0. 0. 0.
 0. 0. 0. 0.
 0. 0. 0. 0.
 0. 0. 0. 0.
 0. 0. 0. 0.
 0. 0. 0. 0.
 0. 0. 0. 0.
 0. 0. 0. 0.
 0. 0. 0. 0.
 0. 0. 0. 0.
 0. 0. 0. 0.
 0. 0. 0. 0.
 0. 0. 0. 0.
 0. 0. 0. 0.
 0. 0. 0. 0.
 0. 0. 0. 0.
 0. 0. 0. 0.
 0. 0. 0. 0.
 0. 0. 0. 0.
 0. 0. 0. 0.
 0. 0. 0. 0.
 0. 0. 0. 0.
 0. 0. 0. 0.
 0. 0. 0. 0.
 0. 0. 0. 0.
 0. 0. 0. 0.
 0. 0. 0. 0.
 0. 0. 0. 0.
 0. 0. 0. 0.
   </PP_BETA.4>
   <PP_BETA.5
       type="real"
       size="1672"
       columns="4"
       index="5"
       angular_momentum="2"
       cutoff_radius_index=" 316"
       cutoff_radius="    3.1500000000E+00" >
   -2.5937221121E-12   -1.0247722156E-06   -8.1877910949E-06   -2.7575412742E-05
   -6.5170410757E-05   -1.2680068087E-04   -2.1808853882E-04   -3.4440080618E-04
   -5.1079987622E-04   -7.2199594884E-04   -9.8230061948E-04   -1.2955820027E-03
   -1.6652215659E-03   -2.0940728439E-03   -2.5844221962E-03   -3.1379517672E-03
   -3.7557047957E-03   -4.4380534191E-03   -5.1846691034E-03   -5.9944958276E-03
   -6.8657261350E-03   -7.7957801630E-03   -8.7812877438E-03   -9.8180736677E-03
   -1.0901146183E-02   -1.2024688798E-02   -1.3182055447E-02   -1.4365769055E-02
   -1.5567523541E-02   -1.6778189282E-02   -1.7987822047E-02   -1.9185675397E-02
   -2.0360216550E-02   -2.1499145673E-02   -2.2589418575E-02   -2.3617272762E-02
   -2.4568256779E-02   -2.5427262788E-02   -2.6178562298E-02   -2.6805844958E-02
   -2.7292260306E-02   -2.7620462391E-02   -2.7772657113E-02   -2.7730652183E-02
   -2.7475909555E-02   -2.6989600186E-02   -2.6252660965E-02   -2.5245853665E-02
   -2.3949825736E-02   -2.2345172771E-02   -2.0412502465E-02   -1.8132499875E-02
   -1.5485993801E-02   -1.2454024074E-02   -9.0179095685E-03   -5.1593167275E-03
   -8.6032839164E-04    3.8964872723E-03    9.1280079563E-03    1.4850488721E-02
    2.1079494042E-02    2.7829830613E-02    3.5115481099E-02    4.2949539077E-02
    5.1344145348E-02    6.0310425850E-02    6.9858431351E-02    7.9997079151E-02
    9.0734096965E-02    1.0207596919E-01    1.1402788577E-01    1.2659369374E-01
    1.3977585181E-01    1.5357538793E-01    1.6799186019E-01    1.8302332113E-01
    1.9866628556E-01    2.1491570211E-01    2.3176492863E-01    2.4920571150E-01
    2.6722816899E-01    2.8582077884E-01    3.0497037001E-01    3.2466211879E-01
    3.4487954936E-01    3.6560453868E-01    3.8681732603E-01    4.0849652695E-01
    4.3061915182E-01    4.5316062899E-01    4.7609483247E-01    4.9939411418E-01
    5.2302934068E-01    5.4696993451E-01    5.7118391983E-01    5.9563797252E-01
    6.2029747456E-01    6.4512657260E-01    6.7008824069E-01    6.9514434697E-01
    7.2025572425E-01    7.4538224429E-01    7.7048289579E-01    7.9551586564E-01
    8.2043862360E-01    8.4520800993E-01    8.6978032600E-01    8.9411142751E-01
    9.1815682028E-01    9.4187175821E-01    9.6521134330E-01    9.8813062748E-01
    1.0105847159E+00    1.0325288717E+00    1.0539186214E+00    1.0747098617E+00
    1.0948589661E+00    1.1143228922E+00    1.1330592884E+00    1.1510266013E+00
    1.1681841811E+00    1.1844923871E+00    1.1999126915E+00    1.2144077818E+00
    1.2279416614E+00    1.2404797483E+00    1.2519889711E+00    1.2624378623E+00
    1.2717966491E+00    1.2800373408E+00    1.2871338123E+00    1.2930618845E+00
    1.2977993999E+00    1.3013262950E+00    1.3036246671E+00    1.3046788372E+00
    1.3044754073E+00    1.3030033129E+00    1.3002538704E+00    1.2962208180E+00
    1.2909003521E+00    1.2842911567E+00    1.2763944275E+00    1.2672138899E+00
    1.2567558098E+00    1.2450289994E+00    1.2320448154E+00    1.2178171515E+00
    1.2023624234E+00    1.1856995489E+00    1.1678499194E+00    1.1488373662E+00
    1.1286881202E+00    1.1074307644E+00    1.0850961803E+00    1.0617174889E+00
    1.0373299837E+00    1.0119710593E+00    9.8568013302E-01    9.5849856141E-01
    9.3046955057E-01    9.0163806154E-01    8.7205071032E-01    8.4175566305E-01
    8.1080252637E-01    7.7924223354E-01    7.4712692622E-01    7.1450983262E-01
    6.8144514193E-01    6.4798787564E-01    6.1419375596E-01    5.8011907166E-01
    5.4582054174E-01    5.1135517728E-01    4.7678014179E-01    4.4215261047E-01
    4.0752962877E-01    3.7296797054E-01    3.3852399628E-01    3.0425351180E-01
    2.7021162760E-01    2.3645261951E-01    2.0302979081E-01    1.6999533633E-01
    1.3740020878E-01    1.0529398772E-01    7.3724751530E-02    4.2738952709E-02
    1.2381296807E-02   -1.7305374713E-02   -4.6280196930E-02   -7.4504390885E-02
   -1.0194135803E-01   -1.2855674228E-01   -1.5431846788E-01   -1.7919677332E-01
   -2.0316424052E-01   -2.2619581881E-01   -2.4826884391E-01   -2.6936305178E-01
   -2.8946058736E-01   -3.0854600802E-01   -3.2660628191E-01   -3.4363078101E-01
   -3.5961126904E-01   -3.7454188414E-01   -3.8841911645E-01   -4.0124178053E-01
   -4.1301098282E-01   -4.2373008412E-01   -4.3340465718E-01   -4.4204243955E-01
   -4.4965328183E-01   -4.5624909133E-01   -4.6184377144E-01   -4.6645315679E-01
   -4.7009494431E-01   -4.7278862050E-01   -4.7455538506E-01   -4.7541807097E-01
   -4.7540106144E-01   -4.7453020378E-01   -4.7283272052E-01   -4.7033711800E-01
   -4.6707309263E-01   -4.6307143523E-01   -4.5836393351E-01   -4.5298327309E-01
   -4.4696293739E-01   -4.4033710648E-01   -4.3314055537E-01   -4.2540855189E-01
   -4.1717675456E-01   -4.0848111062E-01   -3.9935775463E-01   -3.8984290780E-01
   -3.7997277847E-01   -3.6978346389E-01   -3.5931085368E-01   -3.4859053523E-01
   -3.3765770118E-01   -3.2654705945E-01   -3.1529274589E-01   -3.0392823992E-01
   -2.9248628326E-01   -2.8099880215E-01   -2.6949683311E-01   -2.5801045251E-01
   -2.4656871016E-01   -2.3519956705E-01   -2.2392983745E-01   -2.1278513545E-01
   -2.0178982612E-01   -1.9096698143E-01   -1.8033834096E-01   -1.6992427755E-01
   -1.5974376789E-01   -1.4981436823E-01   -1.4015219502E-01   -1.3077191080E-01
   -1.2168671504E-01   -1.1290834010E-01   -1.0444705224E-01   -9.6311657599E-02
   -8.8509513059E-02   -8.1046541987E-02   -7.3927254677E-02   -6.7154773399E-02
   -6.0730861942E-02   -5.4655959473E-02   -4.8929218566E-02   -4.3548547225E-02
   -3.8510654693E-02   -3.3811100866E-02   -2.9444349086E-02   -2.5403822077E-02
   -2.1681960807E-02   -1.8270286014E-02   -1.5159462146E-02   -1.2339363440E-02
   -9.7991418847E-03   -7.5272968058E-03   -5.5117457541E-03   -3.7398964372E-03
   -2.1987193710E-03   -8.7482100023E-04    2.4548296835E-04    1.1760943812E-03
    1.9310598631E-03    2.5244987519E-03    2.9705316890E-03    3.2832120672E-03
    3.4764573829E-03    3.5639760714E-03    3.5592171796E-03    3.4752953185E-03
    3.3250050540E-03    3.1208245421E-03    2.8746072413E-03    2.5974761197E-03
    2.2999775034E-03    1.9920457048E-03    1.6829305476E-03    1.3811726179E-03
    1.0945679047E-03    8.3014100499E-04    5.9423987292E-04    3.9205956588E-04
    2.2722558237E-04    1.0585475995E-04    3.3161999985E-05    1.6396609518E-06
   -4.0019612347E-06    5.4089617024E-08    1.1995903258E-06   -5.9461496493E-08
 0. 0. 0. 0.
 0. 0. 0. 0.
 0. 0. 0. 0.
 0. 0. 0. 0.
 0. 0. 0. 0.
 0. 0. 0. 0.
 0. 0. 0. 0.
 0. 0. 0. 0.
 0. 0. 0. 0.
 0. 0. 0. 0.
 0. 0. 0. 0.
 0. 0. 0. 0.
 0. 0. 0. 0.
 0. 0. 0. 0.
 0. 0. 0. 0.
 0. 0. 0. 0.
 0. 0. 0. 0.
 0. 0. 0. 0.
 0. 0. 0. 0.
 0. 0. 0. 0.
 0. 0. 0. 0.
 0. 0. 0. 0.
 0. 0. 0. 0.
 0. 0. 0. 0.
 0. 0. 0. 0.
 0. 0. 0. 0.
 0. 0. 0. 0.
 0. 0. 0. 0.
 0. 0. 0. 0.
 0. 0. 0. 0.
 0. 0. 0. 0.
 0. 0. 0. 0.
 0. 0. 0. 0.
 0. 0. 0. 0.
 0. 0. 0. 0.
 0. 0. 0. 0.
 0. 0. 0. 0.
 0. 0. 0. 0.
 0. 0. 0. 0.
 0. 0. 0. 0.
 0. 0. 0. 0.
 0. 0. 0. 0.
 0. 0. 0. 0.
 0. 0. 0. 0.
 0. 0. 0. 0.
 0. 0. 0. 0.
 0. 0. 0. 0.
 0. 0. 0. 0.
 0. 0. 0. 0.
 0. 0. 0. 0.
 0. 0. 0. 0.
 0. 0. 0. 0.
 0. 0. 0. 0.
 0. 0. 0. 0.
 0. 0. 0. 0.
 0. 0. 0. 0.
 0. 0. 0. 0.
 0. 0. 0. 0.
 0. 0. 0. 0.
 0. 0. 0. 0.
 0. 0. 0. 0.
 0. 0. 0. 0.
 0. 0. 0. 0.
 0. 0. 0. 0.
 0. 0. 0. 0.
 0. 0. 0. 0.
 0. 0. 0. 0.
 0. 0. 0. 0.
 0. 0. 0. 0.
 0. 0. 0. 0.
 0. 0. 0. 0.
 0. 0. 0. 0.
 0. 0. 0. 0.
 0. 0. 0. 0.
 0. 0. 0. 0.
 0. 0. 0. 0.
 0. 0. 0. 0.
 0. 0. 0. 0.
 0. 0. 0. 0.
 0. 0. 0. 0.
 0. 0. 0. 0.
 0. 0. 0. 0.
 0. 0. 0. 0.
 0. 0. 0. 0.
 0. 0. 0. 0.
 0. 0. 0. 0.
 0. 0. 0. 0.
 0. 0. 0. 0.
 0. 0. 0. 0.
 0. 0. 0. 0.
 0. 0. 0. 0.
 0. 0. 0. 0.
 0. 0. 0. 0.
 0. 0. 0. 0.
 0. 0. 0. 0.
 0. 0. 0. 0.
 0. 0. 0. 0.
 0. 0. 0. 0.
 0. 0. 0. 0.
 0. 0. 0. 0.
 0. 0. 0. 0.
 0. 0. 0. 0.
 0. 0. 0. 0.
 0. 0. 0. 0.
 0. 0. 0. 0.
 0. 0. 0. 0.
 0. 0. 0. 0.
 0. 0. 0. 0.
 0. 0. 0. 0.
 0. 0. 0. 0.
 0. 0. 0. 0.
 0. 0. 0. 0.
 0. 0. 0. 0.
 0. 0. 0. 0.
 0. 0. 0. 0.
 0. 0. 0. 0.
 0. 0. 0. 0.
 0. 0. 0. 0.
 0. 0. 0. 0.
 0. 0. 0. 0.
 0. 0. 0. 0.
 0. 0. 0. 0.
 0. 0. 0. 0.
 0. 0. 0. 0.
 0. 0. 0. 0.
 0. 0. 0. 0.
 0. 0. 0. 0.
 0. 0. 0. 0.
 0. 0. 0. 0.
 0. 0. 0. 0.
 0. 0. 0. 0.
 0. 0. 0. 0.
 0. 0. 0. 0.
 0. 0. 0. 0.
 0. 0. 0. 0.
 0. 0. 0. 0.
 0. 0. 0. 0.
 0. 0. 0. 0.
 0. 0. 0. 0.
 0. 0. 0. 0.
 0. 0. 0. 0.
 0. 0. 0. 0.
 0. 0. 0. 0.
 0. 0. 0. 0.
 0. 0. 0. 0.
 0. 0. 0. 0.
 0. 0. 0. 0.
 0. 0. 0. 0.
 0. 0. 0. 0.
 0. 0. 0. 0.
 0. 0. 0. 0.
 0. 0. 0. 0.
 0. 0. 0. 0.
 0. 0. 0. 0.
 0. 0. 0. 0.
 0. 0. 0. 0.
 0. 0. 0. 0.
 0. 0. 0. 0.
 0. 0. 0. 0.
 0. 0. 0. 0.
 0. 0. 0. 0.
 0. 0. 0. 0.
 0. 0. 0. 0.
 0. 0. 0. 0.
 0. 0. 0. 0.
 0. 0. 0. 0.
 0. 0. 0. 0.
 0. 0. 0. 0.
 0. 0. 0. 0.
 0. 0. 0. 0.
 0. 0. 0. 0.
 0. 0. 0. 0.
 0. 0. 0. 0.
 0. 0. 0. 0.
 0. 0. 0. 0.
 0. 0. 0. 0.
 0. 0. 0. 0.
 0. 0. 0. 0.
 0. 0. 0. 0.
 0. 0. 0. 0.
 0. 0. 0. 0.
 0. 0. 0. 0.
 0. 0. 0. 0.
 0. 0. 0. 0.
 0. 0. 0. 0.
 0. 0. 0. 0.
 0. 0. 0. 0.
 0. 0. 0. 0.
 0. 0. 0. 0.
 0. 0. 0. 0.
 0. 0. 0. 0.
 0. 0. 0. 0.
 0. 0. 0. 0.
 0. 0. 0. 0.
 0. 0. 0. 0.
 0. 0. 0. 0.
 0. 0. 0. 0.
 0. 0. 0. 0.
 0. 0. 0. 0.
 0. 0. 0. 0.
 0. 0. 0. 0.
 0. 0. 0. 0.
 0. 0. 0. 0.
 0. 0. 0. 0.
 0. 0. 0. 0.
 0. 0. 0. 0.
 0. 0. 0. 0.
 0. 0. 0. 0.
 0. 0. 0. 0.
 0. 0. 0. 0.
 0. 0. 0. 0.
 0. 0. 0. 0.
 0. 0. 0. 0.
 0. 0. 0. 0.
 0. 0. 0. 0.
 0. 0. 0. 0.
 0. 0. 0. 0.
 0. 0. 0. 0.
 0. 0. 0. 0.
 0. 0. 0. 0.
 0. 0. 0. 0.
 0. 0. 0. 0.
 0. 0. 0. 0.
 0. 0. 0. 0.
 0. 0. 0. 0.
 0. 0. 0. 0.
 0. 0. 0. 0.
 0. 0. 0. 0.
 0. 0. 0. 0.
 0. 0. 0. 0.
 0. 0. 0. 0.
 0. 0. 0. 0.
 0. 0. 0. 0.
 0. 0. 0. 0.
 0. 0. 0. 0.
 0. 0. 0. 0.
 0. 0. 0. 0.
 0. 0. 0. 0.
 0. 0. 0. 0.
 0. 0. 0. 0.
 0. 0. 0. 0.
 0. 0. 0. 0.
 0. 0. 0. 0.
 0. 0. 0. 0.
 0. 0. 0. 0.
 0. 0. 0. 0.
 0. 0. 0. 0.
 0. 0. 0. 0.
 0. 0. 0. 0.
 0. 0. 0. 0.
 0. 0. 0. 0.
 0. 0. 0. 0.
 0. 0. 0. 0.
 0. 0. 0. 0.
 0. 0. 0. 0.
 0. 0. 0. 0.
 0. 0. 0. 0.
 0. 0. 0. 0.
 0. 0. 0. 0.
 0. 0. 0. 0.
 0. 0. 0. 0.
 0. 0. 0. 0.
 0. 0. 0. 0.
 0. 0. 0. 0.
 0. 0. 0. 0.
 0. 0. 0. 0.
 0. 0. 0. 0.
 0. 0. 0. 0.
 0. 0. 0. 0.
 0. 0. 0. 0.
 0. 0. 0. 0.
 0. 0. 0. 0.
 0. 0. 0. 0.
 0. 0. 0. 0.
 0. 0. 0. 0.
 0. 0. 0. 0.
 0. 0. 0. 0.
 0. 0. 0. 0.
 0. 0. 0. 0.
 0. 0. 0. 0.
 0. 0. 0. 0.
 0. 0. 0. 0.
 0. 0. 0. 0.
 0. 0. 0. 0.
 0. 0. 0. 0.
 0. 0. 0. 0.
 0. 0. 0. 0.
 0. 0. 0. 0.
 0. 0. 0. 0.
 0. 0. 0. 0.
 0. 0. 0. 0.
 0. 0. 0. 0.
 0. 0. 0. 0.
 0. 0. 0. 0.
 0. 0. 0. 0.
 0. 0. 0. 0.
 0. 0. 0. 0.
 0. 0. 0. 0.
 0. 0. 0. 0.
 0. 0. 0. 0.
 0. 0. 0. 0.
 0. 0. 0. 0.
 0. 0. 0. 0.
 0. 0. 0. 0.
 0. 0. 0. 0.
 0. 0. 0. 0.
 0. 0. 0. 0.
 0. 0. 0. 0.
 0. 0. 0. 0.
 0. 0. 0. 0.
 0. 0. 0. 0.
 0. 0. 0. 0.
 0. 0. 0. 0.
 0. 0. 0. 0.
 0. 0. 0. 0.
 0. 0. 0. 0.
 0. 0. 0. 0.
 0. 0. 0. 0.
 0. 0. 0. 0.
 0. 0. 0. 0.
 0. 0. 0. 0.
 0. 0. 0. 0.
 0. 0. 0. 0.
 0. 0. 0. 0.
 0. 0. 0. 0.
 0. 0. 0. 0.
 0. 0. 0. 0.
 0. 0. 0. 0.
 0. 0. 0. 0.
 0. 0. 0. 0.
 0. 0. 0. 0.
 0. 0. 0. 0.
 0. 0. 0. 0.
 0. 0. 0. 0.
 0. 0. 0. 0.
 0. 0. 0. 0.
 0. 0. 0. 0.
 0. 0. 0. 0.
 0. 0. 0. 0.
   </PP_BETA.5>
   <PP_BETA.6
       type="real"
       size="1672"
       columns="4"
       index="6"
       angular_momentum="2"
       cutoff_radius_index=" 316"
       cutoff_radius="    3.1500000000E+00" >
    5.6759230562E-13   -8.7148991325E-07   -6.9711980103E-06   -2.3523731110E-05
   -5.5746450534E-05   -1.0884579258E-04   -1.8801352129E-04   -2.9842289153E-04
   -4.4522470118E-04   -6.3354321162E-04   -8.6847191692E-04   -1.1550691426E-03
   -1.4983534566E-03   -1.9032988753E-03   -2.3748298500E-03   -2.9178160192E-03
   -3.5370667148E-03   -4.2373252114E-03   -5.0232627085E-03   -5.8994720392E-03
   -6.8704610987E-03   -7.9406459890E-03   -9.1143438767E-03   -1.0395765564E-02
   -1.1789007776E-02   -1.3298045158E-02   -1.4926722008E-02   -1.6678743723E-02
   -1.8557667995E-02   -2.0566895745E-02   -2.2709661821E-02   -2.4989025464E-02
   -2.7407860565E-02   -2.9968845723E-02   -3.2674454118E-02   -3.5526943234E-02
   -3.8528344432E-02   -4.1680452405E-02   -4.4984814542E-02   -4.8442720212E-02
   -5.2055189998E-02   -5.5822964909E-02   -5.9746495596E-02   -6.3825931585E-02
   -6.8061110576E-02   -7.2451547816E-02   -7.6996425585E-02   -8.1694582819E-02
   -8.6544504899E-02   -9.1544313639E-02   -9.6691757493E-02   -1.0198420202E-01
   -1.0741862064E-01   -1.1299158568E-01   -1.1869925980E-01   -1.2453738776E-01
   -1.3050128860E-01   -1.3658584827E-01   -1.4278551272E-01   -1.4909428147E-01
   -1.5550570169E-01   -1.6201286294E-01   -1.6860839235E-01   -1.7528445053E-01
   -1.8203272813E-01   -1.8884444299E-01   -1.9571033815E-01   -2.0262068052E-01
   -2.0956526031E-01   -2.1653339140E-01   -2.2351391245E-01   -2.3049518896E-01
   -2.3746511620E-01   -2.4441112319E-01   -2.5132017759E-01   -2.5817879167E-01
   -2.6497302931E-01   -2.7168851414E-01   -2.7831043883E-01   -2.8482357550E-01
   -2.9121228740E-01   -2.9746054182E-01   -3.0355192425E-01   -3.0946965395E-01
   -3.1519660076E-01   -3.2071530335E-01   -3.2600798892E-01   -3.3105659427E-01
   -3.3584278837E-01   -3.4034799648E-01   -3.4455342568E-01   -3.4844009207E-01
   -3.5198884936E-01   -3.5518041925E-01   -3.5799542313E-01   -3.6041441559E-01
   -3.6241791938E-01   -3.6398646196E-01   -3.6510061370E-01   -3.6574102751E-01
   -3.6588848012E-01   -3.6552391477E-01   -3.6462848541E-01   -3.6318360234E-01
   -3.6117097923E-01   -3.5857268136E-01   -3.5537117529E-01   -3.5154937958E-01
   -3.4709071663E-01   -3.4197916561E-01   -3.3619931621E-01   -3.2973642326E-01
   -3.2257646202E-01   -3.1470618402E-01   -3.0611317339E-01   -2.9678590342E-01
   -2.8671379327E-01   -2.7588726474E-01   -2.6429779872E-01   -2.5193799138E-01
   -2.3880160981E-01   -2.2488364685E-01   -2.1018037508E-01   -1.9468939960E-01
   -1.7840970949E-01   -1.6134172774E-01   -1.4348735934E-01   -1.2485003742E-01
   -1.0543476711E-01   -8.5248166993E-02   -6.4298507827E-02   -4.2595748373E-02
   -2.0151568065E-02    3.0206036949E-03    2.6905561844E-02    5.1486303795E-02
    7.6744011613E-02    1.0265803845E-01    1.2920589944E-01    1.5636326727E-01
    1.8410397255E-01    2.1240000930E-01    2.4122154552E-01    2.7053693923E-01
    3.0031275990E-01    3.3051381559E-01    3.6110318576E-01    3.9204225992E-01
    4.2329078226E-01    4.5480690216E-01    4.8654723076E-01    5.1846690359E-01
    5.5051964920E-01    5.8265786381E-01    6.1483269202E-01    6.4699411331E-01
    6.7909103451E-01    7.1107138790E-01    7.4288223498E-01    7.7446987566E-01
    8.0577996271E-01    8.3675762135E-01    8.6734757361E-01    8.9749426736E-01
    9.2714200974E-01    9.5623510455E-01    9.8471799350E-01    1.0125354009E+00
    1.0396324813E+00    1.0659549702E+00    1.0914493367E+00    1.1160629385E+00
    1.1397441784E+00    1.1624426616E+00    1.1841093542E+00    1.2046967416E+00
    1.2241589872E+00    1.2424520901E+00    1.2595340415E+00    1.2753649805E+00
    1.2899073468E+00    1.3031260319E+00    1.3149885267E+00    1.3254650659E+00
    1.3345287690E+00    1.3421557769E+00    1.3483253832E+00    1.3530201615E+00
    1.3562260864E+00    1.3579326498E+00    1.3581329606E+00    1.3568238850E+00
    1.3540058196E+00    1.3496821782E+00    1.3438591046E+00    1.3365455281E+00
    1.3277531658E+00    1.3174965281E+00    1.3057929165E+00    1.2926624152E+00
    1.2781278751E+00    1.2622148912E+00    1.2449517725E+00    1.2263695044E+00
    1.2065017042E+00    1.1853845692E+00    1.1630568173E+00    1.1395596204E+00
    1.1149365309E+00    1.0892334004E+00    1.0624982920E+00    1.0347813852E+00
    1.0061348751E+00    9.7661286339E-01    9.4627124486E-01    9.1516758652E-01
    8.8336100163E-01    8.5091201799E-01    8.1788244113E-01    7.8433521262E-01
    7.5033426393E-01    7.1594436623E-01    6.8123097644E-01    6.4626008007E-01
    6.1109803117E-01    5.7581139002E-01    5.4046675878E-01    5.0513061580E-01
    4.6986914902E-01    4.3474808887E-01    3.9983254130E-01    3.6518682147E-01
    3.3087428842E-01    2.9695718157E-01    2.6349645925E-01    2.3055163997E-01
    1.9818064701E-01    1.6643965653E-01    1.3538295019E-01    1.0506277224E-01
    7.5529192099E-02    4.6829972410E-02    1.9010443431E-02   -7.8866160480E-03
   -3.3821090728E-02   -5.8755633384E-02   -8.2655761612E-02   -1.0548994640E-01
   -1.2722969218E-01   -1.4784960799E-01   -1.6732746960E-01   -1.8564427222E-01
   -2.0278427361E-01   -2.1873502739E-01   -2.3348740647E-01   -2.4703561631E-01
   -2.5937719806E-01   -2.7051302148E-01   -2.8044726756E-01   -2.8918740092E-01
   -2.9674413200E-01   -3.0313136914E-01   -3.0836616064E-01   -3.1246862692E-01
   -3.1546188308E-01   -3.1737195200E-01   -3.1822766812E-01   -3.1806057250E-01
   -3.1690479910E-01   -3.1479695292E-01   -3.1177598022E-01   -3.0788303133E-01
   -3.0316131639E-01   -2.9765595452E-01   -2.9141381698E-01   -2.8448336471E-01
   -2.7691448085E-01   -2.6875829878E-01   -2.6006702626E-01   -2.5089376627E-01
   -2.4129233505E-01   -2.3131707807E-01   -2.2102268447E-01   -2.1046400065E-01
   -1.9969584368E-01   -1.8877281511E-01   -1.7774911564E-01   -1.6667836159E-01
   -1.5561340364E-01   -1.4460614852E-01   -1.3370738354E-01   -1.2296660881E-01
   -1.1243187057E-01   -1.0214958584E-01   -9.2164419223E-02   -8.2519105226E-02
   -7.3254473380E-02   -6.4409450041E-02   -5.6020364090E-02   -4.8120705621E-02
   -4.0741463907E-02   -3.3911046103E-02   -2.7655115271E-02   -2.1996535180E-02
   -1.6955292774E-02   -1.2548440863E-02   -8.7916733361E-03   -5.6930528510E-03
   -3.2474734269E-03   -1.4923572747E-03   -4.6154870725E-04   -2.2475838333E-05
    5.4862373382E-05   -7.4821688649E-07   -1.6558957081E-05    8.3589813407E-07
 0. 0. 0. 0.
 0. 0. 0. 0.
 0. 0. 0. 0.
 0. 0. 0. 0.
 0. 0. 0. 0.
 0. 0. 0. 0.
 0. 0. 0. 0.
 0. 0. 0. 0.
 0. 0. 0. 0.
 0. 0. 0. 0.
 0. 0. 0. 0.
 0. 0. 0. 0.
 0. 0. 0. 0.
 0. 0. 0. 0.
 0. 0. 0. 0.
 0. 0. 0. 0.
 0. 0. 0. 0.
 0. 0. 0. 0.
 0. 0. 0. 0.
 0. 0. 0. 0.
 0. 0. 0. 0.
 0. 0. 0. 0.
 0. 0. 0. 0.
 0. 0. 0. 0.
 0. 0. 0. 0.
 0. 0. 0. 0.
 0. 0. 0. 0.
 0. 0. 0. 0.
 0. 0. 0. 0.
 0. 0. 0. 0.
 0. 0. 0. 0.
 0. 0. 0. 0.
 0. 0. 0. 0.
 0. 0. 0. 0.
 0. 0. 0. 0.
 0. 0. 0. 0.
 0. 0. 0. 0.
 0. 0. 0. 0.
 0. 0. 0. 0.
 0. 0. 0. 0.
 0. 0. 0. 0.
 0. 0. 0. 0.
 0. 0. 0. 0.
 0. 0. 0. 0.
 0. 0. 0. 0.
 0. 0. 0. 0.
 0. 0. 0. 0.
 0. 0. 0. 0.
 0. 0. 0. 0.
 0. 0. 0. 0.
 0. 0. 0. 0.
 0. 0. 0. 0.
 0. 0. 0. 0.
 0. 0. 0. 0.
 0. 0. 0. 0.
 0. 0. 0. 0.
 0. 0. 0. 0.
 0. 0. 0. 0.
 0. 0. 0. 0.
 0. 0. 0. 0.
 0. 0. 0. 0.
 0. 0. 0. 0.
 0. 0. 0. 0.
 0. 0. 0. 0.
 0. 0. 0. 0.
 0. 0. 0. 0.
 0. 0. 0. 0.
 0. 0. 0. 0.
 0. 0. 0. 0.
 0. 0. 0. 0.
 0. 0. 0. 0.
 0. 0. 0. 0.
 0. 0. 0. 0.
 0. 0. 0. 0.
 0. 0. 0. 0.
 0. 0. 0. 0.
 0. 0. 0. 0.
 0. 0. 0. 0.
 0. 0. 0. 0.
 0. 0. 0. 0.
 0. 0. 0. 0.
 0. 0. 0. 0.
 0. 0. 0. 0.
 0. 0. 0. 0.
 0. 0. 0. 0.
 0. 0. 0. 0.
 0. 0. 0. 0.
 0. 0. 0. 0.
 0. 0. 0. 0.
 0. 0. 0. 0.
 0. 0. 0. 0.
 0. 0. 0. 0.
 0. 0. 0. 0.
 0. 0. 0. 0.
 0. 0. 0. 0.
 0. 0. 0. 0.
 0. 0. 0. 0.
 0. 0. 0. 0.
 0. 0. 0. 0.
 0. 0. 0. 0.
 0. 0. 0. 0.
 0. 0. 0. 0.
 0. 0. 0. 0.
 0. 0. 0. 0.
 0. 0. 0. 0.
 0. 0. 0. 0.
 0. 0. 0. 0.
 0. 0. 0. 0.
 0. 0. 0. 0.
 0. 0. 0. 0.
 0. 0. 0. 0.
 0. 0. 0. 0.
 0. 0. 0. 0.
 0. 0. 0. 0.
 0. 0. 0. 0.
 0. 0. 0. 0.
 0. 0. 0. 0.
 0. 0. 0. 0.
 0. 0. 0. 0.
 0. 0. 0. 0.
 0. 0. 0. 0.
 0. 0. 0. 0.
 0. 0. 0. 0.
 0. 0. 0. 0.
 0. 0. 0. 0.
 0. 0. 0. 0.
 0. 0. 0. 0.
 0. 0. 0. 0.
 0. 0. 0. 0.
 0. 0. 0. 0.
 0. 0. 0. 0.
 0. 0. 0. 0.
 0. 0. 0. 0.
 0. 0. 0. 0.
 0. 0. 0. 0.
 0. 0. 0. 0.
 0. 0. 0. 0.
 0. 0. 0. 0.
 0. 0. 0. 0.
 0. 0. 0. 0.
 0. 0. 0. 0.
 0. 0. 0. 0.
 0. 0. 0. 0.
 0. 0. 0. 0.
 0. 0. 0. 0.
 0. 0. 0. 0.
 0. 0. 0. 0.
 0. 0. 0. 0.
 0. 0. 0. 0.
 0. 0. 0. 0.
 0. 0. 0. 0.
 0. 0. 0. 0.
 0. 0. 0. 0.
 0. 0. 0. 0.
 0. 0. 0. 0.
 0. 0. 0. 0.
 0. 0. 0. 0.
 0. 0. 0. 0.
 0. 0. 0. 0.
 0. 0. 0. 0.
 0. 0. 0. 0.
 0. 0. 0. 0.
 0. 0. 0. 0.
 0. 0. 0. 0.
 0. 0. 0. 0.
 0. 0. 0. 0.
 0. 0. 0. 0.
 0. 0. 0. 0.
 0. 0. 0. 0.
 0. 0. 0. 0.
 0. 0. 0. 0.
 0. 0. 0. 0.
 0. 0. 0. 0.
 0. 0. 0. 0.
 0. 0. 0. 0.
 0. 0. 0. 0.
 0. 0. 0. 0.
 0. 0. 0. 0.
 0. 0. 0. 0.
 0. 0. 0. 0.
 0. 0. 0. 0.
 0. 0. 0. 0.
 0. 0. 0. 0.
 0. 0. 0. 0.
 0. 0. 0. 0.
 0. 0. 0. 0.
 0. 0. 0. 0.
 0. 0. 0. 0.
 0. 0. 0. 0.
 0. 0. 0. 0.
 0. 0. 0. 0.
 0. 0. 0. 0.
 0. 0. 0. 0.
 0. 0. 0. 0.
 0. 0. 0. 0.
 0. 0. 0. 0.
 0. 0. 0. 0.
 0. 0. 0. 0.
 0. 0. 0. 0.
 0. 0. 0. 0.
 0. 0. 0. 0.
 0. 0. 0. 0.
 0. 0. 0. 0.
 0. 0. 0. 0.
 0. 0. 0. 0.
 0. 0. 0. 0.
 0. 0. 0. 0.
 0. 0. 0. 0.
 0. 0. 0. 0.
 0. 0. 0. 0.
 0. 0. 0. 0.
 0. 0. 0. 0.
 0. 0. 0. 0.
 0. 0. 0. 0.
 0. 0. 0. 0.
 0. 0. 0. 0.
 0. 0. 0. 0.
 0. 0. 0. 0.
 0. 0. 0. 0.
 0. 0. 0. 0.
 0. 0. 0. 0.
 0. 0. 0. 0.
 0. 0. 0. 0.
 0. 0. 0. 0.
 0. 0. 0. 0.
 0. 0. 0. 0.
 0. 0. 0. 0.
 0. 0. 0. 0.
 0. 0. 0. 0.
 0. 0. 0. 0.
 0. 0. 0. 0.
 0. 0. 0. 0.
 0. 0. 0. 0.
 0. 0. 0. 0.
 0. 0. 0. 0.
 0. 0. 0. 0.
 0. 0. 0. 0.
 0. 0. 0. 0.
 0. 0. 0. 0.
 0. 0. 0. 0.
 0. 0. 0. 0.
 0. 0. 0. 0.
 0. 0. 0. 0.
 0. 0. 0. 0.
 0. 0. 0. 0.
 0. 0. 0. 0.
 0. 0. 0. 0.
 0. 0. 0. 0.
 0. 0. 0. 0.
 0. 0. 0. 0.
 0. 0. 0. 0.
 0. 0. 0. 0.
 0. 0. 0. 0.
 0. 0. 0. 0.
 0. 0. 0. 0.
 0. 0. 0. 0.
 0. 0. 0. 0.
 0. 0. 0. 0.
 0. 0. 0. 0.
 0. 0. 0. 0.
 0. 0. 0. 0.
 0. 0. 0. 0.
 0. 0. 0. 0.
 0. 0. 0. 0.
 0. 0. 0. 0.
 0. 0. 0. 0.
 0. 0. 0. 0.
 0. 0. 0. 0.
 0. 0. 0. 0.
 0. 0. 0. 0.
 0. 0. 0. 0.
 0. 0. 0. 0.
 0. 0. 0. 0.
 0. 0. 0. 0.
 0. 0. 0. 0.
 0. 0. 0. 0.
 0. 0. 0. 0.
 0. 0. 0. 0.
 0. 0. 0. 0.
 0. 0. 0. 0.
 0. 0. 0. 0.
 0. 0. 0. 0.
 0. 0. 0. 0.
 0. 0. 0. 0.
 0. 0. 0. 0.
 0. 0. 0. 0.
 0. 0. 0. 0.
 0. 0. 0. 0.
 0. 0. 0. 0.
 0. 0. 0. 0.
 0. 0. 0. 0.
 0. 0. 0. 0.
 0. 0. 0. 0.
 0. 0. 0. 0.
 0. 0. 0. 0.
 0. 0. 0. 0.
 0. 0. 0. 0.
 0. 0. 0. 0.
 0. 0. 0. 0.
 0. 0. 0. 0.
 0. 0. 0. 0.
 0. 0. 0. 0.
 0. 0. 0. 0.
 0. 0. 0. 0.
 0. 0. 0. 0.
 0. 0. 0. 0.
 0. 0. 0. 0.
 0. 0. 0. 0.
 0. 0. 0. 0.
 0. 0. 0. 0.
 0. 0. 0. 0.
 0. 0. 0. 0.
 0. 0. 0. 0.
 0. 0. 0. 0.
 0. 0. 0. 0.
 0. 0. 0. 0.
 0. 0. 0. 0.
 0. 0. 0. 0.
 0. 0. 0. 0.
 0. 0. 0. 0.
 0. 0. 0. 0.
 0. 0. 0. 0.
 0. 0. 0. 0.
 0. 0. 0. 0.
 0. 0. 0. 0.
 0. 0. 0. 0.
 0. 0. 0. 0.
 0. 0. 0. 0.
 0. 0. 0. 0.
 0. 0. 0. 0.
 0. 0. 0. 0.
 0. 0. 0. 0.
 0. 0. 0. 0.
 0. 0. 0. 0.
 0. 0. 0. 0.
 0. 0. 0. 0.
 0. 0. 0. 0.
 0. 0. 0. 0.
 0. 0. 0. 0.
   </PP_BETA.6>
   <PP_DIJ type="real"  size="  36" columns="4">
    1.0607254285E+01    0.0000000000E+00    0.0000000000E+00    0.0000000000E+00
    0.0000000000E+00    0.0000000000E+00    0.0000000000E+00    1.7212634979E+00
    0.0000000000E+00    0.0000000000E+00    0.0000000000E+00    0.0000000000E+00
    0.0000000000E+00    0.0000000000E+00    8.6591281244E+00    0.0000000000E+00
    0.0000000000E+00    0.0000000000E+00    0.0000000000E+00    0.0000000000E+00
    0.0000000000E+00    1.0491044303E+00    0.0000000000E+00    0.0000000000E+00
    0.0000000000E+00    0.0000000000E+00    0.0000000000E+00    0.0000000000E+00
   -2.7872489447E+00    0.0000000000E+00    0.0000000000E+00    0.0000000000E+00
    0.0000000000E+00    0.0000000000E+00    0.0000000000E+00   -1.7401665228E+00
   </PP_DIJ>
 </PP_NONLOCAL>
 <PP_PSWFC>
   <PP_CHI.1
       type="real"
       size="1672"
       columns="4"
       index="1"
       occupation="10.000"
       pseudo_energy="   -0.1555330936E+01"
       label="5D"
       l="2" >
    9.5278385875E-14    1.4385857979E-06    1.1506288939E-05    3.8820242889E-05
    9.1973629905E-05    1.7952374708E-04    3.0998012233E-04    4.9179269691E-04
    7.3334009078E-04    1.0429179672E-03    1.4287275130E-03    1.8988640495E-03
    2.4613057914E-03    3.1239027681E-03    3.8943659230E-03    4.7802564059E-03
    5.7889750736E-03    6.9277522127E-03    8.2036374986E-03    9.6234902057E-03
    1.1193969680E-02    1.2921526090E-02    1.4812391465E-02    1.6872571037E-02
    1.9107834894E-02    2.1523709959E-02    2.4125472304E-02    2.6918139809E-02
    2.9906465177E-02    3.3094929312E-02    3.6487735076E-02    4.0088801416E-02
    4.3901757893E-02    4.7929939600E-02    5.2176382481E-02    5.6643819064E-02
    6.1334674601E-02    6.6251063635E-02    7.1394786980E-02    7.6767329132E-02
    8.2369856107E-02    8.8203213709E-02    9.4267926235E-02    1.0056419560E-01
    1.0709190093E-01    1.1385059851E-01    1.2083952228E-01    1.2805758465E-01
    1.3550337783E-01    1.4317517551E-01    1.5107093501E-01    1.5918829988E-01
    1.6752460278E-01    1.7607686896E-01    1.8484181998E-01    1.9381587789E-01
    2.0299516982E-01    2.1237553291E-01    2.2195251966E-01    2.3172140359E-01
    2.4167718527E-01    2.5181459876E-01    2.6212811831E-01    2.7261196542E-01
    2.8326011619E-01    2.9406630903E-01    3.0502405262E-01    3.1612663413E-01
    3.2736712778E-01    3.3873840359E-01    3.5023313640E-01    3.6184381511E-01
    3.7356275216E-01    3.8538209317E-01    3.9729382682E-01    4.0928979484E-01
    4.2136170223E-01    4.3350112756E-01    4.4569953345E-01    4.5794827711E-01
    4.7023862104E-01    4.8256174380E-01    4.9490875078E-01    5.0727068514E-01
    5.1963853866E-01    5.3200326276E-01    5.4435577938E-01    5.5668699195E-01
    5.6898779634E-01    5.8124909166E-01    5.9346179120E-01    6.0561683310E-01
    6.1770519110E-01    6.2971788509E-01    6.4164599161E-01    6.5348065421E-01
    6.6521309367E-01    6.7683461807E-01    6.8833663269E-01    6.9971064978E-01
    7.1094829805E-01    7.2204133209E-01    7.3298164144E-01    7.4376125955E-01
    7.5437237244E-01    7.6480732716E-01    7.7505863992E-01    7.8511900409E-01
    7.9498129779E-01    8.0463859126E-01    8.1408415400E-01    8.2331146145E-01
    8.3231420155E-01    8.4108628087E-01    8.4962183049E-01    8.5791521145E-01
    8.6596102004E-01    8.7375409262E-01    8.8128951013E-01    8.8856260229E-01
    8.9556895149E-01    9.0230439619E-01    9.0876503414E-01    9.1494722518E-01
    9.2084759361E-01    9.2646303038E-01    9.3179069474E-01    9.3682801572E-01
    9.4157269309E-01    9.4602269809E-01    9.5017627378E-01    9.5403193500E-01
    9.5758846809E-01    9.6084493015E-01    9.6380064806E-01    9.6645521714E-01
    9.6880849946E-01    9.7086062187E-01    9.7261197370E-01    9.7406320415E-01
    9.7521521938E-01    9.7606917929E-01    9.7662649408E-01    9.7688882043E-01
    9.7685805748E-01    9.7653634254E-01    9.7592604651E-01    9.7502976909E-01
    9.7385033374E-01    9.7239078241E-01    9.7065437006E-01    9.6864455896E-01
    9.6636501283E-01    9.6381959071E-01    9.6101234076E-01    9.5794749382E-01
    9.5462945683E-01    9.5106280612E-01    9.4725228056E-01    9.4320277455E-01
    9.3891933099E-01    9.3440713404E-01    9.2967150186E-01    9.2471787926E-01
    9.1955183026E-01    9.1417903063E-01    9.0860526033E-01    9.0283639598E-01
    8.9687840324E-01    8.9073732927E-01    8.8441929505E-01    8.7793048787E-01
    8.7127715367E-01    8.6446558958E-01    8.5750213635E-01    8.5039317092E-01
    8.4314509902E-01    8.3576434783E-01    8.2825735873E-01    8.2063058011E-01
    8.1289046035E-01    8.0504344079E-01    7.9709594889E-01    7.8905439150E-01
    7.8092514822E-01    7.7271456497E-01    7.6442894758E-01    7.5607455565E-01
    7.4765759651E-01    7.3918421930E-01    7.3066050931E-01    7.2209248241E-01
    7.1348607971E-01    7.0484716233E-01    6.9618150647E-01    6.8749479855E-01
    6.7879263061E-01    6.7008049591E-01    6.6136378467E-01    6.5264778011E-01
    6.4393765458E-01    6.3523846601E-01    6.2655515446E-01    6.1789253896E-01
    6.0925531454E-01    6.0064804944E-01    5.9207518255E-01    5.8354102110E-01
    5.7504973849E-01    5.6660537238E-01    5.5821182295E-01    5.4987285145E-01
    5.4159207883E-01    5.3337298469E-01    5.2521890635E-01    5.1713303817E-01
    5.0911843108E-01    5.0117799221E-01    4.9331448485E-01    4.8553052847E-01
    4.7782859900E-01    4.7021102926E-01    4.6268000962E-01    4.5523758872E-01
    4.4788567448E-01    4.4062603518E-01    4.3346030080E-01    4.2638996437E-01
    4.1941638364E-01    4.1254078273E-01    4.0576425405E-01    3.9908776029E-01
    3.9251213651E-01    3.8603809245E-01    3.7966621484E-01    3.7339696993E-01
    3.6723070606E-01    3.6116765631E-01    3.5520794133E-01    3.4935157222E-01
    3.4359845341E-01    3.3794838577E-01    3.3240106968E-01    3.2695610819E-01
    3.2161301028E-01    3.1637119412E-01    3.1122999042E-01    3.0618864578E-01
    3.0124632616E-01    2.9640212027E-01    2.9165504311E-01    2.8700403939E-01
    2.8244798714E-01    2.7798570114E-01    2.7361593655E-01    2.6933739238E-01
    2.6514871505E-01    2.6104850192E-01    2.5703530479E-01    2.5310763343E-01
    2.4926395901E-01    2.4550271762E-01    2.4182231361E-01    2.3822112307E-01
    2.3469749712E-01    2.3124976525E-01    2.2787623857E-01    2.2457521308E-01
    2.2134497279E-01    2.1818379286E-01    2.1508994266E-01    2.1206168878E-01
    2.0909729795E-01    2.0619503992E-01    2.0335319028E-01    2.0057003318E-01
    1.9784386400E-01    1.9517299192E-01    1.9255574249E-01    1.8999046000E-01
    1.8747550986E-01    1.8500928090E-01    1.8259018751E-01    1.8021667179E-01
    1.7788720557E-01    1.7560029231E-01    1.7335446898E-01    1.7114830782E-01
    1.6898041797E-01    1.6684944711E-01    1.6475408289E-01    1.6269305438E-01
    1.6066513332E-01    1.5866913540E-01    1.5670392131E-01    1.5476839782E-01
    1.5286151870E-01    1.5098228555E-01    1.4912974857E-01    1.4730300721E-01
    1.4550121071E-01    1.4372355861E-01    1.4196930112E-01    1.4023773939E-01
    1.3852822571E-01    1.3684016365E-01    1.3517300808E-01    1.3352626492E-01
    1.3189949119E-01    1.3029229476E-01    1.2870433371E-01    1.2713531693E-01
    1.2558499492E-01    1.2405315273E-01    1.2253959100E-01    1.2104410073E-01
    1.1956647380E-01    1.1810650791E-01    1.1666400202E-01    1.1523875690E-01
    1.1383057533E-01    1.1243926211E-01    1.1106462398E-01    1.0970646964E-01
    1.0836460975E-01    1.0703885687E-01    1.0572902550E-01    1.0443493206E-01
    1.0315639483E-01    1.0189323402E-01    1.0064527165E-01    9.9412331664E-02
    9.8194239801E-02    9.6990823652E-02    9.5801912625E-02    9.4627337931E-02
    9.3466932572E-02    9.2320531329E-02    9.1187970747E-02    9.0069089121E-02
    8.8963726484E-02    8.7871724590E-02    8.6792926903E-02    8.5727178582E-02
    8.4674326467E-02    8.3634219064E-02    8.2606706534E-02    8.1591640675E-02
    8.0588874910E-02    7.9598264272E-02    7.8619665392E-02    7.7652936482E-02
    7.6697937323E-02    7.5754529250E-02    7.4822575137E-02    7.3901939387E-02
    7.2992487911E-02    7.2094088121E-02    7.1206608912E-02    7.0329920650E-02
    6.9463895156E-02    6.8608405694E-02    6.7763326956E-02    6.6928535051E-02
    6.6103907488E-02    6.5289323161E-02    6.4484662343E-02    6.3689806665E-02
    6.2904639103E-02    6.2129043971E-02    6.1362906900E-02    6.0606114831E-02
    5.9858555996E-02    5.9120119911E-02    5.8390697357E-02    5.7670180372E-02
    5.6958462237E-02    5.6255437460E-02    5.5561001766E-02    5.4875052086E-02
    5.4197486541E-02    5.3528204431E-02    5.2867106225E-02    5.2214093543E-02
    5.1569069151E-02    5.0931936942E-02    5.0302601930E-02    4.9680970233E-02
    4.9066949065E-02    4.8460446722E-02    4.7861372573E-02    4.7269637044E-02
    4.6685151611E-02    4.6107828787E-02    4.5537582108E-02    4.4974326128E-02
    4.4417976402E-02    4.3868449478E-02    4.3325662886E-02    4.2789535125E-02
    4.2259985657E-02    4.1736934890E-02    4.1220304172E-02    4.0710015781E-02
    4.0205992912E-02    3.9708159667E-02    3.9216441048E-02    3.8730762942E-02
    3.8251052116E-02    3.7777236204E-02    3.7309243697E-02    3.6847003938E-02
    3.6390447106E-02    3.5939504209E-02    3.5494107077E-02    3.5054188350E-02
    3.4619681470E-02    3.4190520670E-02    3.3766640968E-02    3.3347978155E-02
    3.2934468789E-02    3.2526050184E-02    3.2122660402E-02    3.1724238246E-02
    3.1330723247E-02    3.0942055663E-02    3.0558176462E-02    3.0179027321E-02
    2.9804550615E-02    2.9434689406E-02    2.9069387441E-02    2.8708589140E-02
    2.8352239588E-02    2.8000284530E-02    2.7652670361E-02    2.7309344119E-02
    2.6970253480E-02    2.6635346744E-02    2.6304572835E-02    2.5977881291E-02
    2.5655222255E-02    2.5336546470E-02    2.5021805272E-02    2.4710950581E-02
    2.4403934898E-02    2.4100711293E-02    2.3801233403E-02    2.3505455424E-02
    2.3213332101E-02    2.2924818727E-02    2.2639871134E-02    2.2358445685E-02
    2.2080499270E-02    2.1805989300E-02    2.1534873699E-02    2.1267110898E-02
    2.1002659832E-02    2.0741479932E-02    2.0483531116E-02    2.0228773789E-02
    1.9977168835E-02    1.9728677608E-02    1.9483261932E-02    1.9240884091E-02
    1.9001506827E-02    1.8765093331E-02    1.8531607239E-02    1.8301012631E-02
    1.8073274017E-02    1.7848356340E-02    1.7626224966E-02    1.7406845682E-02
    1.7190184688E-02    1.6976208594E-02    1.6764884417E-02    1.6556179570E-02
    1.6350061864E-02    1.6146499500E-02    1.5945461065E-02    1.5746915525E-02
    1.5550832225E-02    1.5357180882E-02    1.5165931580E-02    1.4977054766E-02
    1.4790521246E-02    1.4606302181E-02    1.4424369083E-02    1.4244693810E-02
    1.4067248560E-02    1.3892005872E-02    1.3718938617E-02    1.3548019998E-02
    1.3379223540E-02    1.3212523095E-02    1.3047892830E-02    1.2885307226E-02
    1.2724741078E-02    1.2566169485E-02    1.2409567850E-02    1.2254911875E-02
    1.2102177560E-02    1.1951341196E-02    1.1802379362E-02    1.1655268925E-02
    1.1509987032E-02    1.1366511109E-02    1.1224818858E-02    1.1084888253E-02
    1.0946697536E-02    1.0810225215E-02    1.0675450060E-02    1.0542351102E-02
    1.0410907625E-02    1.0281099169E-02    1.0152905520E-02    1.0026306717E-02
    9.9012830362E-03    9.7778149998E-03    9.6558833662E-03    9.5354691290E-03
    9.4165535148E-03    9.2991179795E-03    9.1831442059E-03    9.0686141012E-03
    8.9555097937E-03    8.8438136308E-03    8.7335081759E-03    8.6245762059E-03
    8.5170007089E-03    8.4107648810E-03    8.3058521247E-03    8.2022460457E-03
    8.0999304506E-03    7.9988893447E-03    7.8991069295E-03    7.8005676001E-03
    7.7032559433E-03    7.6071567348E-03    7.5122549373E-03    7.4185356982E-03
    7.3259843471E-03    7.2345863937E-03    7.1443275261E-03    7.0551936078E-03
    6.9671706762E-03    6.8802449403E-03    6.7944027788E-03    6.7096307377E-03
    6.6259155284E-03    6.5432440260E-03    6.4616032669E-03    6.3809804472E-03
    6.3013629204E-03    6.2227381959E-03    6.1450939367E-03    6.0684179579E-03
    5.9926982246E-03    5.9179228502E-03    5.8440800946E-03    5.7711583624E-03
    5.6991462012E-03    5.6280322998E-03    5.5578054864E-03    5.4884547270E-03
    5.4199691240E-03    5.3523379139E-03    5.2855504663E-03    5.2195962820E-03
    5.1544649914E-03    5.0901463529E-03    5.0266302515E-03    4.9639066972E-03
    4.9019658233E-03    4.8407978850E-03    4.7803932583E-03    4.7207424378E-03
    4.6618360358E-03    4.6036647808E-03    4.5462195158E-03    4.4894911972E-03
    4.4334708933E-03    4.3781497830E-03    4.3235191543E-03    4.2695704031E-03
    4.2162950319E-03    4.1636846484E-03    4.1117309643E-03    4.0604257938E-03
    4.0097610529E-03    3.9597287575E-03    3.9103210226E-03    3.8615300609E-03
    3.8133481817E-03    3.7657677897E-03    3.7187813837E-03    3.6723815558E-03
    3.6265609897E-03    3.5813124603E-03    3.5366288317E-03    3.4925030570E-03
    3.4489281767E-03    3.4058973174E-03    3.3634036916E-03    3.3214405957E-03
    3.2800014096E-03    3.2390795953E-03    3.1986686961E-03    3.1587623357E-03
    3.1193542169E-03    3.0804381209E-03    3.0420079060E-03    3.0040575072E-03
    2.9665809346E-03    2.9295722732E-03    2.8930256813E-03    2.8569353899E-03
    2.8212957020E-03    2.7861009912E-03    2.7513457013E-03    2.7170243454E-03
    2.6831315047E-03    2.6496618280E-03    2.6166100306E-03    2.5839708938E-03
    2.5517392639E-03    2.5199100512E-03    2.4884782296E-03    2.4574388355E-03
    2.4267869674E-03    2.3965177846E-03    2.3666265070E-03    2.3371084137E-03
    2.3079588432E-03    2.2791731916E-03    2.2507469128E-03    2.2226755172E-03
    2.1949545712E-03    2.1675796965E-03    2.1405465696E-03    2.1138509208E-03
    2.0874885335E-03    2.0614552440E-03    2.0357469405E-03    2.0103595624E-03
    1.9852890998E-03    1.9605315930E-03    1.9360831315E-03    1.9119398540E-03
    1.8880979469E-03    1.8645536446E-03    1.8413032284E-03    1.8183430260E-03
    1.7956694111E-03    1.7732788025E-03    1.7511676639E-03    1.7293325031E-03
    1.7077698715E-03    1.6864763636E-03    1.6654486165E-03    1.6446833093E-03
    1.6241771626E-03    1.6039269378E-03    1.5839294372E-03    1.5641815025E-03
    1.5446800154E-03    1.5254218962E-03    1.5064041039E-03    1.4876236355E-03
    1.4690775254E-03    1.4507628452E-03    1.4326767031E-03    1.4148162434E-03
    1.3971786462E-03    1.3797611267E-03    1.3625609350E-03    1.3455753557E-03
    1.3288017072E-03    1.3122373415E-03    1.2958796437E-03    1.2797260315E-03
    1.2637739552E-03    1.2480208966E-03    1.2324643693E-03    1.2171019179E-03
    1.2019311176E-03    1.1869495740E-03    1.1721549228E-03    1.1575448290E-03
    1.1431169871E-03    1.1288691201E-03    1.1147989799E-03    1.1009043462E-03
    1.0871830265E-03    1.0736328558E-03    1.0602516964E-03    1.0470374368E-03
    1.0339879925E-03    1.0211013048E-03    1.0083753406E-03    9.9580809255E-04
    9.8339757824E-04    9.7114184008E-04    9.5903894500E-04    9.4708698408E-04
    9.3528407232E-04    9.2362834828E-04    9.1211797380E-04    9.0075113373E-04
    8.8952603563E-04    8.7844090948E-04    8.6749400739E-04    8.5668360338E-04
    8.4600799300E-04    8.3546549319E-04    8.2505444189E-04    8.1477319786E-04
    8.0462014039E-04    7.9459366904E-04    7.8469220339E-04    7.7491418280E-04
    7.6525806613E-04    7.5572233156E-04    7.4630547626E-04    7.3700601623E-04
    7.2782248602E-04    7.1875343851E-04    7.0979744469E-04    7.0095309341E-04
    6.9221899118E-04    6.8359376194E-04    6.7507604684E-04    6.6666450402E-04
    6.5835780841E-04    6.5015465150E-04    6.4205374116E-04    6.3405380140E-04
    6.2615357221E-04    6.1835180932E-04    6.1064728402E-04    6.0303878298E-04
    5.9552510803E-04    5.8810507597E-04    5.8077751843E-04    5.7354128160E-04
    5.6639522614E-04    5.5933822692E-04    5.5236917292E-04    5.4548696696E-04
    5.3869052561E-04    5.3197877896E-04    5.2535067051E-04    5.1880515694E-04
    5.1234120796E-04    5.0595780619E-04    4.9965394695E-04    4.9342863811E-04
    4.8728089996E-04    4.8120976501E-04    4.7521427789E-04    4.6929349514E-04
    4.6344648511E-04    4.5767232778E-04    4.5197011464E-04    4.4633894851E-04
    4.4077794346E-04    4.3528622458E-04    4.2986292792E-04    4.2450720033E-04
    4.1921819930E-04    4.1399509285E-04    4.0883705940E-04    4.0374328763E-04
    3.9871297635E-04    3.9374533439E-04    3.8883958044E-04    3.8399494297E-04
    3.7921066008E-04    3.7448597938E-04    3.6982015787E-04    3.6521246186E-04
    3.6066216679E-04    3.5616855715E-04    3.5173092639E-04    3.4734857675E-04
    3.4302081921E-04    3.3874697332E-04    3.3452636717E-04    3.3035833720E-04
    3.2624222815E-04    3.2217739294E-04    3.1816319256E-04    3.1419899598E-04
    3.1028418006E-04    3.0641812941E-04    3.0260023635E-04    2.9882990077E-04
    2.9510653004E-04    2.9142953895E-04    2.8779834958E-04    2.8421239120E-04
    2.8067110025E-04    2.7717392016E-04    2.7372030133E-04    2.7030970100E-04
    2.6694158319E-04    2.6361541860E-04    2.6033068456E-04    2.5708686488E-04
    2.5388344985E-04    2.5071993607E-04    2.4759582648E-04    2.4451063016E-04
    2.4146386235E-04    2.3845504434E-04    2.3548370336E-04    2.3254937256E-04
    2.2965159091E-04    2.2678990312E-04    2.2396385959E-04    2.2117301632E-04
    2.1841693484E-04    2.1569518216E-04    2.1300733068E-04    2.1035295814E-04
    2.0773164754E-04    2.0514298706E-04    2.0258657006E-04    2.0006199493E-04
    1.9756886507E-04    1.9510678885E-04    1.9267537949E-04    1.9027425506E-04
    1.8790303837E-04    1.8556135694E-04    1.8324884294E-04    1.8096513310E-04
    1.7870986870E-04    1.7648269549E-04    1.7428326363E-04    1.7211122763E-04
    1.6996624632E-04    1.6784798279E-04    1.6575610429E-04    1.6369028226E-04
    1.6165019221E-04    1.5963551370E-04    1.5764593028E-04    1.5568112944E-04
    1.5374080258E-04    1.5182464493E-04    1.4993235551E-04    1.4806363711E-04
    1.4621819621E-04    1.4439574296E-04    1.4259599109E-04    1.4081865793E-04
    1.3906346431E-04    1.3733013456E-04    1.3561839642E-04    1.3392798102E-04
    1.3225862287E-04    1.3061005975E-04    1.2898203273E-04    1.2737428610E-04
    1.2578656733E-04    1.2421862704E-04    1.2267021895E-04    1.2114109985E-04
    1.1963102957E-04    1.1813977090E-04    1.1666708963E-04    1.1521275443E-04
    1.1377653685E-04    1.1235821132E-04    1.1095755504E-04    1.0957434801E-04
    1.0820837296E-04    1.0685941532E-04    1.0552726319E-04    1.0421170734E-04
    1.0291254110E-04    1.0162956040E-04    1.0036256371E-04    9.9111351998E-05
    9.7875728721E-05    9.6655499778E-05    9.5450473485E-05    9.4260460544E-05
    9.3085274016E-05    9.1924729288E-05    9.0778644044E-05    8.9646838241E-05
    8.8529134075E-05    8.7425355956E-05    8.6335330480E-05    8.5258886402E-05
    8.4195854609E-05    8.3146068092E-05    8.2109361924E-05    8.1085573227E-05
    8.0074541154E-05    7.9076106858E-05    7.8090113472E-05    7.7116406078E-05
    7.6154831690E-05    7.5205239224E-05    7.4267479478E-05    7.3341405107E-05
    7.2426870599E-05    7.1523732255E-05    7.0631848163E-05    6.9751078180E-05
    6.8881283904E-05    6.8022328658E-05    6.7174077465E-05    6.6336397031E-05
    6.5509155716E-05    6.4692223524E-05    6.3885472074E-05    6.3088774582E-05
    6.2302005845E-05    6.1525042216E-05    6.0757761590E-05    6.0000043377E-05
    5.9251768493E-05    5.8512819333E-05    5.7783079757E-05    5.7062435070E-05
    5.6350772005E-05    5.5647978706E-05    5.4953944706E-05    5.4268560917E-05
    5.3591719605E-05    5.2923314379E-05    5.2263240173E-05    5.1611393226E-05
    5.0967671072E-05    5.0331972516E-05    4.9704197626E-05    4.9084247714E-05
    4.8472025318E-05    4.7867434190E-05    4.7270379280E-05    4.6680766723E-05
    4.6098503819E-05    4.5523499023E-05    4.4955661932E-05    4.4394903264E-05
    4.3841134851E-05    4.3294269622E-05    4.2754221590E-05    4.2220905838E-05
    4.1694238504E-05    4.1174136774E-05    4.0660518861E-05    4.0153303998E-05
    3.9652412423E-05    3.9157765366E-05    3.8669285039E-05    3.8186894622E-05
    3.7710518249E-05    3.7240081000E-05    3.6775508889E-05    3.6316728849E-05
    3.5863668723E-05    3.5416257253E-05    3.4974424065E-05    3.4538099666E-05
    3.4107215424E-05    3.3681703562E-05    3.3261497149E-05    3.2846530085E-05
    3.2436737093E-05    3.2032053710E-05    3.1632416274E-05    3.1237761916E-05
    3.0848028549E-05    3.0463154861E-05    3.0083080301E-05    2.9707745073E-05
    2.9337090125E-05    2.8971057140E-05    2.8609588528E-05    2.8252627415E-05
    2.7900117634E-05    2.7552003721E-05    2.7208230898E-05    2.6868745072E-05
    2.6533492822E-05    2.6202421394E-05    2.5875478688E-05    2.5552613255E-05
    2.5233774284E-05    2.4918911601E-05    2.4607975652E-05    2.4300917503E-05
    2.3997688828E-05    2.3698241902E-05    2.3402529597E-05    2.3110505369E-05
    2.2822123255E-05    2.2537337864E-05    2.2256104370E-05    2.1978378505E-05
    2.1704116552E-05    2.1433275340E-05    2.1165812235E-05    2.0901685131E-05
    2.0640852451E-05    2.0383273132E-05    2.0128906625E-05    1.9877712883E-05
    1.9629652361E-05    1.9384686005E-05    1.9142775247E-05    1.8903881998E-05
    1.8667968648E-05    1.8434998049E-05    1.8204933522E-05    1.7977738839E-05
    1.7753378229E-05    1.7531816361E-05    1.7313018347E-05    1.7096949734E-05
    1.6883576496E-05    1.6672865032E-05    1.6464782161E-05    1.6259295112E-05
    1.6056371525E-05    1.5855979441E-05    1.5658087301E-05    1.5462663938E-05
    1.5269678572E-05    1.5079100809E-05    1.4890900633E-05    1.4705048400E-05
    1.4521514837E-05    1.4340271035E-05    1.4161288445E-05    1.3984538875E-05
    1.3809994482E-05    1.3637627771E-05    1.3467411591E-05    1.3299319126E-05
    1.3133323896E-05    1.2969399752E-05    1.2807520868E-05    1.2647661743E-05
    1.2489797190E-05    1.2333902339E-05    1.2179952627E-05    1.2027923801E-05
    1.1877791906E-05    1.1729533288E-05    1.1583124587E-05    1.1438542733E-05
    1.1295764946E-05    1.1154768728E-05    1.1015531861E-05    1.0878032404E-05
    1.0742248691E-05    1.0608159325E-05    1.0475743174E-05    1.0344979372E-05
    1.0215847312E-05    1.0088326643E-05    9.9623972690E-06    9.8380393426E-06
    9.7152332652E-06    9.5939596821E-06    9.4741994796E-06    9.3559337824E-06
    9.2391439502E-06    9.1238115754E-06    9.0099184793E-06    8.8974467102E-06
    8.7863785399E-06    8.6766964611E-06    8.5683831849E-06    8.4614216378E-06
    8.3557949590E-06    8.2514864979E-06    8.1484798116E-06    8.0467586619E-06
    7.9463070131E-06    7.8471090294E-06    7.7491490724E-06    7.6524116986E-06
    7.5568816570E-06    7.4625438866E-06    7.3693835144E-06    7.2773858526E-06
    7.1865363965E-06    7.0968208222E-06    7.0082249844E-06    6.9207349143E-06
    6.8343368170E-06    6.7490170696E-06    6.6647622191E-06    6.5815589802E-06
    6.4993942332E-06    6.4182550221E-06    6.3381285521E-06    6.2590021883E-06
    6.1808634531E-06    6.1037000245E-06    6.0274997342E-06    5.9522505654E-06
    5.8779406514E-06    5.8045582733E-06    5.7320918583E-06    5.6605299781E-06
    5.5898613466E-06    5.5200748186E-06    5.4511593878E-06    5.3831041853E-06
    5.3158984774E-06    5.2495316646E-06    5.1839932794E-06    5.1192729847E-06
    5.0553605726E-06    4.9922459622E-06    4.9299191985E-06    4.8683704506E-06
    4.8075900101E-06    4.7475682898E-06    4.6882958221E-06    4.6297632572E-06
    4.5719613621E-06    4.5148810190E-06    4.4585132237E-06    4.4028490843E-06
    4.3478798198E-06    4.2935967588E-06    4.2399913380E-06    4.1870551007E-06
    4.1347796961E-06    4.0831568771E-06    4.0321784998E-06    3.9818365216E-06
    3.9321230006E-06    3.8830300934E-06    3.8345500550E-06    3.7866752366E-06
    3.7393980851E-06    3.6927111412E-06    3.6466070392E-06    3.6010785047E-06
    3.5561183546E-06    3.5117194949E-06    3.4678749204E-06    3.4245777132E-06
    3.3818210416E-06    3.3395981594E-06    3.2979024042E-06    3.2567271969E-06
    3.2160660405E-06    3.1759125189E-06    3.1362602963E-06    3.0971031156E-06
    3.0584347981E-06    3.0202492419E-06    2.9825404214E-06    2.9453023861E-06
    2.9085292597E-06    2.8722152393E-06    2.8363545944E-06    2.8009416660E-06
    2.7659708655E-06    2.7314366742E-06    2.6973336424E-06    2.6636563881E-06
    2.6303995966E-06    2.5975580195E-06    2.5651264738E-06    2.5330998414E-06
    2.5014730677E-06    2.4702411616E-06    2.4393991938E-06    2.4089422970E-06
    2.3788656641E-06    2.3491645485E-06    2.3198342625E-06    2.2908701769E-06
    2.2622677205E-06    2.2340223789E-06    2.2061296941E-06    2.1785852638E-06
    2.1513847406E-06    2.1245238312E-06    2.0979982961E-06    2.0718039486E-06
    2.0459366542E-06    2.0203923302E-06    1.9951669445E-06    1.9702565156E-06
    1.9456571117E-06    1.9213648498E-06    1.8973758955E-06    1.8736864625E-06
    1.8502928113E-06    1.8271912495E-06    1.8043781304E-06    1.7818498530E-06
    1.7596028613E-06    1.7376336437E-06    1.7159387321E-06    1.6945147020E-06
    1.6733581717E-06    1.6524658014E-06    1.6318342932E-06    1.6114603903E-06
    1.5913408766E-06    1.5714725760E-06    1.5518523522E-06    1.5324771080E-06
    1.5133437847E-06    1.4944493620E-06    1.4757908573E-06    1.4573653250E-06
    1.4391698564E-06    1.4212015792E-06    1.4034576569E-06    1.3859352881E-06
    1.3686317069E-06    1.3515441816E-06    1.3346700146E-06    1.3180065420E-06
    1.3015511332E-06    1.2853011904E-06    1.2692541483E-06    1.2534074735E-06
    1.2377586643E-06    1.2223052502E-06    1.2070447915E-06    1.1919748791E-06
    1.1770931338E-06    1.1623972063E-06    1.1478847763E-06    1.1335535528E-06
    1.1194012732E-06    1.1054257033E-06    1.0916246366E-06    1.0779958943E-06
    1.0645373248E-06    1.0512468031E-06    1.0381222311E-06    1.0251615367E-06
    1.0123626737E-06    9.9972362134E-07    9.8724238426E-07    9.7491699192E-07
    9.6274549838E-07    9.5072598202E-07    9.3885654517E-07    9.2713531389E-07
    9.1556043762E-07    9.0413008890E-07    8.9284246309E-07    8.8169577807E-07
    8.7068827398E-07    8.5981821294E-07    8.4908387873E-07    8.3848357660E-07
    8.2801563293E-07    8.1767839501E-07    8.0747023076E-07    7.9738952847E-07
    7.8743469657E-07    7.7760416333E-07    7.6789637666E-07    7.5830980386E-07
    7.4884293135E-07    7.3949426446E-07    7.3026232717E-07    7.2114566190E-07
    7.1214282925E-07    7.0325240781E-07    6.9447299390E-07    6.8580320139E-07
    6.7724166144E-07    6.6878702230E-07    6.6043794911E-07    6.5219312366E-07
    6.4405124421E-07    6.3601102527E-07    6.2807119740E-07    6.2023050702E-07
    6.1248771618E-07    6.0484160241E-07    5.9729095850E-07    5.8983459230E-07
    5.8247132656E-07    5.7519999871E-07    5.6801946073E-07    5.6092857890E-07
    5.5392623367E-07    5.4701131948E-07    5.4018274456E-07    5.3343943078E-07
    5.2678031345E-07    5.2020434121E-07    5.1371047581E-07    5.0729769196E-07
    5.0096497719E-07    4.9471133165E-07    4.8853576798E-07    4.8243731116E-07
    4.7641499835E-07    4.7046787870E-07    4.6459501327E-07    4.5879547484E-07
    4.5306834773E-07    4.4741272775E-07    4.4182772195E-07    4.3631244857E-07
    4.3086603684E-07    4.2548762686E-07    4.2017636948E-07    4.1493142615E-07
    4.0975196879E-07    4.0463717966E-07    3.9958625123E-07    3.9459838605E-07
    3.8967279665E-07    3.8480870536E-07    3.8000534424E-07    3.7526195495E-07
    3.7057778860E-07    3.6595210567E-07    3.6138417584E-07    3.5687327796E-07
    3.5241869983E-07    3.4801973820E-07    3.4367569857E-07    3.3938589511E-07
    3.3514965057E-07    3.3096629614E-07    3.2683517137E-07    3.2275562408E-07
    3.1872701019E-07    3.1474869369E-07    3.1082004652E-07    3.0694044844E-07
    3.0310928697E-07    2.9932595729E-07    2.9558986209E-07    2.9190041158E-07
    2.8825702327E-07    2.8465912201E-07    2.8110613977E-07    2.7759751566E-07
    2.7413269578E-07    2.7071113313E-07    2.6733228757E-07    2.6399562568E-07
    2.6070062072E-07    2.5744675251E-07    2.5423350739E-07    2.5106037809E-07
    2.4792686368E-07    2.4483246951E-07    2.4177670708E-07    2.3875909399E-07
    2.3577915388E-07    2.3283641632E-07    2.2993041679E-07    2.2706069653E-07
    2.2422680254E-07    2.2142828745E-07    2.1866470949E-07    2.1593563242E-07
    2.1324062543E-07    2.1057926309E-07    2.0795112530E-07    2.0535579718E-07
    2.0279286905E-07    2.0026193635E-07    1.9776259955E-07    1.9529446414E-07
    1.9285714051E-07    1.9045024392E-07    1.8807339445E-07    1.8572621691E-07
    1.8340834080E-07    1.8111940026E-07    1.7885903397E-07    1.7662688514E-07
    1.7442260144E-07    1.7224583493E-07    1.7009624202E-07    1.6797348341E-07
    1.6587722404E-07    1.6380713303E-07    1.6176288363E-07    1.5974415317E-07
    1.5775062303E-07    1.5578197854E-07    1.5383790897E-07    1.5191810748E-07
    1.5002227105E-07    1.4815010045E-07    1.4630130019E-07    1.4447557846E-07
    1.4267264710E-07    1.4089222155E-07    1.3913402081E-07    1.3739776736E-07
    1.3568318719E-07    1.3399000967E-07    1.3231796758E-07    1.3066679703E-07
    1.2903623741E-07    1.2742603138E-07    1.2583592480E-07    1.2426566673E-07
    1.2271500934E-07    1.2118370789E-07    1.1967152072E-07    1.1817820918E-07
    1.1670353758E-07    1.1524727321E-07    1.1380918622E-07    1.1238904968E-07
    1.1098663945E-07    1.0960173422E-07    1.0823411543E-07    1.0688356725E-07
    1.0554987655E-07    1.0423283286E-07    1.0293222833E-07    1.0164785772E-07
    1.0037951834E-07    9.9127010036E-08    9.7890135157E-08    9.6668698518E-08
    9.5462507369E-08    9.4271371369E-08    9.3095102554E-08    9.1933515306E-08
    9.0786426326E-08    8.9653654604E-08    8.8535021391E-08    8.7430350169E-08
    8.6339466625E-08    8.5262198622E-08    8.4198376173E-08    8.3147831414E-08
    8.2110398576E-08    8.1085913961E-08    8.0074215917E-08    7.9075144807E-08
    7.8088542989E-08    7.7114254792E-08    7.6152126486E-08    7.5202006260E-08
    7.4263744201E-08    7.3337192267E-08    7.2422204264E-08    7.1518635825E-08
    7.0626344387E-08    6.9745189163E-08    6.8875031127E-08    6.8015732989E-08
    6.7167159173E-08    6.6329175795E-08    6.5501650642E-08    6.4684453156E-08
    6.3877454406E-08    6.3080527072E-08    6.2293545425E-08    6.1516385302E-08
    6.0748924095E-08    5.9991040725E-08    5.9242615623E-08    5.8503530717E-08
    5.7773669406E-08    5.7052916547E-08    5.6341158435E-08    5.5638282783E-08
    5.4944178708E-08    5.4258736710E-08    5.3581848656E-08    5.2913407765E-08
    5.2253308587E-08    5.1601446992E-08    5.0957720148E-08    5.0322026508E-08
    4.9694265791E-08    4.9074338970E-08    4.8462148255E-08    4.7857597076E-08
    4.7260590067E-08    4.6671033056E-08    4.6088833045E-08    4.5513898198E-08
    4.4946137827E-08    4.4385462373E-08    4.3831783397E-08    4.3285013566E-08
    4.2745066634E-08    4.2211857434E-08    4.1685301861E-08    4.1165316863E-08
    4.0651820423E-08    4.0144731548E-08    3.9643970256E-08    3.9149457565E-08
    3.8661115478E-08    3.8178866972E-08    3.7702635985E-08    3.7232347406E-08
    3.6767927062E-08    3.6309301706E-08    3.5856399004E-08    3.5409147526E-08
    3.4967476735E-08    3.4531316973E-08    3.4100599453E-08    3.3675256245E-08
    3.3255220269E-08    3.2840425282E-08    3.2430805868E-08    3.2026297428E-08
    3.1626836169E-08    3.1232359095E-08    3.0842803996E-08    3.0458109439E-08
    3.0078214757E-08    2.9703060043E-08    2.9332586135E-08    2.8966734611E-08
    2.8605447780E-08    2.8248668668E-08    2.7896341015E-08    2.7548409261E-08
    2.7204818543E-08    2.6865514679E-08    2.6530444166E-08    2.6199554169E-08
    2.5872792511E-08    2.5550107668E-08    2.5231448759E-08    2.4916765537E-08
    2.4606008385E-08    2.4299128302E-08    2.3996076900E-08    2.3696806396E-08
    2.3401269604E-08    2.3109419925E-08    2.2821211343E-08    2.2536598417E-08
    2.2255536273E-08    2.1977980595E-08    2.1703887624E-08    2.1433214144E-08
    2.1165917481E-08    2.0901955491E-08    2.0641286559E-08    2.0383869589E-08
    2.0129663995E-08    1.9878629703E-08    1.9630727134E-08    1.9385917206E-08
    1.9144161324E-08    1.8905421375E-08    1.8669659722E-08    1.8436839197E-08
    1.8206923098E-08    1.7979875179E-08    1.7755659647E-08    1.7534241157E-08
    1.7315584804E-08    1.7099656119E-08    1.6886421062E-08    1.6675846021E-08
    1.6467897801E-08    1.6262543623E-08    1.6059751115E-08    1.5859488312E-08
    1.5661723645E-08    1.5466425943E-08    1.5273564419E-08    1.5083108674E-08
    1.4895028688E-08    1.4709294814E-08    1.4525877777E-08    1.4344748667E-08
    1.4165878935E-08    1.3989240386E-08    1.3814805180E-08    1.3642545824E-08
    1.3472435167E-08    1.3304446397E-08    1.3138553037E-08    1.2974728942E-08
    1.2812948290E-08    1.2653185585E-08    1.2495415647E-08    1.2339613611E-08
    1.2185754921E-08    1.2033815330E-08    1.1883770892E-08    1.1735597960E-08
    1.1589273182E-08    1.1444773499E-08    1.1302076138E-08    1.1161158610E-08
    1.1021998710E-08    1.0884574506E-08    1.0748864341E-08    1.0614846831E-08
    1.0482500854E-08    1.0351805556E-08    1.0222740342E-08    1.0095284873E-08
    9.9694190638E-09    9.8451230819E-09    9.7223773406E-09    9.6011624982E-09
    9.4814594543E-09    9.3632493469E-09    9.2465135492E-09    9.1312336671E-09
    9.0173915363E-09    8.9049692190E-09    8.7939490012E-09    8.6843133901E-09
    8.5760451112E-09    8.4691271054E-09    8.3635425268E-09    8.2592747396E-09
    8.1563073153E-09    8.0546240310E-09    7.9542088659E-09    7.8550459995E-09
    7.7571198085E-09    7.6604148644E-09    7.5649159316E-09    7.4706079645E-09
    7.3774761051E-09    7.2855056811E-09    7.1946822029E-09    7.1049913621E-09
    7.0164190289E-09    6.9289512497E-09    6.8425742450E-09    6.7572744074E-09
    6.6730382992E-09    6.5898526504E-09    6.5077043566E-09    6.4265804769E-09
    6.3464682317E-09    6.2673550014E-09    6.1892283236E-09    6.1120758914E-09
    6.0358855516E-09    5.9606453024E-09    5.8863432922E-09    5.8129678167E-09
    5.7405073183E-09    5.6689503830E-09    5.5982857395E-09    5.5285022574E-09
    5.4595889450E-09    5.3915349477E-09    5.3243295464E-09    5.2579621558E-09
    5.1924223226E-09    5.1276997241E-09    5.0637841661E-09    5.0006655819E-09
   </PP_CHI.1>
   <PP_CHI.2
       type="real"
       size="1672"
       columns="4"
       index="2"
       occupation=" 2.000"
       pseudo_energy="   -0.8890198989E+00"
       label="6S"
       l="0" >
   -4.6448955793E-14    3.3283940422E-03    6.6574701877E-03    9.9879098230E-03
    1.3320392903E-02    1.6655597236E-02    1.9994197773E-02    2.3336865899E-02
    2.6684268731E-02    3.0037068413E-02    3.3395921428E-02    3.6761477908E-02
    4.0134380955E-02    4.3515265968E-02    4.6904759979E-02    5.0303480999E-02
    5.3712037376E-02    5.7131027160E-02    6.0561037481E-02    6.4002643943E-02
    6.7456410022E-02    7.0922886486E-02    7.4402610828E-02    7.7896106707E-02
    8.1403883413E-02    8.4926435338E-02    8.8464241476E-02    9.2017764927E-02
    9.5587452426E-02    9.9173733886E-02    1.0277702196E-01    1.0639771163E-01
    1.1003617978E-01    1.1369278487E-01    1.1736786649E-01    1.2106174510E-01
    1.2477472167E-01    1.2850707737E-01    1.3225907330E-01    1.3603095022E-01
    1.3982292834E-01    1.4363520704E-01    1.4746796473E-01    1.5132135863E-01
    1.5519552463E-01    1.5909057717E-01    1.6300660905E-01    1.6694369143E-01
    1.7090187368E-01    1.7488118337E-01    1.7888162620E-01    1.8290318599E-01
    1.8694582470E-01    1.9100948246E-01    1.9509407755E-01    1.9919950654E-01
    2.0332564432E-01    2.0747234421E-01    2.1163943808E-01    2.1582673646E-01
    2.2003402871E-01    2.2426108319E-01    2.2850764742E-01    2.3277344829E-01
    2.3705819227E-01    2.4136156564E-01    2.4568323472E-01    2.5002284614E-01
    2.5438002709E-01    2.5875438561E-01    2.6314551089E-01    2.6755297356E-01
    2.7197632601E-01    2.7641510270E-01    2.8086882053E-01    2.8533697915E-01
    2.8981906132E-01    2.9431453328E-01    2.9882284511E-01    3.0334343110E-01
    3.0787571014E-01    3.1241908611E-01    3.1697294826E-01    3.2153667160E-01
    3.2610961732E-01    3.3069113319E-01    3.3528055394E-01    3.3987720172E-01
    3.4448038646E-01    3.4908940630E-01    3.5370354803E-01    3.5832208746E-01
    3.6294428987E-01    3.6756941039E-01    3.7219669445E-01    3.7682537817E-01
    3.8145468877E-01    3.8608384497E-01    3.9071205744E-01    3.9533852912E-01
    3.9996245572E-01    4.0458302604E-01    4.0919942239E-01    4.1381082097E-01
    4.1841639230E-01    4.2301530152E-01    4.2760670884E-01    4.3218976988E-01
    4.3676363603E-01    4.4132745483E-01    4.4588037032E-01    4.5042152338E-01
    4.5495005210E-01    4.5946509212E-01    4.6396577694E-01    4.6845123827E-01
    4.7292060637E-01    4.7737301034E-01    4.8180757846E-01    4.8622343848E-01
    4.9061971795E-01    4.9499554452E-01    4.9935004619E-01    5.0368235168E-01
    5.0799159065E-01    5.1227689400E-01    5.1653739418E-01    5.2077222542E-01
    5.2498052404E-01    5.2916142869E-01    5.3331408062E-01    5.3743762397E-01
    5.4153120597E-01    5.4559397727E-01    5.4962509212E-01    5.5362370868E-01
    5.5758898923E-01    5.6152010046E-01    5.6541621366E-01    5.6927650503E-01
    5.7310015588E-01    5.7688635288E-01    5.8063428833E-01    5.8434316039E-01
    5.8801217330E-01    5.9164053767E-01    5.9522747071E-01    5.9877219646E-01
    6.0227394605E-01    6.0573195797E-01    6.0914547827E-01    6.1251376089E-01
    6.1583606783E-01    6.1911166947E-01    6.2233984481E-01    6.2551988173E-01
    6.2865107724E-01    6.3173273778E-01    6.3476417947E-01    6.3774472837E-01
    6.4067372080E-01    6.4355050355E-01    6.4637443424E-01    6.4914488154E-01
    6.5186122548E-01    6.5452285775E-01    6.5712918199E-01    6.5967961405E-01
    6.6217358236E-01    6.6461052813E-01    6.6698990576E-01    6.6931118304E-01
    6.7157384156E-01    6.7377737692E-01    6.7592129910E-01    6.7800513275E-01
    6.8002841751E-01    6.8199070829E-01    6.8389157564E-01    6.8573060599E-01
    6.8750740202E-01    6.8922158293E-01    6.9087278478E-01    6.9246066078E-01
    6.9398488156E-01    6.9544513556E-01    6.9684112924E-01    6.9817258742E-01
    6.9943925357E-01    7.0064089006E-01    7.0177727851E-01    7.0284822001E-01
    7.0385353540E-01    7.0479306554E-01    7.0566667159E-01    7.0647423520E-01
    7.0721565883E-01    7.0789086589E-01    7.0849980104E-01    7.0904243038E-01
    7.0951874162E-01    7.0992874432E-01    7.1027247002E-01    7.1054997246E-01
    7.1076132768E-01    7.1090663422E-01    7.1098601319E-01    7.1099960842E-01
    7.1094758654E-01    7.1083013708E-01    7.1064747254E-01    7.1039982840E-01
    7.1008746320E-01    7.0971065855E-01    7.0926971910E-01    7.0876497255E-01
    7.0819676963E-01    7.0756548397E-01    7.0687151211E-01    7.0611527336E-01
    7.0529720970E-01    7.0441778564E-01    7.0347748806E-01    7.0247682606E-01
    7.0141633073E-01    7.0029655495E-01    6.9911807318E-01    6.9788148115E-01
    6.9658739562E-01    6.9523645405E-01    6.9382931432E-01    6.9236665434E-01
    6.9084917171E-01    6.8927758335E-01    6.8765262505E-01    6.8597505110E-01
    6.8424563379E-01    6.8246516298E-01    6.8063444559E-01    6.7875430511E-01
    6.7682558106E-01    6.7484912845E-01    6.7282581722E-01    6.7075653165E-01
    6.6864216978E-01    6.6648364275E-01    6.6428187422E-01    6.6203779968E-01
    6.5975236579E-01    6.5742652972E-01    6.5506125845E-01    6.5265752803E-01
    6.5021632291E-01    6.4773863517E-01    6.4522546377E-01    6.4267781384E-01
    6.4009669586E-01    6.3748312492E-01    6.3483811993E-01    6.3216270285E-01
    6.2945789783E-01    6.2672473049E-01    6.2396422706E-01    6.2117741361E-01
    6.1836531520E-01    6.1552895508E-01    6.1266935390E-01    6.0978752886E-01
    6.0688449292E-01    6.0396125401E-01    6.0101881415E-01    5.9805816874E-01
    5.9508030572E-01    5.9208620474E-01    5.8907683648E-01    5.8605316176E-01
    5.8301613086E-01    5.7996668273E-01    5.7690574424E-01    5.7383422949E-01
    5.7075303904E-01    5.6766305924E-01    5.6456516154E-01    5.6146020180E-01
    5.5834901966E-01    5.5523243789E-01    5.5211126176E-01    5.4898627849E-01
    5.4585825660E-01    5.4272794541E-01    5.3959607449E-01    5.3646335314E-01
    5.3333046990E-01    5.3019809211E-01    5.2706686544E-01    5.2393741348E-01
    5.2081033737E-01    5.1768621543E-01    5.1456560281E-01    5.1144903117E-01
    5.0833700843E-01    5.0523001851E-01    5.0212852110E-01    4.9903295147E-01
    4.9594372031E-01    4.9286121361E-01    4.8978579248E-01    4.8671779323E-01
    4.8365752716E-01    4.8060528060E-01    4.7756131501E-01    4.7452586661E-01
    4.7149914998E-01    4.6848136075E-01    4.6547268330E-01    4.6247330093E-01
    4.5948339181E-01    4.5650312711E-01    4.5353267296E-01    4.5057219025E-01
    4.4762183471E-01    4.4468175699E-01    4.4175210278E-01    4.3883301292E-01
    4.3592462346E-01    4.3302706579E-01    4.3014046673E-01    4.2726494862E-01
    4.2440062940E-01    4.2154762272E-01    4.1870603801E-01    4.1587598057E-01
    4.1305755166E-01    4.1025084860E-01    4.0745596483E-01    4.0467298997E-01
    4.0190200996E-01    3.9914310708E-01    3.9639636007E-01    3.9366184416E-01
    3.9093963120E-01    3.8822978968E-01    3.8553238483E-01    3.8284747868E-01
    3.8017513014E-01    3.7751539506E-01    3.7486832627E-01    3.7223397372E-01
    3.6961238445E-01    3.6700360272E-01    3.6440767005E-01    3.6182462528E-01
    3.5925450461E-01    3.5669734171E-01    3.5415316772E-01    3.5162201135E-01
    3.4910389890E-01    3.4659885435E-01    3.4410689937E-01    3.4162805343E-01
    3.3916233378E-01    3.3670975558E-01    3.3427033186E-01    3.3184407365E-01
    3.2943098999E-01    3.2703108798E-01    3.2464437281E-01    3.2227084783E-01
    3.1991051460E-01    3.1756337289E-01    3.1522942078E-01    3.1290865466E-01
    3.1060106927E-01    3.0830665778E-01    3.0602541178E-01    3.0375732135E-01
    3.0150237509E-01    2.9926056016E-01    2.9703186230E-01    2.9481626589E-01
    2.9261375397E-01    2.9042430828E-01    2.8824790928E-01    2.8608453620E-01
    2.8393416708E-01    2.8179677876E-01    2.7967234697E-01    2.7756084632E-01
    2.7546225032E-01    2.7337653145E-01    2.7130366116E-01    2.6924360992E-01
    2.6719634720E-01    2.6516184158E-01    2.6314006067E-01    2.6113097124E-01
    2.5913453918E-01    2.5715072953E-01    2.5517950655E-01    2.5322083368E-01
    2.5127467362E-01    2.4934098830E-01    2.4741973896E-01    2.4551088613E-01
    2.4361438966E-01    2.4173020876E-01    2.3985830199E-01    2.3799862731E-01
    2.3615114207E-01    2.3431580306E-01    2.3249256652E-01    2.3068138814E-01
    2.2888222310E-01    2.2709502608E-01    2.2531975127E-01    2.2355635241E-01
    2.2180478278E-01    2.2006499523E-01    2.1833694219E-01    2.1662057570E-01
    2.1491584742E-01    2.1322270861E-01    2.1154111022E-01    2.0987100283E-01
    2.0821233671E-01    2.0656506179E-01    2.0492912773E-01    2.0330448391E-01
    2.0169107941E-01    2.0008886307E-01    1.9849778347E-01    1.9691778898E-01
    1.9534882772E-01    1.9379084761E-01    1.9224379637E-01    1.9070762154E-01
    1.8918227047E-01    1.8766769034E-01    1.8616382818E-01    1.8467063089E-01
    1.8318804520E-01    1.8171601774E-01    1.8025449501E-01    1.7880342340E-01
    1.7736274922E-01    1.7593241867E-01    1.7451237789E-01    1.7310257291E-01
    1.7170294973E-01    1.7031345429E-01    1.6893403248E-01    1.6756463012E-01
    1.6620519305E-01    1.6485566703E-01    1.6351599786E-01    1.6218613127E-01
    1.6086601302E-01    1.5955558887E-01    1.5825480459E-01    1.5696360595E-01
    1.5568193876E-01    1.5440974884E-01    1.5314698206E-01    1.5189358433E-01
    1.5064950159E-01    1.4941467984E-01    1.4818906515E-01    1.4697260362E-01
    1.4576524146E-01    1.4456692490E-01    1.4337760030E-01    1.4219721405E-01
    1.4102571268E-01    1.3986304278E-01    1.3870915102E-01    1.3756398421E-01
    1.3642748923E-01    1.3529961310E-01    1.3418030291E-01    1.3306950591E-01
    1.3196716945E-01    1.3087324099E-01    1.2978766815E-01    1.2871039865E-01
    1.2764138035E-01    1.2658056128E-01    1.2552788956E-01    1.2448331349E-01
    1.2344678151E-01    1.2241824221E-01    1.2139764432E-01    1.2038493674E-01
    1.1938006852E-01    1.1838298889E-01    1.1739364722E-01    1.1641199306E-01
    1.1543797613E-01    1.1447154631E-01    1.1351265366E-01    1.1256124842E-01
    1.1161728101E-01    1.1068070202E-01    1.0975146222E-01    1.0882951259E-01
    1.0791480426E-01    1.0700728858E-01    1.0610691706E-01    1.0521364143E-01
    1.0432741359E-01    1.0344818565E-01    1.0257590992E-01    1.0171053888E-01
    1.0085202525E-01    1.0000032191E-01    9.9155381975E-02    9.8317158742E-02
    9.7485605723E-02    9.6660676631E-02    9.5842325389E-02    9.5030506128E-02
    9.4225173185E-02    9.3426281110E-02    9.2633784663E-02    9.1847638817E-02
    9.1067798755E-02    9.0294219876E-02    8.9526857794E-02    8.8765668336E-02
    8.8010607547E-02    8.7261631687E-02    8.6518697233E-02    8.5781760883E-02
    8.5050779548E-02    8.4325710363E-02    8.3606510680E-02    8.2893138069E-02
    8.2185550324E-02    8.1483705456E-02    8.0787561700E-02    8.0097077510E-02
    7.9412211563E-02    7.8732922756E-02    7.8059170210E-02    7.7390913266E-02
    7.6728111488E-02    7.6070724665E-02    7.5418712804E-02    7.4772036138E-02
    7.4130655122E-02    7.3494530431E-02    7.2863622967E-02    7.2237893852E-02
    7.1617304430E-02    7.1001816269E-02    7.0391391158E-02    6.9785991110E-02
    6.9185578358E-02    6.8590115357E-02    6.7999564785E-02    6.7413889542E-02
    6.6833052745E-02    6.6257017737E-02    6.5685748079E-02    6.5119207551E-02
    6.4557360157E-02    6.4000170116E-02    6.3447601869E-02    6.2899620075E-02
    6.2356189612E-02    6.1817275575E-02    6.1282843277E-02    6.0752858248E-02
    6.0227286236E-02    5.9706093202E-02    5.9189245326E-02    5.8676709001E-02
    5.8168450834E-02    5.7664437648E-02    5.7164636479E-02    5.6669014574E-02
    5.6177539394E-02    5.5690178610E-02    5.5206900107E-02    5.4727671977E-02
    5.4252462523E-02    5.3781240258E-02    5.3313973902E-02    5.2850632383E-02
    5.2391184835E-02    5.1935600602E-02    5.1483849229E-02    5.1035900468E-02
    5.0591724275E-02    5.0151290809E-02    4.9714570432E-02    4.9281533708E-02
    4.8852151401E-02    4.8426394475E-02    4.8004234096E-02    4.7585641626E-02
    4.7170588626E-02    4.6759046854E-02    4.6350988264E-02    4.5946385005E-02
    4.5545209421E-02    4.5147434050E-02    4.4753031623E-02    4.4361975062E-02
    4.3974237481E-02    4.3589792183E-02    4.3208612663E-02    4.2830672602E-02
    4.2455945869E-02    4.2084406520E-02    4.1716028799E-02    4.1350787132E-02
    4.0988656129E-02    4.0629610586E-02    4.0273625479E-02    3.9920675966E-02
    3.9570737385E-02    3.9223785254E-02    3.8879795269E-02    3.8538743305E-02
    3.8200605412E-02    3.7865357817E-02    3.7532976921E-02    3.7203439301E-02
    3.6876721703E-02    3.6552801050E-02    3.6231654433E-02    3.5913259113E-02
    3.5597592522E-02    3.5284632259E-02    3.4974356091E-02    3.4666741952E-02
    3.4361767940E-02    3.4059412318E-02    3.3759653514E-02    3.3462470117E-02
    3.3167840878E-02    3.2875744710E-02    3.2586160684E-02    3.2299068031E-02
    3.2014446140E-02    3.1732274556E-02    3.1452532982E-02    3.1175201273E-02
    3.0900259442E-02    3.0627687652E-02    3.0357466219E-02    3.0089575612E-02
    2.9823996449E-02    2.9560709497E-02    2.9299695673E-02    2.9040936041E-02
    2.8784411810E-02    2.8530104338E-02    2.8277995125E-02    2.8028065816E-02
    2.7780298199E-02    2.7534674203E-02    2.7291175901E-02    2.7049785503E-02
    2.6810485360E-02    2.6573257960E-02    2.6338085930E-02    2.6104952033E-02
    2.5873839168E-02    2.5644730366E-02    2.5417608797E-02    2.5192457759E-02
    2.4969260685E-02    2.4748001139E-02    2.4528662813E-02    2.4311229531E-02
    2.4095685243E-02    2.3882014030E-02    2.3670200097E-02    2.3460227776E-02
    2.3252081522E-02    2.3045745918E-02    2.2841205668E-02    2.2638445597E-02
    2.2437450653E-02    2.2238205907E-02    2.2040696545E-02    2.1844907877E-02
    2.1650825327E-02    2.1458434439E-02    2.1267720873E-02    2.1078670403E-02
    2.0891268921E-02    2.0705502429E-02    2.0521357047E-02    2.0338819002E-02
    2.0157874637E-02    1.9978510404E-02    1.9800712864E-02    1.9624468690E-02
    1.9449764659E-02    1.9276587661E-02    1.9104924687E-02    1.8934762840E-02
    1.8766089322E-02    1.8598891445E-02    1.8433156621E-02    1.8268872366E-02
    1.8106026298E-02    1.7944606138E-02    1.7784599706E-02    1.7625994920E-02
    1.7468779802E-02    1.7312942468E-02    1.7158471134E-02    1.7005354111E-02
    1.6853579808E-02    1.6703136729E-02    1.6554013473E-02    1.6406198731E-02
    1.6259681290E-02    1.6114450028E-02    1.5970493914E-02    1.5827802012E-02
    1.5686363471E-02    1.5546167535E-02    1.5407203534E-02    1.5269460886E-02
    1.5132929100E-02    1.4997597768E-02    1.4863456571E-02    1.4730495276E-02
    1.4598703733E-02    1.4468071877E-02    1.4338589728E-02    1.4210247389E-02
    1.4083035043E-02    1.3956942958E-02    1.3831961480E-02    1.3708081039E-02
    1.3585292142E-02    1.3463585377E-02    1.3342951409E-02    1.3223380983E-02
    1.3104864919E-02    1.2987394117E-02    1.2870959550E-02    1.2755552269E-02
    1.2641163397E-02    1.2527784136E-02    1.2415405757E-02    1.2304019607E-02
    1.2193617106E-02    1.2084189744E-02    1.1975729084E-02    1.1868226758E-02
    1.1761674473E-02    1.1656063999E-02    1.1551387182E-02    1.1447635931E-02
    1.1344802227E-02    1.1242878117E-02    1.1141855716E-02    1.1041727203E-02
    1.0942484826E-02    1.0844120897E-02    1.0746627793E-02    1.0649997956E-02
    1.0554223890E-02    1.0459298165E-02    1.0365213412E-02    1.0271962324E-02
    1.0179537658E-02    1.0087932230E-02    9.9971389190E-03    9.9071506620E-03
    9.8179604574E-03    9.7295613624E-03    9.6419464933E-03    9.5551090247E-03
    9.4690421891E-03    9.3837392764E-03    9.2991936336E-03    9.2153986641E-03
    9.1323478274E-03    9.0500346385E-03    8.9684526678E-03    8.8875955400E-03
    8.8074569343E-03    8.7280305837E-03    8.6493102743E-03    8.5712898454E-03
    8.4939631886E-03    8.4173242477E-03    8.3413670179E-03    8.2660855458E-03
    8.1914739286E-03    8.1175263140E-03    8.0442368996E-03    7.9715999325E-03
    7.8996097088E-03    7.8282605735E-03    7.7575469199E-03    7.6874631892E-03
    7.6180038698E-03    7.5491634978E-03    7.4809366555E-03    7.4133179718E-03
    7.3463021216E-03    7.2798838252E-03    7.2140578483E-03    7.1488190012E-03
    7.0841621389E-03    7.0200821603E-03    6.9565740080E-03    6.8936326682E-03
    6.8312531698E-03    6.7694305845E-03    6.7081600263E-03    6.6474366510E-03
    6.5872556560E-03    6.5276122801E-03    6.4685018029E-03    6.4099195443E-03
    6.3518608649E-03    6.2943211647E-03    6.2372958835E-03    6.1807805004E-03
    6.1247705330E-03    6.0692615379E-03    6.0142491096E-03    5.9597288807E-03
    5.9056965213E-03    5.8521477389E-03    5.7990782778E-03    5.7464839192E-03
    5.6943604804E-03    5.6427038149E-03    5.5915098118E-03    5.5407743959E-03
    5.4904935270E-03    5.4406631996E-03    5.3912794431E-03    5.3423383208E-03
    5.2938359303E-03    5.2457684028E-03    5.1981319027E-03    5.1509226278E-03
    5.1041368087E-03    5.0577707085E-03    5.0118206226E-03    4.9662828786E-03
    4.9211538355E-03    4.8764298843E-03    4.8321074467E-03    4.7881829758E-03
    4.7446529551E-03    4.7015138987E-03    4.6587623508E-03    4.6163948856E-03
    4.5744081070E-03    4.5327986482E-03    4.4915631717E-03    4.4506983689E-03
    4.4102009599E-03    4.3700676931E-03    4.3302953454E-03    4.2908807214E-03
    4.2518206535E-03    4.2131120017E-03    4.1747516531E-03    4.1367365220E-03
    4.0990635493E-03    4.0617297026E-03    4.0247319759E-03    3.9880673892E-03
    3.9517329886E-03    3.9157258455E-03    3.8800430573E-03    3.8446817461E-03
    3.8096390594E-03    3.7749121695E-03    3.7404982731E-03    3.7063945916E-03
    3.6725983702E-03    3.6391068785E-03    3.6059174097E-03    3.5730272805E-03
    3.5404338311E-03    3.5081344249E-03    3.4761264483E-03    3.4444073102E-03
    3.4129744426E-03    3.3818252994E-03    3.3509573572E-03    3.3203681141E-03
    3.2900550905E-03    3.2600158282E-03    3.2302478905E-03    3.2007488620E-03
    3.1715163484E-03    3.1425479764E-03    3.1138413933E-03    3.0853942671E-03
    3.0572042860E-03    3.0292691587E-03    3.0015866136E-03    2.9741543993E-03
    2.9469702839E-03    2.9200320550E-03    2.8933375198E-03    2.8668845044E-03
    2.8406708542E-03    2.8146944333E-03    2.7889531246E-03    2.7634448295E-03
    2.7381674678E-03    2.7131189776E-03    2.6882973150E-03    2.6637004540E-03
    2.6393263865E-03    2.6151731219E-03    2.5912386871E-03    2.5675211263E-03
    2.5440185010E-03    2.5207288894E-03    2.4976503870E-03    2.4747811056E-03
    2.4521191740E-03    2.4296627371E-03    2.4074099564E-03    2.3853590092E-03
    2.3635080892E-03    2.3418554057E-03    2.3203991840E-03    2.2991376648E-03
    2.2780691043E-03    2.2571917741E-03    2.2365039612E-03    2.2160039673E-03
    2.1956901093E-03    2.1755607190E-03    2.1556141426E-03    2.1358487412E-03
    2.1162628901E-03    2.0968549790E-03    2.0776234118E-03    2.0585666065E-03
    2.0396829951E-03    2.0209710232E-03    2.0024291504E-03    1.9840558498E-03
    1.9658496079E-03    1.9478089246E-03    1.9299323130E-03    1.9122182994E-03
    1.8946654232E-03    1.8772722365E-03    1.8600373044E-03    1.8429592045E-03
    1.8260365271E-03    1.8092678749E-03    1.7926518629E-03    1.7761871186E-03
    1.7598722813E-03    1.7437060026E-03    1.7276869459E-03    1.7118137865E-03
    1.6960852113E-03    1.6804999191E-03    1.6650566199E-03    1.6497540353E-03
    1.6345908983E-03    1.6195659529E-03    1.6046779545E-03    1.5899256692E-03
    1.5753078744E-03    1.5608233582E-03    1.5464709193E-03    1.5322493672E-03
    1.5181575220E-03    1.5041942143E-03    1.4903582848E-03    1.4766485848E-03
    1.4630639756E-03    1.4496033289E-03    1.4362655260E-03    1.4230494585E-03
    1.4099540277E-03    1.3969781446E-03    1.3841207300E-03    1.3713807143E-03
    1.3587570373E-03    1.3462486484E-03    1.3338545060E-03    1.3215735783E-03
    1.3094048421E-03    1.2973472838E-03    1.2853998986E-03    1.2735616906E-03
    1.2618316728E-03    1.2502088671E-03    1.2386923040E-03    1.2272810226E-03
    1.2159740708E-03    1.2047705047E-03    1.1936693890E-03    1.1826697967E-03
    1.1717708089E-03    1.1609715152E-03    1.1502710131E-03    1.1396684082E-03
    1.1291628141E-03    1.1187533522E-03    1.1084391521E-03    1.0982193507E-03
    1.0880930929E-03    1.0780595312E-03    1.0681178256E-03    1.0582671437E-03
    1.0485066604E-03    1.0388355581E-03    1.0292530264E-03    1.0197582622E-03
    1.0103504697E-03    1.0010288601E-03    9.9179265160E-04    9.8264106946E-04
    9.7357334589E-04    9.6458871994E-04    9.5568643750E-04    9.4686575119E-04
    9.3812592033E-04    9.2946621086E-04    9.2088589532E-04    9.1238425274E-04
    9.0396056864E-04    8.9561413491E-04    8.8734424981E-04    8.7915021788E-04
    8.7103134991E-04    8.6298696285E-04    8.5501637979E-04    8.4711892989E-04
    8.3929394832E-04    8.3154077623E-04    8.2385876067E-04    8.1624725456E-04
    8.0870561662E-04    8.0123321134E-04    7.9382940892E-04    7.8649358519E-04
    7.7922512161E-04    7.7202340520E-04    7.6488782848E-04    7.5781778942E-04
    7.5081269142E-04    7.4387194324E-04    7.3699495894E-04    7.3018115787E-04
    7.2342996460E-04    7.1674080885E-04    7.1011312551E-04    7.0354635453E-04
    6.9703994091E-04    6.9059333464E-04    6.8420599067E-04    6.7787736885E-04
    6.7160693389E-04    6.6539415534E-04    6.5923850750E-04    6.5313946944E-04
    6.4709652490E-04    6.4110916228E-04    6.3517687459E-04    6.2929915941E-04
    6.2347551886E-04    6.1770545953E-04    6.1198849248E-04    6.0632413317E-04
    6.0071190142E-04    5.9515132141E-04    5.8964192160E-04    5.8418323470E-04
    5.7877479764E-04    5.7341615154E-04    5.6810684165E-04    5.6284641735E-04
    5.5763443206E-04    5.5247044325E-04    5.4735401239E-04    5.4228470491E-04
    5.3726209016E-04    5.3228574140E-04    5.2735523572E-04    5.2247015407E-04
    5.1763008114E-04    5.1283460543E-04    5.0808331913E-04    5.0337581812E-04
    4.9871170195E-04    4.9409057378E-04    4.8951204036E-04    4.8497571202E-04
    4.8048120259E-04    4.7602812941E-04    4.7161611330E-04    4.6724477847E-04
    4.6291375259E-04    4.5862266666E-04    4.5437115503E-04    4.5015885538E-04
    4.4598540867E-04    4.4185045909E-04    4.3775365408E-04    4.3369464426E-04
    4.2967308345E-04    4.2568862856E-04    4.2174093965E-04    4.1782967985E-04
    4.1395451533E-04    4.1011511533E-04    4.0631115204E-04    4.0254230067E-04
    3.9880823935E-04    3.9510864913E-04    3.9144321399E-04    3.8781162073E-04
    3.8421355903E-04    3.8064872138E-04    3.7711680306E-04    3.7361750211E-04
    3.7015051932E-04    3.6671555821E-04    3.6331232498E-04    3.5994052850E-04
    3.5659988030E-04    3.5329009451E-04    3.5001088789E-04    3.4676197974E-04
    3.4354309193E-04    3.4035394888E-04    3.3719427748E-04    3.3406380712E-04
    3.3096226967E-04    3.2788939940E-04    3.2484493303E-04    3.2182860968E-04
    3.1884017082E-04    3.1587936028E-04    3.1294592424E-04    3.1003961118E-04
    3.0716017186E-04    3.0430735933E-04    3.0148092888E-04    2.9868063801E-04
    2.9590624647E-04    2.9315751617E-04    2.9043421119E-04    2.8773609778E-04
    2.8506294430E-04    2.8241452124E-04    2.7979060115E-04    2.7719095870E-04
    2.7461537057E-04    2.7206361552E-04    2.6953547429E-04    2.6703072964E-04
    2.6454916631E-04    2.6209057100E-04    2.5965473235E-04    2.5724144095E-04
    2.5485048929E-04    2.5248167174E-04    2.5013478457E-04    2.4780962590E-04
    2.4550599568E-04    2.4322369572E-04    2.4096252961E-04    2.3872230274E-04
    2.3650282229E-04    2.3430389719E-04    2.3212533813E-04    2.2996695750E-04
    2.2782856944E-04    2.2570998976E-04    2.2361103598E-04    2.2153152727E-04
    2.1947128446E-04    2.1743013000E-04    2.1540788800E-04    2.1340438415E-04
    2.1141944574E-04    2.0945290165E-04    2.0750458230E-04    2.0557431970E-04
    2.0366194737E-04    2.0176730035E-04    1.9989021521E-04    1.9803053001E-04
    1.9618808427E-04    1.9436271901E-04    1.9255427668E-04    1.9076260120E-04
    1.8898753789E-04    1.8722893351E-04    1.8548663621E-04    1.8376049554E-04
    1.8205036242E-04    1.8035608913E-04    1.7867752932E-04    1.7701453797E-04
    1.7536697140E-04    1.7373468723E-04    1.7211754440E-04    1.7051540313E-04
    1.6892812494E-04    1.6735557260E-04    1.6579761014E-04    1.6425410286E-04
    1.6272491726E-04    1.6120992110E-04    1.5970898332E-04    1.5822197408E-04
    1.5674876475E-04    1.5528922783E-04    1.5384323704E-04    1.5241066723E-04
    1.5099139440E-04    1.4958529571E-04    1.4819224942E-04    1.4681213492E-04
    1.4544483272E-04    1.4409022440E-04    1.4274819264E-04    1.4141862121E-04
    1.4010139493E-04    1.3879639968E-04    1.3750352240E-04    1.3622265105E-04
    1.3495367465E-04    1.3369648319E-04    1.3245096773E-04    1.3121702028E-04
    1.2999453387E-04    1.2878340251E-04    1.2758352118E-04    1.2639478583E-04
    1.2521709335E-04    1.2405034160E-04    1.2289442938E-04    1.2174925639E-04
    1.2061472328E-04    1.1949073162E-04    1.1837718385E-04    1.1727398334E-04
    1.1618103434E-04    1.1509824198E-04    1.1402551226E-04    1.1296275204E-04
    1.1190986904E-04    1.1086677185E-04    1.0983336988E-04    1.0880957336E-04
    1.0779529338E-04    1.0679044183E-04    1.0579493141E-04    1.0480867563E-04
    1.0383158879E-04    1.0286358599E-04    1.0190458310E-04    1.0095449677E-04
    1.0001324441E-04    9.9080744204E-05    9.8156915084E-05    9.7241676727E-05
    9.6334949549E-05    9.5436654704E-05    9.4546714067E-05    9.3665050238E-05
    9.2791586526E-05    9.1926246949E-05    9.1068956226E-05    9.0219639767E-05
    8.9378223673E-05    8.8544634723E-05    8.7718800374E-05    8.6900648750E-05
    8.6090108637E-05    8.5287109481E-05    8.4491581376E-05    8.3703455060E-05
    8.2922661911E-05    8.2149133941E-05    8.1382803788E-05    8.0623604711E-05
    7.9871470586E-05    7.9126335897E-05    7.8388135735E-05    7.7656805788E-05
    7.6932282338E-05    7.6214502256E-05    7.5503402995E-05    7.4798922584E-05
    7.4100999626E-05    7.3409573290E-05    7.2724583307E-05    7.2045969963E-05
    7.1373674096E-05    7.0707637092E-05    7.0047800875E-05    6.9394107908E-05
    6.8746501185E-05    6.8104924226E-05    6.7469321071E-05    6.6839636280E-05
    6.6215814923E-05    6.5597802579E-05    6.4985545328E-05    6.4378989749E-05
    6.3778082915E-05    6.3182772387E-05    6.2593006213E-05    6.2008732918E-05
    6.1429901505E-05    6.0856461446E-05    6.0288362684E-05    5.9725555620E-05
    5.9167991117E-05    5.8615620491E-05    5.8068395507E-05    5.7526268379E-05
    5.6989191759E-05    5.6457118741E-05    5.5930002848E-05    5.5407798038E-05
    5.4890458690E-05    5.4377939608E-05    5.3870196014E-05    5.3367183542E-05
    5.2868858239E-05    5.2375176557E-05    5.1886095351E-05    5.1401571877E-05
    5.0921563783E-05    5.0446029113E-05    4.9974926295E-05    4.9508214146E-05
    4.9045851861E-05    4.8587799013E-05    4.8134015552E-05    4.7684461795E-05
    4.7239098429E-05    4.6797886503E-05    4.6360787428E-05    4.5927762971E-05
    4.5498775255E-05    4.5073786753E-05    4.4652760283E-05    4.4235659011E-05
    4.3822446441E-05    4.3413086418E-05    4.3007543120E-05    4.2605781056E-05
    4.2207765066E-05    4.1813460314E-05    4.1422832287E-05    4.1035846792E-05
    4.0652469954E-05    4.0272668209E-05    3.9896408307E-05    3.9523657303E-05
    3.9154382561E-05    3.8788551744E-05    3.8426132817E-05    3.8067094041E-05
    3.7711403970E-05    3.7359031452E-05    3.7009945622E-05    3.6664115901E-05
    3.6321511995E-05    3.5982103889E-05    3.5645861848E-05    3.5312756410E-05
    3.4982758390E-05    3.4655838871E-05    3.4331969204E-05    3.4011121007E-05
    3.3693266161E-05    3.3378376806E-05    3.3066425344E-05    3.2757384428E-05
    3.2451226970E-05    3.2147926129E-05    3.1847455316E-05    3.1549788186E-05
    3.1254898640E-05    3.0962760821E-05    3.0673349112E-05    3.0386638134E-05
    3.0102602742E-05    2.9821218025E-05    2.9542459304E-05    2.9266302129E-05
    2.8992722275E-05    2.8721695744E-05    2.8453198760E-05    2.8187207768E-05
    2.7923699430E-05    2.7662650627E-05    2.7404038452E-05    2.7147840214E-05
    2.6894033430E-05    2.6642595827E-05    2.6393505337E-05    2.6146740099E-05
    2.5902278454E-05    2.5660098945E-05    2.5420180313E-05    2.5182501498E-05
    2.4947041633E-05    2.4713780047E-05    2.4482696260E-05    2.4253769983E-05
    2.4026981115E-05    2.3802309742E-05    2.3579736135E-05    2.3359240746E-05
    2.3140804213E-05    2.2924407350E-05    2.2710031152E-05    2.2497656787E-05
    2.2287265603E-05    2.2078839116E-05    2.1872359018E-05    2.1667807170E-05
    2.1465165599E-05    2.1264416502E-05    2.1065542241E-05    2.0868525340E-05
    2.0673348489E-05    2.0479994534E-05    2.0288446486E-05    2.0098687509E-05
    1.9910700926E-05    1.9724470215E-05    1.9539979008E-05    1.9357211086E-05
    1.9176150386E-05    1.8996780989E-05    1.8819087128E-05    1.8643053180E-05
    1.8468663670E-05    1.8295903264E-05    1.8124756772E-05    1.7955209145E-05
    1.7787245475E-05    1.7620850991E-05    1.7456011060E-05    1.7292711186E-05
    1.7130937005E-05    1.6970674291E-05    1.6811908947E-05    1.6654627007E-05
    1.6498814638E-05    1.6344458132E-05    1.6191543912E-05    1.6040058523E-05
    1.5889988640E-05    1.5741321058E-05    1.5594042697E-05    1.5448140599E-05
    1.5303601925E-05    1.5160413956E-05    1.5018564093E-05    1.4878039852E-05
    1.4738828865E-05    1.4600918882E-05    1.4464297764E-05    1.4328953486E-05
    1.4194874136E-05    1.4062047911E-05    1.3930463119E-05    1.3800108177E-05
    1.3670971610E-05    1.3543042047E-05    1.3416308227E-05    1.3290758992E-05
    1.3166383287E-05    1.3043170160E-05    1.2921108764E-05    1.2800188349E-05
    1.2680398266E-05    1.2561727968E-05    1.2444167004E-05    1.2327705018E-05
    1.2212331756E-05    1.2098037054E-05    1.1984810846E-05    1.1872643159E-05
    1.1761524113E-05    1.1651443918E-05    1.1542392879E-05    1.1434361387E-05
    1.1327339926E-05    1.1221319067E-05    1.1116289469E-05    1.1012241879E-05
    1.0909167128E-05    1.0807056134E-05    1.0705899899E-05    1.0605689511E-05
    1.0506416137E-05    1.0408071030E-05    1.0310645523E-05    1.0214131028E-05
    1.0118519041E-05    1.0023801133E-05    9.9299689567E-06    9.8370142412E-06
    9.7449287928E-06    9.6537044943E-06    9.5633333040E-06    9.4738072553E-06
    9.3851184557E-06    9.2972590864E-06    9.2102214014E-06    9.1239977267E-06
    9.0385804603E-06    8.9539620705E-06    8.8701350963E-06    8.7870921459E-06
    8.7048258965E-06    8.6233290937E-06    8.5425945506E-06    8.4626151471E-06
    8.3833838299E-06    8.3048936112E-06    8.2271375684E-06    8.1501088433E-06
    8.0738006418E-06    7.9982062333E-06    7.9233189496E-06    7.8491321848E-06
    7.7756393948E-06    7.7028340963E-06    7.6307098665E-06    7.5592603425E-06
    7.4884792207E-06    7.4183602565E-06    7.3488972632E-06    7.2800841120E-06
    7.2119147313E-06    7.1443831059E-06    7.0774832770E-06    7.0112093412E-06
    6.9455554501E-06    6.8805158100E-06    6.8160846812E-06    6.7522563775E-06
    6.6890252657E-06    6.6263857653E-06    6.5643323478E-06    6.5028595360E-06
    6.4419619043E-06    6.3816340773E-06    6.3218707300E-06    6.2626665868E-06
    6.2040164217E-06    6.1459150572E-06    6.0883573641E-06    6.0313382611E-06
    5.9748527145E-06    5.9188957372E-06    5.8634623889E-06    5.8085477754E-06
    5.7541470481E-06    5.7002554035E-06    5.6468680833E-06    5.5939803732E-06
    5.5415876031E-06    5.4896851465E-06    5.4382684201E-06    5.3873328832E-06
    5.3368740376E-06    5.2868874271E-06    5.2373686370E-06    5.1883132939E-06
    5.1397170653E-06    5.0915756589E-06    5.0438848227E-06    4.9966403441E-06
    4.9498380502E-06    4.9034738067E-06    4.8575435182E-06    4.8120431273E-06
    4.7669686145E-06    4.7223159980E-06    4.6780813331E-06    4.6342607117E-06
    4.5908502625E-06    4.5478461503E-06    4.5052445754E-06    4.4630417740E-06
    4.4212340171E-06    4.3798176107E-06    4.3387888953E-06    4.2981442456E-06
    4.2578800698E-06    4.2179928102E-06    4.1784789419E-06    4.1393349731E-06
    4.1005574445E-06    4.0621429292E-06    4.0240880323E-06    3.9863893905E-06
    3.9490436720E-06    3.9120475762E-06    3.8753978331E-06    3.8390912034E-06
    3.8031244780E-06    3.7674944778E-06    3.7321980535E-06    3.6972320849E-06
    3.6625934813E-06    3.6282791806E-06    3.5942861495E-06    3.5606113829E-06
    3.5272519038E-06    3.4942047631E-06    3.4614670392E-06    3.4290358377E-06
    3.3969082913E-06    3.3650815595E-06    3.3335528283E-06    3.3023193101E-06
    3.2713782433E-06    3.2407268919E-06    3.2103625458E-06    3.1802825200E-06
    3.1504841545E-06    3.1209648145E-06    3.0917218894E-06    3.0627527933E-06
    3.0340549644E-06    3.0056258647E-06    2.9774629800E-06    2.9495638197E-06
    2.9219259163E-06    2.8945468255E-06    2.8674241258E-06    2.8405554181E-06
    2.8139383262E-06    2.7875704956E-06    2.7614495941E-06    2.7355733113E-06
    2.7099393583E-06    2.6845454676E-06    2.6593893928E-06    2.6344689087E-06
    2.6097818108E-06    2.5853259152E-06    2.5610990584E-06    2.5370990971E-06
    2.5133239081E-06    2.4897713879E-06    2.4664394530E-06    2.4433260389E-06
    2.4204291009E-06    2.3977466129E-06    2.3752765682E-06    2.3530169785E-06
   </PP_CHI.2>
   <PP_CHI.3
       type="real"
       size="1672"
       columns="4"
       index="3"
       occupation=" 2.000"
       pseudo_energy="   -0.2584656682E+00"
       label="6P"
       l="1" >
   -4.7135689449E-14    7.6831583441E-06    3.0743023872E-05    6.9210753103E-05
    1.2313822388E-04    1.9259796094E-04    2.7768303192E-04    3.7850691389E-04
    4.9520333072E-04    6.2792606155E-04    7.7684872063E-04    9.4216450891E-04
    1.1240859379E-03    1.3228445259E-03    1.5386904680E-03    1.7718922787E-03
    2.0227364101E-03    2.2915268438E-03    2.5785846591E-03    2.8842475768E-03
    3.2088694809E-03    3.5528199171E-03    3.9164835700E-03    4.3002597199E-03
    4.7045616796E-03    5.1298162120E-03    5.5764629298E-03    6.0449536780E-03
    6.5357518996E-03    7.0493319865E-03    7.5861786157E-03    8.1467860717E-03
    8.7316575566E-03    9.3413044884E-03    9.9762457888E-03    1.0637007161E-02
    1.1324120359E-02    1.2038122449E-02    1.2779555063E-02    1.3548963649E-02
    1.4346896711E-02    1.5173905053E-02    1.6030541011E-02    1.6917357689E-02
    1.7834908191E-02    1.8783744851E-02    1.9764418466E-02    2.0777477531E-02
    2.1823467469E-02    2.2902929875E-02    2.4016401751E-02    2.5164414756E-02
    2.6347494450E-02    2.7566159559E-02    2.8820921229E-02    3.0112282297E-02
    3.1440736573E-02    3.2806768116E-02    3.4210850538E-02    3.5653446300E-02
    3.7135006030E-02    3.8655967846E-02    4.0216756691E-02    4.1817783681E-02
    4.3459445466E-02    4.5142123600E-02    4.6866183928E-02    4.8631975985E-02
    5.0439832409E-02    5.2290068371E-02    5.4182981016E-02    5.6118848923E-02
    5.8097931577E-02    6.0120468863E-02    6.2186680573E-02    6.4296765929E-02
    6.6450903124E-02    6.8649248886E-02    7.0891938052E-02    7.3179083165E-02
    7.5510774093E-02    7.7887077659E-02    8.0308037297E-02    8.2773672728E-02
    8.5283979651E-02    8.7838929461E-02    9.0438468984E-02    9.3082520234E-02
    9.5770980190E-02    9.8503720601E-02    1.0128058780E-01    1.0410140257E-01
    1.0696595997E-01    1.0987402928E-01    1.1282535386E-01    1.1581965114E-01
    1.1885661253E-01    1.2193590345E-01    1.2505716330E-01    1.2822000553E-01
    1.3142401765E-01    1.3466876136E-01    1.3795377263E-01    1.4127856184E-01
    1.4464261391E-01    1.4804538854E-01    1.5148632035E-01    1.5496481914E-01
    1.5848027014E-01    1.6203203431E-01    1.6561944860E-01    1.6924182632E-01
    1.7289845748E-01    1.7658860915E-01    1.8031152587E-01    1.8406643010E-01
    1.8785252263E-01    1.9166898306E-01    1.9551497032E-01    1.9938962312E-01
    2.0329206058E-01    2.0722138271E-01    2.1117667099E-01    2.1515698903E-01
    2.1916138313E-01    2.2318888292E-01    2.2723850204E-01    2.3130923879E-01
    2.3540007683E-01    2.3950998586E-01    2.4363792235E-01    2.4778283029E-01
    2.5194364189E-01    2.5611927837E-01    2.6030865072E-01    2.6451066047E-01
    2.6872420048E-01    2.7294815571E-01    2.7718140407E-01    2.8142281717E-01
    2.8567126118E-01    2.8992559761E-01    2.9418468413E-01    2.9844737541E-01
    3.0271252391E-01    3.0697898074E-01    3.1124559640E-01    3.1551122169E-01
    3.1977470844E-01    3.2403491034E-01    3.2829068377E-01    3.3254088851E-01
    3.3678438863E-01    3.4102005314E-01    3.4524675687E-01    3.4946338113E-01
    3.5366881450E-01    3.5786195352E-01    3.6204170343E-01    3.6620697887E-01
    3.7035670452E-01    3.7448981581E-01    3.7860525953E-01    3.8270199450E-01
    3.8677899213E-01    3.9083523708E-01    3.9486972775E-01    3.9888147692E-01
    4.0286951221E-01    4.0683287663E-01    4.1077062908E-01    4.1468184479E-01
    4.1856561580E-01    4.2242105134E-01    4.2624727830E-01    4.3004344158E-01
    4.3380870442E-01    4.3754224881E-01    4.4124327576E-01    4.4491100561E-01
    4.4854467829E-01    4.5214355360E-01    4.5570691146E-01    4.5923405204E-01
    4.6272429606E-01    4.6617698488E-01    4.6959148070E-01    4.7296716665E-01
    4.7630344696E-01    4.7959974701E-01    4.8285551343E-01    4.8607021415E-01
    4.8924333846E-01    4.9237439701E-01    4.9546292185E-01    4.9850846641E-01
    5.0151060549E-01    5.0446893520E-01    5.0738307296E-01    5.1025265740E-01
    5.1307734832E-01    5.1585682655E-01    5.1859079393E-01    5.2127897314E-01
    5.2392110761E-01    5.2651696139E-01    5.2906631900E-01    5.3156898529E-01
    5.3402478530E-01    5.3643356405E-01    5.3879518641E-01    5.4110953691E-01
    5.4337651954E-01    5.4559605755E-01    5.4776809328E-01    5.4989258790E-01
    5.5196952124E-01    5.5399889153E-01    5.5598071523E-01    5.5791502670E-01
    5.5980187807E-01    5.6164133890E-01    5.6343349598E-01    5.6517845306E-01
    5.6687633060E-01    5.6852726545E-01    5.7013141064E-01    5.7168893506E-01
    5.7320002319E-01    5.7466487479E-01    5.7608370461E-01    5.7745674210E-01
    5.7878423107E-01    5.8006642940E-01    5.8130360871E-01    5.8249605401E-01
    5.8364406339E-01    5.8474794767E-01    5.8580803003E-01    5.8682464569E-01
    5.8779814153E-01    5.8872887570E-01    5.8961721729E-01    5.9046354589E-01
    5.9126825126E-01    5.9203173289E-01    5.9275439960E-01    5.9343666918E-01
    5.9407896790E-01    5.9468173014E-01    5.9524539794E-01    5.9577042059E-01
    5.9625725414E-01    5.9670636103E-01    5.9711820957E-01    5.9749327352E-01
    5.9783203163E-01    5.9813496718E-01    5.9840256748E-01    5.9863532346E-01
    5.9883372914E-01    5.9899828120E-01    5.9912947847E-01    5.9922782149E-01
    5.9929381199E-01    5.9932795246E-01    5.9933074564E-01    5.9930269407E-01
    5.9924429958E-01    5.9915606290E-01    5.9903848309E-01    5.9889205717E-01
    5.9871727963E-01    5.9851464197E-01    5.9828463228E-01    5.9802773479E-01
    5.9774442947E-01    5.9743519156E-01    5.9710049124E-01    5.9674079314E-01
    5.9635655605E-01    5.9594823246E-01    5.9551626828E-01    5.9506110243E-01
    5.9458316651E-01    5.9408288454E-01    5.9356067258E-01    5.9301693850E-01
    5.9245208165E-01    5.9186649267E-01    5.9126055320E-01    5.9063463567E-01
    5.8998910310E-01    5.8932430896E-01    5.8864059690E-01    5.8793830072E-01
    5.8721774412E-01    5.8647924089E-01    5.8572309634E-01    5.8494960892E-01
    5.8415907331E-01    5.8335178129E-01    5.8252802153E-01    5.8168807934E-01
    5.8083223581E-01    5.7996076854E-01    5.7907395193E-01    5.7817205693E-01
    5.7725535112E-01    5.7632409874E-01    5.7537856077E-01    5.7441899490E-01
    5.7344565564E-01    5.7245879430E-01    5.7145865904E-01    5.7044549494E-01
    5.6941954396E-01    5.6838104505E-01    5.6733023416E-01    5.6626734423E-01
    5.6519260531E-01    5.6410624450E-01    5.6300848607E-01    5.6189955142E-01
    5.6077965915E-01    5.5964902510E-01    5.5850786236E-01    5.5735638130E-01
    5.5619478964E-01    5.5502329243E-01    5.5384209210E-01    5.5265138851E-01
    5.5145137896E-01    5.5024225822E-01    5.4902421859E-01    5.4779744986E-01
    5.4656213942E-01    5.4531847224E-01    5.4406663091E-01    5.4280679568E-01
    5.4153914446E-01    5.4026385288E-01    5.3898109429E-01    5.3769103982E-01
    5.3639385836E-01    5.3508971664E-01    5.3377877922E-01    5.3246120851E-01
    5.3113716484E-01    5.2980680644E-01    5.2847028947E-01    5.2712776809E-01
    5.2577939442E-01    5.2442531862E-01    5.2306568888E-01    5.2170065145E-01
    5.2033035067E-01    5.1895492899E-01    5.1757452700E-01    5.1618928344E-01
    5.1479933524E-01    5.1340481752E-01    5.1200586361E-01    5.1060260512E-01
    5.0919517190E-01    5.0778369209E-01    5.0636829215E-01    5.0494909685E-01
    5.0352622933E-01    5.0209981108E-01    5.0066996200E-01    4.9923680038E-01
    4.9780044296E-01    4.9636100490E-01    4.9491859984E-01    4.9347333991E-01
    4.9202533574E-01    4.9057469648E-01    4.8912152983E-01    4.8766594202E-01
    4.8620803790E-01    4.8474792086E-01    4.8328569295E-01    4.8182145480E-01
    4.8035530573E-01    4.7888734367E-01    4.7741766528E-01    4.7594636586E-01
    4.7447353945E-01    4.7299927881E-01    4.7152367542E-01    4.7004681954E-01
    4.6856880018E-01    4.6708970513E-01    4.6560962101E-01    4.6412863320E-01
    4.6264682597E-01    4.6116428237E-01    4.5968108434E-01    4.5819731268E-01
    4.5671304708E-01    4.5522836611E-01    4.5374334725E-01    4.5225806691E-01
    4.5077260043E-01    4.4928702209E-01    4.4780140514E-01    4.4631582179E-01
    4.4483034324E-01    4.4334503967E-01    4.4185998029E-01    4.4037523331E-01
    4.3889086598E-01    4.3740694457E-01    4.3592353443E-01    4.3444069996E-01
    4.3295850462E-01    4.3147701097E-01    4.2999628066E-01    4.2851637444E-01
    4.2703735219E-01    4.2555927290E-01    4.2408219468E-01    4.2260617483E-01
    4.2113126975E-01    4.1965753505E-01    4.1818502547E-01    4.1671379498E-01
    4.1524389670E-01    4.1377538297E-01    4.1230830533E-01    4.1084271454E-01
    4.0937866059E-01    4.0791619271E-01    4.0645535937E-01    4.0499620826E-01
    4.0353878639E-01    4.0208313998E-01    4.0062931457E-01    3.9917735495E-01
    3.9772730521E-01    3.9627920876E-01    3.9483310828E-01    3.9338904580E-01
    3.9194706265E-01    3.9050719949E-01    3.8906949631E-01    3.8763399246E-01
    3.8620072663E-01    3.8476973686E-01    3.8334106057E-01    3.8191473452E-01
    3.8049079488E-01    3.7906927719E-01    3.7765021637E-01    3.7623364674E-01
    3.7481960204E-01    3.7340811539E-01    3.7199921935E-01    3.7059294588E-01
    3.6918932639E-01    3.6778839169E-01    3.6639017207E-01    3.6499469722E-01
    3.6360199631E-01    3.6221209797E-01    3.6082503027E-01    3.5944082076E-01
    3.5805949646E-01    3.5668108386E-01    3.5530560895E-01    3.5393309721E-01
    3.5256357359E-01    3.5119706256E-01    3.4983358809E-01    3.4847317367E-01
    3.4711584227E-01    3.4576161643E-01    3.4441051818E-01    3.4306256909E-01
    3.4171779027E-01    3.4037620236E-01    3.3903782556E-01    3.3770267959E-01
    3.3637078377E-01    3.3504215694E-01    3.3371681752E-01    3.3239478349E-01
    3.3107607242E-01    3.2976070144E-01    3.2844868728E-01    3.2714004623E-01
    3.2583479420E-01    3.2453294667E-01    3.2323451875E-01    3.2193952512E-01
    3.2064798010E-01    3.1935989761E-01    3.1807529117E-01    3.1679417395E-01
    3.1551655874E-01    3.1424245794E-01    3.1297188361E-01    3.1170484743E-01
    3.1044136073E-01    3.0918143449E-01    3.0792507933E-01    3.0667230554E-01
    3.0542312304E-01    3.0417754145E-01    3.0293557002E-01    3.0169721771E-01
    3.0046249312E-01    2.9923140454E-01    2.9800395994E-01    2.9678016699E-01
    2.9556003303E-01    2.9434356509E-01    2.9313076993E-01    2.9192165397E-01
    2.9071622336E-01    2.8951448395E-01    2.8831644131E-01    2.8712210071E-01
    2.8593146714E-01    2.8474454534E-01    2.8356133973E-01    2.8238185451E-01
    2.8120609357E-01    2.8003406056E-01    2.7886575886E-01    2.7770119160E-01
    2.7654036166E-01    2.7538327167E-01    2.7422992399E-01    2.7308032076E-01
    2.7193446388E-01    2.7079235501E-01    2.6965399557E-01    2.6851938676E-01
    2.6738852954E-01    2.6626142466E-01    2.6513807265E-01    2.6401847380E-01
    2.6290262822E-01    2.6179053578E-01    2.6068219615E-01    2.5957760881E-01
    2.5847677302E-01    2.5737968785E-01    2.5628635217E-01    2.5519676466E-01
    2.5411092380E-01    2.5302882790E-01    2.5195047506E-01    2.5087586324E-01
    2.4980499018E-01    2.4873785347E-01    2.4767445051E-01    2.4661477854E-01
    2.4555883463E-01    2.4450661569E-01    2.4345811845E-01    2.4241333951E-01
    2.4137227529E-01    2.4033492207E-01    2.3930127596E-01    2.3827133294E-01
    2.3724508883E-01    2.3622253932E-01    2.3520367995E-01    2.3418850613E-01
    2.3317701311E-01    2.3216919603E-01    2.3116504990E-01    2.3016456958E-01
    2.2916774982E-01    2.2817458523E-01    2.2718507033E-01    2.2619919949E-01
    2.2521696696E-01    2.2423836691E-01    2.2326339335E-01    2.2229204021E-01
    2.2132430132E-01    2.2036017036E-01    2.1939964096E-01    2.1844270660E-01
    2.1748936070E-01    2.1653959654E-01    2.1559340735E-01    2.1465078624E-01
    2.1371172622E-01    2.1277622022E-01    2.1184426110E-01    2.1091584161E-01
    2.0999095442E-01    2.0906959212E-01    2.0815174722E-01    2.0723741215E-01
    2.0632657928E-01    2.0541924088E-01    2.0451538915E-01    2.0361501624E-01
    2.0271811420E-01    2.0182467504E-01    2.0093469070E-01    2.0004815302E-01
    1.9916505383E-01    1.9828538486E-01    1.9740913779E-01    1.9653630426E-01
    1.9566687583E-01    1.9480084400E-01    1.9393820026E-01    1.9307893599E-01
    1.9222304256E-01    1.9137051127E-01    1.9052133340E-01    1.8967550014E-01
    1.8883300268E-01    1.8799383213E-01    1.8715797959E-01    1.8632543609E-01
    1.8549619265E-01    1.8467024021E-01    1.8384756973E-01    1.8302817208E-01
    1.8221203813E-01    1.8139915871E-01    1.8058952461E-01    1.7978312659E-01
    1.7897995539E-01    1.7818000172E-01    1.7738325625E-01    1.7658970964E-01
    1.7579935252E-01    1.7501217549E-01    1.7422816914E-01    1.7344732401E-01
    1.7266963066E-01    1.7189507961E-01    1.7112366134E-01    1.7035536636E-01
    1.6959018512E-01    1.6882810808E-01    1.6806912566E-01    1.6731322831E-01
    1.6656040642E-01    1.6581065039E-01    1.6506395061E-01    1.6432029745E-01
    1.6357968129E-01    1.6284209248E-01    1.6210752137E-01    1.6137595830E-01
    1.6064739361E-01    1.5992181764E-01    1.5919922070E-01    1.5847959313E-01
    1.5776292524E-01    1.5704920735E-01    1.5633842978E-01    1.5563058284E-01
    1.5492565685E-01    1.5422364211E-01    1.5352452895E-01    1.5282830768E-01
    1.5213496863E-01    1.5144450211E-01    1.5075689844E-01    1.5007214797E-01
    1.4939024102E-01    1.4871116794E-01    1.4803491906E-01    1.4736148475E-01
    1.4669085535E-01    1.4602302124E-01    1.4535797278E-01    1.4469570037E-01
    1.4403619438E-01    1.4337944523E-01    1.4272544332E-01    1.4207417907E-01
    1.4142564291E-01    1.4077982528E-01    1.4013671665E-01    1.3949630747E-01
    1.3885858822E-01    1.3822354939E-01    1.3759118149E-01    1.3696147504E-01
    1.3633442056E-01    1.3571000861E-01    1.3508822974E-01    1.3446907454E-01
    1.3385253358E-01    1.3323859749E-01    1.3262725687E-01    1.3201850238E-01
    1.3141232467E-01    1.3080871441E-01    1.3020766229E-01    1.2960915902E-01
    1.2901319532E-01    1.2841976195E-01    1.2782884965E-01    1.2724044922E-01
    1.2665455145E-01    1.2607114717E-01    1.2549022720E-01    1.2491178241E-01
    1.2433580367E-01    1.2376228188E-01    1.2319120797E-01    1.2262257286E-01
    1.2205636752E-01    1.2149258292E-01    1.2093121007E-01    1.2037223998E-01
    1.1981566371E-01    1.1926147231E-01    1.1870965687E-01    1.1816020849E-01
    1.1761311832E-01    1.1706837749E-01    1.1652597719E-01    1.1598590860E-01
    1.1544816296E-01    1.1491273149E-01    1.1437960546E-01    1.1384877617E-01
    1.1332023491E-01    1.1279397303E-01    1.1226998188E-01    1.1174825284E-01
    1.1122877730E-01    1.1071154671E-01    1.1019655250E-01    1.0968378615E-01
    1.0917323916E-01    1.0866490304E-01    1.0815876935E-01    1.0765482964E-01
    1.0715307552E-01    1.0665349860E-01    1.0615609051E-01    1.0566084293E-01
    1.0516774754E-01    1.0467679606E-01    1.0418798022E-01    1.0370129178E-01
    1.0321672253E-01    1.0273426428E-01    1.0225390886E-01    1.0177564814E-01
    1.0129947399E-01    1.0082537832E-01    1.0035335307E-01    9.9883390185E-02
    9.9415481657E-02    9.8949619488E-02    9.8485795707E-02    9.8024002370E-02
    9.7564231555E-02    9.7106475367E-02    9.6650725934E-02    9.6196975409E-02
    9.5745215969E-02    9.5295439816E-02    9.4847639177E-02    9.4401806303E-02
    9.3957933468E-02    9.3516012975E-02    9.3076037146E-02    9.2637998331E-02
    9.2201888903E-02    9.1767701260E-02    9.1335427824E-02    9.0905061042E-02
    9.0476593385E-02    9.0050017348E-02    8.9625325450E-02    8.9202510237E-02
    8.8781564275E-02    8.8362480157E-02    8.7945250501E-02    8.7529867945E-02
    8.7116325156E-02    8.6704614822E-02    8.6294729656E-02    8.5886662396E-02
    8.5480405801E-02    8.5075952658E-02    8.4673295774E-02    8.4272427982E-02
    8.3873342140E-02    8.3476031127E-02    8.3080487846E-02    8.2686705227E-02
    8.2294676219E-02    8.1904393799E-02    8.1515850963E-02    8.1129040735E-02
    8.0743956159E-02    8.0360590305E-02    7.9978936264E-02    7.9598987152E-02
    7.9220736107E-02    7.8844176292E-02    7.8469300892E-02    7.8096103114E-02
    7.7724576189E-02    7.7354713373E-02    7.6986507942E-02    7.6619953197E-02
    7.6255042459E-02    7.5891769075E-02    7.5530126413E-02    7.5170107864E-02
    7.4811706843E-02    7.4454916784E-02    7.4099731147E-02    7.3746143413E-02
    7.3394147086E-02    7.3043735692E-02    7.2694902778E-02    7.2347641916E-02
    7.2001946698E-02    7.1657810739E-02    7.1315227676E-02    7.0974191167E-02
    7.0634694893E-02    7.0296732557E-02    6.9960297884E-02    6.9625384619E-02
    6.9291986531E-02    6.8960097410E-02    6.8629711066E-02    6.8300821332E-02
    6.7973422064E-02    6.7647507136E-02    6.7323070445E-02    6.7000105910E-02
    6.6678607471E-02    6.6358569088E-02    6.6039984743E-02    6.5722848440E-02
    6.5407154203E-02    6.5092896076E-02    6.4780068125E-02    6.4468664438E-02
    6.4158679122E-02    6.3850106305E-02    6.3542940137E-02    6.3237174786E-02
    6.2932804444E-02    6.2629823320E-02    6.2328225646E-02    6.2028005674E-02
    6.1729157675E-02    6.1431675942E-02    6.1135554786E-02    6.0840788541E-02
    6.0547371559E-02    6.0255298213E-02    5.9964562895E-02    5.9675160018E-02
    5.9387084014E-02    5.9100329336E-02    5.8814890456E-02    5.8530761866E-02
    5.8247938076E-02    5.7966413619E-02    5.7686183045E-02    5.7407240923E-02
    5.7129581843E-02    5.6853200415E-02    5.6578091266E-02    5.6304249045E-02
    5.6031668416E-02    5.5760344068E-02    5.5490270703E-02    5.5221443047E-02
    5.4953855843E-02    5.4687503852E-02    5.4422381856E-02    5.4158484654E-02
    5.3895807064E-02    5.3634343923E-02    5.3374090089E-02    5.3115040434E-02
    5.2857189853E-02    5.2600533257E-02    5.2345065575E-02    5.2090781757E-02
    5.1837676769E-02    5.1585745596E-02    5.1334983242E-02    5.1085384728E-02
    5.0836945095E-02    5.0589659399E-02    5.0343522717E-02    5.0098530143E-02
    4.9854676789E-02    4.9611957784E-02    4.9370368276E-02    4.9129903431E-02
    4.8890558431E-02    4.8652328477E-02    4.8415208788E-02    4.8179194601E-02
    4.7944281167E-02    4.7710463760E-02    4.7477737666E-02    4.7246098193E-02
    4.7015540664E-02    4.6786060418E-02    4.6557652814E-02    4.6330313228E-02
    4.6104037050E-02    4.5878819691E-02    4.5654656577E-02    4.5431543150E-02
    4.5209474872E-02    4.4988447220E-02    4.4768455688E-02    4.4549495786E-02
    4.4331563042E-02    4.4114653001E-02    4.3898761223E-02    4.3683883286E-02
    4.3470014785E-02    4.3257151330E-02    4.3045288549E-02    4.2834422084E-02
    4.2624547596E-02    4.2415660762E-02    4.2207757274E-02    4.2000832841E-02
    4.1794883187E-02    4.1589904055E-02    4.1385891202E-02    4.1182840400E-02
    4.0980747440E-02    4.0779608127E-02    4.0579418281E-02    4.0380173741E-02
    4.0181870360E-02    3.9984504005E-02    3.9788070562E-02    3.9592565931E-02
    3.9397986027E-02    3.9204326783E-02    3.9011584145E-02    3.8819754075E-02
    3.8628832552E-02    3.8438815569E-02    3.8249699135E-02    3.8061479275E-02
    3.7874152026E-02    3.7687713445E-02    3.7502159601E-02    3.7317486579E-02
    3.7133690479E-02    3.6950767416E-02    3.6768713521E-02    3.6587524938E-02
    3.6407197829E-02    3.6227728367E-02    3.6049112743E-02    3.5871347162E-02
    3.5694427843E-02    3.5518351019E-02    3.5343112941E-02    3.5168709871E-02
    3.4995138087E-02    3.4822393882E-02    3.4650473564E-02    3.4479373453E-02
    3.4309089885E-02    3.4139619212E-02    3.3970957797E-02    3.3803102019E-02
    3.3636048272E-02    3.3469792964E-02    3.3304332515E-02    3.3139663361E-02
    3.2975781953E-02    3.2812684753E-02    3.2650368240E-02    3.2488828905E-02
    3.2328063254E-02    3.2168067807E-02    3.2008839096E-02    3.1850373669E-02
    3.1692668087E-02    3.1535718924E-02    3.1379522768E-02    3.1224076221E-02
    3.1069375899E-02    3.0915418430E-02    3.0762200457E-02    3.0609718635E-02
    3.0457969634E-02    3.0306950136E-02    3.0156656838E-02    3.0007086448E-02
    2.9858235689E-02    2.9710101296E-02    2.9562680019E-02    2.9415968619E-02
    2.9269963871E-02    2.9124662563E-02    2.8980061497E-02    2.8836157485E-02
    2.8692947356E-02    2.8550427949E-02    2.8408596116E-02    2.8267448723E-02
    2.8126982648E-02    2.7987194782E-02    2.7848082028E-02    2.7709641303E-02
    2.7571869535E-02    2.7434763665E-02    2.7298320648E-02    2.7162537450E-02
    2.7027411049E-02    2.6892938437E-02    2.6759116616E-02    2.6625942604E-02
    2.6493413427E-02    2.6361526126E-02    2.6230277754E-02    2.6099665375E-02
    2.5969686066E-02    2.5840336916E-02    2.5711615026E-02    2.5583517508E-02
    2.5456041488E-02    2.5329184101E-02    2.5202942498E-02    2.5077313837E-02
    2.4952295293E-02    2.4827884047E-02    2.4704077297E-02    2.4580872250E-02
    2.4458266124E-02    2.4336256151E-02    2.4214839573E-02    2.4094013643E-02
    2.3973775627E-02    2.3854122802E-02    2.3735052456E-02    2.3616561888E-02
    2.3498648409E-02    2.3381309342E-02    2.3264542019E-02    2.3148343786E-02
    2.3032711999E-02    2.2917644024E-02    2.2803137240E-02    2.2689189036E-02
    2.2575796812E-02    2.2462957979E-02    2.2350669960E-02    2.2238930187E-02
    2.2127736106E-02    2.2017085170E-02    2.1906974845E-02    2.1797402608E-02
    2.1688365946E-02    2.1579862357E-02    2.1471889349E-02    2.1364444442E-02
    2.1257525166E-02    2.1151129061E-02    2.1045253677E-02    2.0939896576E-02
    2.0835055330E-02    2.0730727521E-02    2.0626910742E-02    2.0523602595E-02
    2.0420800694E-02    2.0318502662E-02    2.0216706133E-02    2.0115408750E-02
    2.0014608169E-02    1.9914302052E-02    1.9814488074E-02    1.9715163920E-02
    1.9616327283E-02    1.9517975869E-02    1.9420107390E-02    1.9322719572E-02
    1.9225810148E-02    1.9129376862E-02    1.9033417468E-02    1.8937929728E-02
    1.8842911417E-02    1.8748360316E-02    1.8654274219E-02    1.8560650927E-02
    1.8467488251E-02    1.8374784014E-02    1.8282536046E-02    1.8190742187E-02
    1.8099400286E-02    1.8008508203E-02    1.7918063806E-02    1.7828064972E-02
    1.7738509590E-02    1.7649395555E-02    1.7560720772E-02    1.7472483158E-02
    1.7384680634E-02    1.7297311136E-02    1.7210372604E-02    1.7123862990E-02
    1.7037780255E-02    1.6952122367E-02    1.6866887305E-02    1.6782073057E-02
    1.6697677617E-02    1.6613698993E-02    1.6530135196E-02    1.6446984249E-02
    1.6364244185E-02    1.6281913043E-02    1.6199988872E-02    1.6118469730E-02
    1.6037353682E-02    1.5956638803E-02    1.5876323178E-02    1.5796404896E-02
    1.5716882060E-02    1.5637752777E-02    1.5559015165E-02    1.5480667350E-02
    1.5402707465E-02    1.5325133653E-02    1.5247944065E-02    1.5171136859E-02
    1.5094710204E-02    1.5018662274E-02    1.4942991253E-02    1.4867695332E-02
    1.4792772712E-02    1.4718221601E-02    1.4644040215E-02    1.4570226777E-02
    1.4496779520E-02    1.4423696684E-02    1.4350976517E-02    1.4278617274E-02
    1.4206617220E-02    1.4134974626E-02    1.4063687771E-02    1.3992754943E-02
    1.3922174436E-02    1.3851944554E-02    1.3782063606E-02    1.3712529910E-02
    1.3643341792E-02    1.3574497586E-02    1.3505995632E-02    1.3437834278E-02
    1.3370011880E-02    1.3302526801E-02    1.3235377412E-02    1.3168562092E-02
    1.3102079226E-02    1.3035927206E-02    1.2970104433E-02    1.2904609314E-02
    1.2839440265E-02    1.2774595707E-02    1.2710074070E-02    1.2645873789E-02
    1.2581993308E-02    1.2518431079E-02    1.2455185559E-02    1.2392255213E-02
    1.2329638512E-02    1.2267333936E-02    1.2205339970E-02    1.2143655107E-02
    1.2082277848E-02    1.2021206698E-02    1.1960440172E-02    1.1899976789E-02
    1.1839815076E-02    1.1779953569E-02    1.1720390806E-02    1.1661125337E-02
    1.1602155715E-02    1.1543480500E-02    1.1485098260E-02    1.1427007570E-02
    1.1369207010E-02    1.1311695167E-02    1.1254470635E-02    1.1197532014E-02
    1.1140877911E-02    1.1084506939E-02    1.1028417718E-02    1.0972608873E-02
    1.0917079038E-02    1.0861826851E-02    1.0806850957E-02    1.0752150007E-02
    1.0697722659E-02    1.0643567578E-02    1.0589683432E-02    1.0536068899E-02
    1.0482722660E-02    1.0429643405E-02    1.0376829828E-02    1.0324280630E-02
    1.0271994517E-02    1.0219970203E-02    1.0168206407E-02    1.0116701853E-02
    1.0065455272E-02    1.0014465402E-02    9.9637309839E-03    9.9132507673E-03
    9.8630235064E-03    9.8130479615E-03    9.7633228987E-03    9.7138470898E-03
    9.6646193124E-03    9.6156383500E-03    9.5669029916E-03    9.5184120318E-03
    9.4701642712E-03    9.4221585158E-03    9.3743935773E-03    9.3268682729E-03
    9.2795814254E-03    9.2325318633E-03    9.1857184203E-03    9.1391399359E-03
    9.0927952549E-03    9.0466832276E-03    9.0008027098E-03    8.9551525624E-03
    8.9097316522E-03    8.8645388508E-03    8.8195730355E-03    8.7748330887E-03
    8.7303178983E-03    8.6860263572E-03    8.6419573637E-03    8.5981098213E-03
    8.5544826387E-03    8.5110747298E-03    8.4678850135E-03    8.4249124139E-03
    8.3821558603E-03    8.3396142870E-03    8.2972866333E-03    8.2551718436E-03
    8.2132688675E-03    8.1715766591E-03    8.1300941780E-03    8.0888203885E-03
    8.0477542598E-03    8.0068947660E-03    7.9662408863E-03    7.9257916044E-03
    7.8855459093E-03    7.8455027943E-03    7.8056612579E-03    7.7660203032E-03
    7.7265789381E-03    7.6873361752E-03    7.6482910319E-03    7.6094425302E-03
    7.5707896968E-03    7.5323315631E-03    7.4940671650E-03    7.4559955432E-03
    7.4181157428E-03    7.3804268136E-03    7.3429278098E-03    7.3056177904E-03
    7.2684958187E-03    7.2315609624E-03    7.1948122940E-03    7.1582488901E-03
    7.1218698319E-03    7.0856742049E-03    7.0496610993E-03    7.0138296093E-03
    6.9781788335E-03    6.9427078751E-03    6.9074158413E-03    6.8723018438E-03
    6.8373649984E-03    6.8026044253E-03    6.7680192490E-03    6.7336085979E-03
    6.6993716048E-03    6.6653074068E-03    6.6314151450E-03    6.5976939646E-03
    6.5641430150E-03    6.5307614497E-03    6.4975484262E-03    6.4645031062E-03
    6.4316246554E-03    6.3989122435E-03    6.3663650442E-03    6.3339822351E-03
    6.3017629981E-03    6.2697065186E-03    6.2378119864E-03    6.2060785948E-03
    6.1745055413E-03    6.1430920271E-03    6.1118372575E-03    6.0807404413E-03
    6.0498007914E-03    6.0190175245E-03    5.9883898610E-03    5.9579170250E-03
    5.9275982446E-03    5.8974327515E-03    5.8674197811E-03    5.8375585725E-03
    5.8078483687E-03    5.7782884162E-03    5.7488779650E-03    5.7196162691E-03
    5.6905025858E-03    5.6615361764E-03    5.6327163053E-03    5.6040422408E-03
    5.5755132547E-03    5.5471286224E-03    5.5188876227E-03    5.4907895379E-03
    5.4628336539E-03    5.4350192600E-03    5.4073456491E-03    5.3798121174E-03
    5.3524179646E-03    5.3251624937E-03    5.2980450112E-03    5.2710648270E-03
    5.2442212544E-03    5.2175136099E-03    5.1909412135E-03    5.1645033883E-03
    5.1381994610E-03    5.1120287614E-03    5.0859906225E-03    5.0600843809E-03
    5.0343093760E-03    5.0086649507E-03    4.9831504511E-03    4.9577652265E-03
    4.9325086292E-03    4.9073800149E-03    4.8823787423E-03    4.8575041734E-03
    4.8327556732E-03    4.8081326098E-03    4.7836343544E-03    4.7592602815E-03
    4.7350097682E-03    4.7108821951E-03    4.6868769457E-03    4.6629934065E-03
    4.6392309669E-03    4.6155890194E-03    4.5920669596E-03    4.5686641859E-03
    4.5453800997E-03    4.5222141053E-03    4.4991656101E-03    4.4762340241E-03
    4.4534187605E-03    4.4307192353E-03    4.4081348672E-03    4.3856650780E-03
    4.3633092922E-03    4.3410669373E-03    4.3189374433E-03    4.2969202432E-03
    4.2750147730E-03    4.2532204710E-03    4.2315367787E-03    4.2099631401E-03
    4.1884990020E-03    4.1671438141E-03    4.1458970285E-03    4.1247581001E-03
    4.1037264867E-03    4.0828016486E-03    4.0619830487E-03    4.0412701526E-03
    4.0206624287E-03    4.0001593479E-03    3.9797603835E-03    3.9594650118E-03
    3.9392727113E-03    3.9191829635E-03    3.8991952520E-03    3.8793090634E-03
    3.8595238864E-03    3.8398392125E-03    3.8202545358E-03    3.8007693525E-03
    3.7813831618E-03    3.7620954649E-03    3.7429057659E-03    3.7238135710E-03
    3.7048183890E-03    3.6859197312E-03    3.6671171112E-03    3.6484100450E-03
    3.6297980511E-03    3.6112806504E-03    3.5928573659E-03    3.5745277233E-03
    3.5562912506E-03    3.5381474778E-03    3.5200959378E-03    3.5021361652E-03
    3.4842676975E-03    3.4664900740E-03    3.4488028365E-03    3.4312055292E-03
    3.4136976983E-03    3.3962788924E-03    3.3789486624E-03    3.3617065612E-03
    3.3445521442E-03    3.3274849688E-03    3.3105045948E-03    3.2936105839E-03
    3.2768025002E-03    3.2600799099E-03    3.2434423813E-03    3.2268894851E-03
    3.2104207938E-03    3.1940358822E-03    3.1777343271E-03    3.1615157076E-03
    3.1453796048E-03    3.1293256017E-03    3.1133532838E-03    3.0974622381E-03
    3.0816520542E-03    3.0659223234E-03    3.0502726392E-03    3.0347025970E-03
    3.0192117943E-03    3.0037998306E-03    2.9884663073E-03    2.9732108280E-03
    2.9580329981E-03    2.9429324249E-03    2.9279087179E-03    2.9129614884E-03
    2.8980903495E-03    2.8832949166E-03    2.8685748067E-03    2.8539296387E-03
    2.8393590337E-03    2.8248626144E-03    2.8104400054E-03    2.7960908335E-03
    2.7818147269E-03    2.7676113160E-03    2.7534802329E-03    2.7394211116E-03
    2.7254335877E-03    2.7115172991E-03    2.6976718850E-03    2.6838969867E-03
    2.6701922472E-03    2.6565573113E-03    2.6429918256E-03    2.6294954384E-03
    2.6160677999E-03    2.6027085618E-03    2.5894173778E-03    2.5761939032E-03
    2.5630377950E-03    2.5499487120E-03    2.5369263147E-03    2.5239702653E-03
    2.5110802276E-03    2.4982558671E-03    2.4854968511E-03    2.4728028484E-03
    2.4601735297E-03    2.4476085671E-03    2.4351076344E-03    2.4226704071E-03
    2.4102965623E-03    2.3979857787E-03    2.3857377366E-03    2.3735521180E-03
    2.3614286064E-03    2.3493668869E-03    2.3373666462E-03    2.3254275724E-03
    2.3135493556E-03    2.3017316869E-03    2.2899742594E-03    2.2782767676E-03
    2.2666389073E-03    2.2550603761E-03    2.2435408732E-03    2.2320800989E-03
    2.2206777554E-03    2.2093335463E-03    2.1980471765E-03    2.1868183525E-03
    2.1756467825E-03    2.1645321758E-03    2.1534742433E-03    2.1424726974E-03
    2.1315272520E-03    2.1206376223E-03    2.1098035249E-03    2.0990246780E-03
    2.0883008011E-03    2.0776316151E-03    2.0670168424E-03    2.0564562067E-03
    2.0459494331E-03    2.0354962481E-03    2.0250963796E-03    2.0147495569E-03
    2.0044555105E-03    1.9942139725E-03    1.9840246761E-03    1.9738873559E-03
    1.9638017481E-03    1.9537675898E-03    1.9437846198E-03    1.9338525780E-03
    1.9239712056E-03    1.9141402453E-03    1.9043594408E-03    1.8946285374E-03
    1.8849472814E-03    1.8753154207E-03    1.8657327041E-03    1.8561988819E-03
    1.8467137057E-03    1.8372769281E-03    1.8278883032E-03    1.8185475863E-03
    1.8092545338E-03    1.8000089033E-03    1.7908104539E-03    1.7816589457E-03
    1.7725541401E-03    1.7634957994E-03    1.7544836877E-03    1.7455175697E-03
    1.7365972116E-03    1.7277223807E-03    1.7188928455E-03    1.7101083756E-03
    1.7013687418E-03    1.6926737162E-03    1.6840230718E-03    1.6754165829E-03
    1.6668540248E-03    1.6583351742E-03    1.6498598087E-03    1.6414277070E-03
    1.6330386491E-03    1.6246924159E-03    1.6163887897E-03    1.6081275536E-03
    1.5999084919E-03    1.5917313900E-03    1.5835960345E-03    1.5755022128E-03
    1.5674497137E-03    1.5594383267E-03    1.5514678428E-03    1.5435380536E-03
    1.5356487522E-03    1.5277997323E-03    1.5199907890E-03    1.5122217183E-03
    1.5044923172E-03    1.4968023838E-03    1.4891517171E-03    1.4815401173E-03
    1.4739673853E-03    1.4664333235E-03    1.4589377348E-03    1.4514804233E-03
    1.4440611943E-03    1.4366798536E-03    1.4293362085E-03    1.4220300670E-03
    1.4147612380E-03    1.4075295315E-03    1.4003347585E-03    1.3931767309E-03
    1.3860552616E-03    1.3789701642E-03    1.3719212536E-03    1.3649083454E-03
    1.3579312562E-03    1.3509898037E-03    1.3440838061E-03    1.3372130830E-03
    1.3303774545E-03    1.3235767420E-03    1.3168107674E-03    1.3100793539E-03
    1.3033823253E-03    1.2967195065E-03    1.2900907230E-03    1.2834958015E-03
    1.2769345695E-03    1.2704068551E-03    1.2639124878E-03    1.2574512973E-03
    1.2510231148E-03    1.2446277720E-03    1.2382651015E-03    1.2319349367E-03
    1.2256371121E-03    1.2193714627E-03    1.2131378245E-03    1.2069360344E-03
    1.2007659300E-03    1.1946273498E-03    1.1885201331E-03    1.1824441201E-03
    1.1763991515E-03    1.1703850691E-03    1.1644017156E-03    1.1584489341E-03
    1.1525265689E-03    1.1466344648E-03    1.1407724675E-03    1.1349404235E-03
    1.1291381801E-03    1.1233655853E-03    1.1176224880E-03    1.1119087376E-03
    1.1062241846E-03    1.1005686800E-03    1.0949420756E-03    1.0893442242E-03
    1.0837749789E-03    1.0782341940E-03    1.0727217243E-03    1.0672374253E-03
    1.0617811534E-03    1.0563527655E-03    1.0509521195E-03    1.0455790738E-03
    1.0402334876E-03    1.0349152209E-03    1.0296241343E-03    1.0243600891E-03
   </PP_CHI.3>
 </PP_PSWFC>
 <PP_NLCC type="real"  size="1672" columns="4">
    2.8411910687E+00    2.8408102098E+00    2.8396679198E+00    2.8377650590E+00
    2.8351030598E+00    2.8316839255E+00    2.8275102272E+00    2.8225851018E+00
    2.8169122475E+00    2.8104959196E+00    2.8033409258E+00    2.7954526203E+00
    2.7868368976E+00    2.7775001857E+00    2.7674494384E+00    2.7566921273E+00
    2.7452362330E+00    2.7330902360E+00    2.7202631068E+00    2.7067642954E+00
    2.6926037203E+00    2.6777917575E+00    2.6623392281E+00    2.6462573861E+00
    2.6295579055E+00    2.6122528670E+00    2.5943547443E+00    2.5758763899E+00
    2.5568310206E+00    2.5372322027E+00    2.5170938366E+00    2.4964301418E+00
    2.4752556403E+00    2.4535851413E+00    2.4314337244E+00    2.4088167232E+00
    2.3857497088E+00    2.3622484724E+00    2.3383290087E+00    2.3140074988E+00
    2.2893002925E+00    2.2642238911E+00    2.2387949305E+00    2.2130301631E+00
    2.1869464408E+00    2.1605606975E+00    2.1338899319E+00    2.1069511900E+00
    2.0797615480E+00    2.0523380955E+00    2.0246979183E+00    1.9968580816E+00
    1.9688356138E+00    1.9406474898E+00    1.9123106150E+00    1.8838418093E+00
    1.8552577918E+00    1.8265751649E+00    1.7978103999E+00    1.7689798218E+00
    1.7400995952E+00    1.7111857101E+00    1.6822539684E+00    1.6533199705E+00
    1.6243991026E+00    1.5955065241E+00    1.5666571557E+00    1.5378656675E+00
    1.5091464684E+00    1.4805136948E+00    1.4519812011E+00    1.4235625491E+00
    1.3952709995E+00    1.3671195027E+00    1.3391206907E+00    1.3112868693E+00
    1.2836300109E+00    1.2561617475E+00    1.2288933649E+00    1.2018357965E+00
    1.1749996184E+00    1.1483950447E+00    1.1220319229E+00    1.0959197309E+00
    1.0700675732E+00    1.0444841788E+00    1.0191778985E+00    9.9415670370E-01
    9.6942818483E-01    9.4499955101E-01    9.2087762967E-01    8.9706886683E-01
    8.7357932786E-01    8.5041469866E-01    8.2758028726E-01    8.0508102591E-01
    7.8292147357E-01    7.6110581879E-01    7.3963788304E-01    7.1852112438E-01
    6.9775864155E-01    6.7735317840E-01    6.5730712867E-01    6.3762254112E-01
    6.1830112502E-01    5.9934425585E-01    5.8075298140E-01    5.6252802811E-01
    5.4466980764E-01    5.2717842380E-01    5.1005367957E-01    4.9329508448E-01
    4.7690186210E-01    4.6087295778E-01    4.4520704653E-01    4.2990254107E-01
    4.1495760005E-01    4.0037013638E-01    3.8613782567E-01    3.7225811477E-01
    3.5872823041E-01    3.4554518792E-01    3.3270579999E-01    3.2020668545E-01
    3.0804427812E-01    2.9621483568E-01    2.8471444848E-01    2.7353904840E-01
    2.6268441768E-01    2.5214619766E-01    2.4191989753E-01    2.3200090300E-01
    2.2238448488E-01    2.1306580760E-01    2.0403993763E-01    1.9530185177E-01
    1.8684644537E-01    1.7866854039E-01    1.7076289335E-01    1.6312420313E-01
    1.5574711861E-01    1.4862624617E-01    1.4175615702E-01    1.3513139434E-01
    1.2874648032E-01    1.2259592287E-01    1.1667422232E-01    1.1097587778E-01
    1.0549539337E-01    1.0022728428E-01    9.5166082520E-02    9.0306342588E-02
    8.5642646833E-02    8.1169610654E-02    7.6881887470E-02    7.2774173471E-02
    6.8841212165E-02    6.5077798699E-02    6.1478783964E-02    5.8039078487E-02
    5.4753656106E-02    5.1617557431E-02    4.8625893087E-02    4.5773846753E-02
    4.3056677985E-02    4.0469724836E-02    3.8008406268E-02    3.5668224366E-02
    3.3444766351E-02    3.1333706399E-02    2.9330807269E-02    2.7431921743E-02
    2.5632993885E-02    2.3930060116E-02    2.2319250122E-02    2.0796787588E-02
    1.9358990766E-02    1.8002272889E-02    1.6723142422E-02    1.5518203174E-02
    1.4384154257E-02    1.3317789911E-02    1.2315999196E-02    1.1375765552E-02
    1.0494166246E-02    9.6683716900E-03    8.8956446619E-03    8.1733394113E-03
    7.4989006700E-03    6.8698625689E-03    6.2838474651E-03    5.7385646883E-03
    5.2318092080E-03    4.7614602312E-03    4.3254797318E-03    3.9219109211E-03
    3.5488766604E-03    3.2045778252E-03    2.8872916220E-03    2.5953698659E-03
    2.3272372213E-03    2.0813894123E-03    1.8563914060E-03    1.6508755741E-03
    1.4635398364E-03    1.2931457909E-03    1.1385168343E-03    9.9853627610E-04
    8.7214545198E-04    7.5834183745E-04    6.5617716726E-04    5.6475556274E-04
    4.8323167062E-04    4.1080881611E-04    3.4673717309E-04    2.9031195404E-04
    2.4087162221E-04    1.9779612834E-04    1.6050517405E-04    1.2845650405E-04
    1.0114422888E-04    7.8097180018E-05    5.8877298821E-05    4.3078060836E-05
    3.0322936661E-05    2.0263890568E-05    1.2579917848E-05    6.9756217921E-06
    3.1798310408E-06    9.4425791859E-07    4.2198259831E-08    2.6727312691E-07
    1.4322126790E-06    3.3676823637E-06    5.9211514898E-06    8.9558041651E-06
    1.2349492450E-05    1.5993731508E-05    1.9792736474E-05    2.3662500627E-05
    2.7529914431E-05    3.1331924892E-05    3.5014734669E-05    3.8533040248E-05
    4.1849308474E-05    4.4933090694E-05    4.7760373678E-05    5.0312966448E-05
    5.2577922161E-05    5.4546994066E-05    5.6216124603E-05    5.7584966644E-05
    5.8656435866E-05    5.9436293217E-05    5.9932756448E-05    6.0156139621E-05
    6.0118519560E-05    5.9833428146E-05    5.9315569392E-05    5.8580560235E-05
    5.7644693946E-05    5.6524725127E-05    5.5237675226E-05    5.3800657515E-05
    5.2230720525E-05    5.0544708915E-05    4.8759140765E-05    4.6890100340E-05
    4.4953145357E-05    4.2963227811E-05    4.0934627487E-05    3.8880897227E-05
    3.6814819132E-05    3.4748370862E-05    3.2692701206E-05    3.0658114191E-05
    2.8654060952E-05    2.6689138659E-05    2.4771095842E-05    2.2906843404E-05
    2.1102470768E-05    1.9363266514E-05    1.7693742954E-05    1.6097664159E-05
    1.4578076849E-05    1.3137343767E-05    1.1777179033E-05    1.0498685082E-05
    9.3023908278E-06    8.1882906299E-06    7.1558838211E-06    6.2042144060E-06
    5.3319107133E-06    4.5372247253E-06    3.8180708353E-06    3.1720638854E-06
    2.5965562141E-06    2.0886736434E-06    1.6453501838E-06    1.2633613872E-06
    9.3935621867E-07    6.6988735490E-07    4.5143987047E-07    2.8045820105E-07
    1.5337141498E-07    6.6616687914E-08    1.6661038401E-08    2.1264657738E-11
    1.3282129357E-08    5.3112789795E-08    1.1628150583E-07    1.9966866932E-07
    3.0027817891E-07    4.1524723690E-07    5.4185459076E-07    6.7752731515E-07
    8.1984616415E-07    9.6654959343E-07    1.1155364985E-06    1.2648677618E-06
    1.4127666709E-06    1.5576182935E-06    1.6979678814E-06    1.8325183850E-06
    1.9601271527E-06    2.0798018959E-06    2.1906959908E-06    2.2921031982E-06
    2.3834518651E-06    2.4642986912E-06    2.5343221137E-06    2.5933153940E-06
    2.6411794506E-06    2.6779155202E-06    2.7036176800E-06    2.7184653131E-06
    2.7227155392E-06    2.7166956873E-06    2.7007958267E-06    2.6754614257E-06
    2.6411861464E-06    2.5985048398E-06    2.5479867433E-06    2.4902289347E-06
    2.4258500429E-06    2.3554842585E-06    2.2797756432E-06    2.1993727678E-06
    2.1149236816E-06    2.0270712264E-06    1.9364487032E-06    1.8436758892E-06
    1.7493554182E-06    1.6540695089E-06    1.5583770562E-06    1.4628110604E-06
    1.3678764119E-06    1.2740479965E-06    1.1817691402E-06    1.0914503536E-06
    1.0034683921E-06    9.1816559305E-07    8.3584949674E-07    7.5679272089E-07
    6.8123308294E-07    6.0937394901E-07    5.4138479435E-07    4.7740195961E-07
    4.1752958398E-07    3.6184069956E-07    3.1037847079E-07    2.6315755814E-07
    2.2016559734E-07    1.8136476666E-07    1.4669343943E-07    1.1606789384E-07
    8.9384075287E-08    6.6519391064E-08    4.7334523964E-08    3.1675258817E-08
    1.9374294605E-08    1.0253053929E-08    4.1234501670E-09    7.8963185781E-10
    4.9670873294E-11    1.6972016873E-09    5.5229990684E-09    1.1316481499E-08
    1.8867151592E-08    2.7965942414E-08    3.8406495582E-08    4.9986339396E-08
    6.2507985189E-08    7.5779929666E-08    8.9617559973E-08    1.0384397404E-07
    1.1829069450E-07    1.3279830141E-07    1.4721696302E-07    1.6140688052E-07
    1.7523864432E-07    1.8859349910E-07    2.0136353369E-07    2.1345178191E-07
    2.2477225387E-07    2.3524989139E-07    2.4482045494E-07    2.5343034886E-07
    2.6103638382E-07    2.6760548708E-07    2.7311436115E-07    2.7754909743E-07
    2.8090474944E-07    2.8318487091E-07    2.8440102136E-07    2.8457224808E-07
    2.8372454468E-07    2.8189029305E-07    2.7910769535E-07    2.7542019283E-07
    2.7087588671E-07    2.6552695460E-07    2.5942907122E-07    2.5264084002E-07
    2.4522322801E-07    2.3723902224E-07    2.2875229730E-07    2.1982790184E-07
    2.1053097139E-07    2.0092645630E-07    1.9107868273E-07    1.8105093653E-07
    1.7090507303E-07    1.6070116272E-07    1.5049715899E-07    1.4034860194E-07
    1.3030835287E-07    1.2042635462E-07    1.1074943129E-07    1.0132111225E-07
    9.2181488826E-08    8.3367103441E-08    7.4910862605E-08    6.6841983578E-08
    5.9185965901E-08    5.1964587676E-08    4.5195930429E-08    3.8894424181E-08
    3.3070916031E-08    2.7732759990E-08    2.2883924136E-08    1.8525221166E-08
    1.4654427458E-08    1.1265313074E-08    8.3503360860E-09    5.8987878871E-09
    3.8970348574E-09    2.3198593872E-09    1.1683400779E-09    4.2988869862E-10
    8.6431530529E-11   -1.0556567756E-11    3.9560877909E-13    7.3080227858E-12
    5.2525696585E-12    1.4902894572E-12    1.9247611782E-12    4.6700678202E-13
   -9.0813697905E-13   -1.0639679736E-12   -1.0915527046E-13    0.0000000000E+00
    0.0000000000E+00    0.0000000000E+00    0.0000000000E+00    0.0000000000E+00
    0.0000000000E+00    0.0000000000E+00    0.0000000000E+00    0.0000000000E+00
    0.0000000000E+00    0.0000000000E+00    0.0000000000E+00    0.0000000000E+00
    0.0000000000E+00    0.0000000000E+00    0.0000000000E+00    0.0000000000E+00
    0.0000000000E+00    0.0000000000E+00    0.0000000000E+00    0.0000000000E+00
    0.0000000000E+00    0.0000000000E+00    0.0000000000E+00    0.0000000000E+00
    0.0000000000E+00    0.0000000000E+00    0.0000000000E+00    0.0000000000E+00
    0.0000000000E+00    0.0000000000E+00    0.0000000000E+00    0.0000000000E+00
    0.0000000000E+00    0.0000000000E+00    0.0000000000E+00    0.0000000000E+00
    0.0000000000E+00    0.0000000000E+00    0.0000000000E+00    0.0000000000E+00
    0.0000000000E+00    0.0000000000E+00    0.0000000000E+00    0.0000000000E+00
    0.0000000000E+00    0.0000000000E+00    0.0000000000E+00    0.0000000000E+00
    0.0000000000E+00    0.0000000000E+00    0.0000000000E+00    0.0000000000E+00
    0.0000000000E+00    0.0000000000E+00    0.0000000000E+00    0.0000000000E+00
    0.0000000000E+00    0.0000000000E+00    0.0000000000E+00    0.0000000000E+00
    0.0000000000E+00    0.0000000000E+00    0.0000000000E+00    0.0000000000E+00
    0.0000000000E+00    0.0000000000E+00    0.0000000000E+00    0.0000000000E+00
    0.0000000000E+00    0.0000000000E+00    0.0000000000E+00    0.0000000000E+00
    0.0000000000E+00    0.0000000000E+00    0.0000000000E+00    0.0000000000E+00
    0.0000000000E+00    0.0000000000E+00    0.0000000000E+00    0.0000000000E+00
    0.0000000000E+00    0.0000000000E+00    0.0000000000E+00    0.0000000000E+00
    0.0000000000E+00    0.0000000000E+00    0.0000000000E+00    0.0000000000E+00
    0.0000000000E+00    0.0000000000E+00    0.0000000000E+00    0.0000000000E+00
    0.0000000000E+00    0.0000000000E+00    0.0000000000E+00    0.0000000000E+00
    0.0000000000E+00    0.0000000000E+00    0.0000000000E+00    0.0000000000E+00
    0.0000000000E+00    0.0000000000E+00    0.0000000000E+00    0.0000000000E+00
    0.0000000000E+00    0.0000000000E+00    0.0000000000E+00    0.0000000000E+00
    0.0000000000E+00    0.0000000000E+00    0.0000000000E+00    0.0000000000E+00
    0.0000000000E+00    0.0000000000E+00    0.0000000000E+00    0.0000000000E+00
    0.0000000000E+00    0.0000000000E+00    0.0000000000E+00    0.0000000000E+00
    0.0000000000E+00    0.0000000000E+00    0.0000000000E+00    0.0000000000E+00
    0.0000000000E+00    0.0000000000E+00    0.0000000000E+00    0.0000000000E+00
    0.0000000000E+00    0.0000000000E+00    0.0000000000E+00    0.0000000000E+00
    0.0000000000E+00    0.0000000000E+00    0.0000000000E+00    0.0000000000E+00
    0.0000000000E+00    0.0000000000E+00    0.0000000000E+00    0.0000000000E+00
    0.0000000000E+00    0.0000000000E+00    0.0000000000E+00    0.0000000000E+00
    0.0000000000E+00    0.0000000000E+00    0.0000000000E+00    0.0000000000E+00
    0.0000000000E+00    0.0000000000E+00    0.0000000000E+00    0.0000000000E+00
    0.0000000000E+00    0.0000000000E+00    0.0000000000E+00    0.0000000000E+00
    0.0000000000E+00    0.0000000000E+00    0.0000000000E+00    0.0000000000E+00
    0.0000000000E+00    0.0000000000E+00    0.0000000000E+00    0.0000000000E+00
    0.0000000000E+00    0.0000000000E+00    0.0000000000E+00    0.0000000000E+00
    0.0000000000E+00    0.0000000000E+00    0.0000000000E+00    0.0000000000E+00
    0.0000000000E+00    0.0000000000E+00    0.0000000000E+00    0.0000000000E+00
    0.0000000000E+00    0.0000000000E+00    0.0000000000E+00    0.0000000000E+00
    0.0000000000E+00    0.0000000000E+00    0.0000000000E+00    0.0000000000E+00
    0.0000000000E+00    0.0000000000E+00    0.0000000000E+00    0.0000000000E+00
    0.0000000000E+00    0.0000000000E+00    0.0000000000E+00    0.0000000000E+00
    0.0000000000E+00    0.0000000000E+00    0.0000000000E+00    0.0000000000E+00
    0.0000000000E+00    0.0000000000E+00    0.0000000000E+00    0.0000000000E+00
    0.0000000000E+00    0.0000000000E+00    0.0000000000E+00    0.0000000000E+00
    0.0000000000E+00    0.0000000000E+00    0.0000000000E+00    0.0000000000E+00
    0.0000000000E+00    0.0000000000E+00    0.0000000000E+00    0.0000000000E+00
    0.0000000000E+00    0.0000000000E+00    0.0000000000E+00    0.0000000000E+00
    0.0000000000E+00    0.0000000000E+00    0.0000000000E+00    0.0000000000E+00
    0.0000000000E+00    0.0000000000E+00    0.0000000000E+00    0.0000000000E+00
    0.0000000000E+00    0.0000000000E+00    0.0000000000E+00    0.0000000000E+00
    0.0000000000E+00    0.0000000000E+00    0.0000000000E+00    0.0000000000E+00
    0.0000000000E+00    0.0000000000E+00    0.0000000000E+00    0.0000000000E+00
    0.0000000000E+00    0.0000000000E+00    0.0000000000E+00    0.0000000000E+00
    0.0000000000E+00    0.0000000000E+00    0.0000000000E+00    0.0000000000E+00
    0.0000000000E+00    0.0000000000E+00    0.0000000000E+00    0.0000000000E+00
    0.0000000000E+00    0.0000000000E+00    0.0000000000E+00    0.0000000000E+00
    0.0000000000E+00    0.0000000000E+00    0.0000000000E+00    0.0000000000E+00
    0.0000000000E+00    0.0000000000E+00    0.0000000000E+00    0.0000000000E+00
    0.0000000000E+00    0.0000000000E+00    0.0000000000E+00    0.0000000000E+00
    0.0000000000E+00    0.0000000000E+00    0.0000000000E+00    0.0000000000E+00
    0.0000000000E+00    0.0000000000E+00    0.0000000000E+00    0.0000000000E+00
    0.0000000000E+00    0.0000000000E+00    0.0000000000E+00    0.0000000000E+00
    0.0000000000E+00    0.0000000000E+00    0.0000000000E+00    0.0000000000E+00
    0.0000000000E+00    0.0000000000E+00    0.0000000000E+00    0.0000000000E+00
    0.0000000000E+00    0.0000000000E+00    0.0000000000E+00    0.0000000000E+00
    0.0000000000E+00    0.0000000000E+00    0.0000000000E+00    0.0000000000E+00
    0.0000000000E+00    0.0000000000E+00    0.0000000000E+00    0.0000000000E+00
    0.0000000000E+00    0.0000000000E+00    0.0000000000E+00    0.0000000000E+00
    0.0000000000E+00    0.0000000000E+00    0.0000000000E+00    0.0000000000E+00
    0.0000000000E+00    0.0000000000E+00    0.0000000000E+00    0.0000000000E+00
    0.0000000000E+00    0.0000000000E+00    0.0000000000E+00    0.0000000000E+00
    0.0000000000E+00    0.0000000000E+00    0.0000000000E+00    0.0000000000E+00
    0.0000000000E+00    0.0000000000E+00    0.0000000000E+00    0.0000000000E+00
    0.0000000000E+00    0.0000000000E+00    0.0000000000E+00    0.0000000000E+00
    0.0000000000E+00    0.0000000000E+00    0.0000000000E+00    0.0000000000E+00
    0.0000000000E+00    0.0000000000E+00    0.0000000000E+00    0.0000000000E+00
    0.0000000000E+00    0.0000000000E+00    0.0000000000E+00    0.0000000000E+00
    0.0000000000E+00    0.0000000000E+00    0.0000000000E+00    0.0000000000E+00
    0.0000000000E+00    0.0000000000E+00    0.0000000000E+00    0.0000000000E+00
    0.0000000000E+00    0.0000000000E+00    0.0000000000E+00    0.0000000000E+00
    0.0000000000E+00    0.0000000000E+00    0.0000000000E+00    0.0000000000E+00
    0.0000000000E+00    0.0000000000E+00    0.0000000000E+00    0.0000000000E+00
    0.0000000000E+00    0.0000000000E+00    0.0000000000E+00    0.0000000000E+00
    0.0000000000E+00    0.0000000000E+00    0.0000000000E+00    0.0000000000E+00
    0.0000000000E+00    0.0000000000E+00    0.0000000000E+00    0.0000000000E+00
    0.0000000000E+00    0.0000000000E+00    0.0000000000E+00    0.0000000000E+00
    0.0000000000E+00    0.0000000000E+00    0.0000000000E+00    0.0000000000E+00
    0.0000000000E+00    0.0000000000E+00    0.0000000000E+00    0.0000000000E+00
    0.0000000000E+00    0.0000000000E+00    0.0000000000E+00    0.0000000000E+00
    0.0000000000E+00    0.0000000000E+00    0.0000000000E+00    0.0000000000E+00
    0.0000000000E+00    0.0000000000E+00    0.0000000000E+00    0.0000000000E+00
    0.0000000000E+00    0.0000000000E+00    0.0000000000E+00    0.0000000000E+00
    0.0000000000E+00    0.0000000000E+00    0.0000000000E+00    0.0000000000E+00
    0.0000000000E+00    0.0000000000E+00    0.0000000000E+00    0.0000000000E+00
    0.0000000000E+00    0.0000000000E+00    0.0000000000E+00    0.0000000000E+00
    0.0000000000E+00    0.0000000000E+00    0.0000000000E+00    0.0000000000E+00
    0.0000000000E+00    0.0000000000E+00    0.0000000000E+00    0.0000000000E+00
    0.0000000000E+00    0.0000000000E+00    0.0000000000E+00    0.0000000000E+00
    0.0000000000E+00    0.0000000000E+00    0.0000000000E+00    0.0000000000E+00
    0.0000000000E+00    0.0000000000E+00    0.0000000000E+00    0.0000000000E+00
    0.0000000000E+00    0.0000000000E+00    0.0000000000E+00    0.0000000000E+00
    0.0000000000E+00    0.0000000000E+00    0.0000000000E+00    0.0000000000E+00
    0.0000000000E+00    0.0000000000E+00    0.0000000000E+00    0.0000000000E+00
    0.0000000000E+00    0.0000000000E+00    0.0000000000E+00    0.0000000000E+00
    0.0000000000E+00    0.0000000000E+00    0.0000000000E+00    0.0000000000E+00
    0.0000000000E+00    0.0000000000E+00    0.0000000000E+00    0.0000000000E+00
    0.0000000000E+00    0.0000000000E+00    0.0000000000E+00    0.0000000000E+00
    0.0000000000E+00    0.0000000000E+00    0.0000000000E+00    0.0000000000E+00
    0.0000000000E+00    0.0000000000E+00    0.0000000000E+00    0.0000000000E+00
    0.0000000000E+00    0.0000000000E+00    0.0000000000E+00    0.0000000000E+00
    0.0000000000E+00    0.0000000000E+00    0.0000000000E+00    0.0000000000E+00
    0.0000000000E+00    0.0000000000E+00    0.0000000000E+00    0.0000000000E+00
    0.0000000000E+00    0.0000000000E+00    0.0000000000E+00    0.0000000000E+00
    0.0000000000E+00    0.0000000000E+00    0.0000000000E+00    0.0000000000E+00
    0.0000000000E+00    0.0000000000E+00    0.0000000000E+00    0.0000000000E+00
    0.0000000000E+00    0.0000000000E+00    0.0000000000E+00    0.0000000000E+00
    0.0000000000E+00    0.0000000000E+00    0.0000000000E+00    0.0000000000E+00
    0.0000000000E+00    0.0000000000E+00    0.0000000000E+00    0.0000000000E+00
    0.0000000000E+00    0.0000000000E+00    0.0000000000E+00    0.0000000000E+00
    0.0000000000E+00    0.0000000000E+00    0.0000000000E+00    0.0000000000E+00
    0.0000000000E+00    0.0000000000E+00    0.0000000000E+00    0.0000000000E+00
    0.0000000000E+00    0.0000000000E+00    0.0000000000E+00    0.0000000000E+00
    0.0000000000E+00    0.0000000000E+00    0.0000000000E+00    0.0000000000E+00
    0.0000000000E+00    0.0000000000E+00    0.0000000000E+00    0.0000000000E+00
    0.0000000000E+00    0.0000000000E+00    0.0000000000E+00    0.0000000000E+00
    0.0000000000E+00    0.0000000000E+00    0.0000000000E+00    0.0000000000E+00
    0.0000000000E+00    0.0000000000E+00    0.0000000000E+00    0.0000000000E+00
    0.0000000000E+00    0.0000000000E+00    0.0000000000E+00    0.0000000000E+00
    0.0000000000E+00    0.0000000000E+00    0.0000000000E+00    0.0000000000E+00
    0.0000000000E+00    0.0000000000E+00    0.0000000000E+00    0.0000000000E+00
    0.0000000000E+00    0.0000000000E+00    0.0000000000E+00    0.0000000000E+00
    0.0000000000E+00    0.0000000000E+00    0.0000000000E+00    0.0000000000E+00
    0.0000000000E+00    0.0000000000E+00    0.0000000000E+00    0.0000000000E+00
    0.0000000000E+00    0.0000000000E+00    0.0000000000E+00    0.0000000000E+00
    0.0000000000E+00    0.0000000000E+00    0.0000000000E+00    0.0000000000E+00
    0.0000000000E+00    0.0000000000E+00    0.0000000000E+00    0.0000000000E+00
    0.0000000000E+00    0.0000000000E+00    0.0000000000E+00    0.0000000000E+00
    0.0000000000E+00    0.0000000000E+00    0.0000000000E+00    0.0000000000E+00
    0.0000000000E+00    0.0000000000E+00    0.0000000000E+00    0.0000000000E+00
    0.0000000000E+00    0.0000000000E+00    0.0000000000E+00    0.0000000000E+00
    0.0000000000E+00    0.0000000000E+00    0.0000000000E+00    0.0000000000E+00
    0.0000000000E+00    0.0000000000E+00    0.0000000000E+00    0.0000000000E+00
    0.0000000000E+00    0.0000000000E+00    0.0000000000E+00    0.0000000000E+00
    0.0000000000E+00    0.0000000000E+00    0.0000000000E+00    0.0000000000E+00
    0.0000000000E+00    0.0000000000E+00    0.0000000000E+00    0.0000000000E+00
    0.0000000000E+00    0.0000000000E+00    0.0000000000E+00    0.0000000000E+00
    0.0000000000E+00    0.0000000000E+00    0.0000000000E+00    0.0000000000E+00
    0.0000000000E+00    0.0000000000E+00    0.0000000000E+00    0.0000000000E+00
    0.0000000000E+00    0.0000000000E+00    0.0000000000E+00    0.0000000000E+00
    0.0000000000E+00    0.0000000000E+00    0.0000000000E+00    0.0000000000E+00
    0.0000000000E+00    0.0000000000E+00    0.0000000000E+00    0.0000000000E+00
    0.0000000000E+00    0.0000000000E+00    0.0000000000E+00    0.0000000000E+00
    0.0000000000E+00    0.0000000000E+00    0.0000000000E+00    0.0000000000E+00
    0.0000000000E+00    0.0000000000E+00    0.0000000000E+00    0.0000000000E+00
    0.0000000000E+00    0.0000000000E+00    0.0000000000E+00    0.0000000000E+00
    0.0000000000E+00    0.0000000000E+00    0.0000000000E+00    0.0000000000E+00
    0.0000000000E+00    0.0000000000E+00    0.0000000000E+00    0.0000000000E+00
    0.0000000000E+00    0.0000000000E+00    0.0000000000E+00    0.0000000000E+00
    0.0000000000E+00    0.0000000000E+00    0.0000000000E+00    0.0000000000E+00
    0.0000000000E+00    0.0000000000E+00    0.0000000000E+00    0.0000000000E+00
    0.0000000000E+00    0.0000000000E+00    0.0000000000E+00    0.0000000000E+00
    0.0000000000E+00    0.0000000000E+00    0.0000000000E+00    0.0000000000E+00
    0.0000000000E+00    0.0000000000E+00    0.0000000000E+00    0.0000000000E+00
    0.0000000000E+00    0.0000000000E+00    0.0000000000E+00    0.0000000000E+00
    0.0000000000E+00    0.0000000000E+00    0.0000000000E+00    0.0000000000E+00
    0.0000000000E+00    0.0000000000E+00    0.0000000000E+00    0.0000000000E+00
    0.0000000000E+00    0.0000000000E+00    0.0000000000E+00    0.0000000000E+00
    0.0000000000E+00    0.0000000000E+00    0.0000000000E+00    0.0000000000E+00
    0.0000000000E+00    0.0000000000E+00    0.0000000000E+00    0.0000000000E+00
    0.0000000000E+00    0.0000000000E+00    0.0000000000E+00    0.0000000000E+00
    0.0000000000E+00    0.0000000000E+00    0.0000000000E+00    0.0000000000E+00
    0.0000000000E+00    0.0000000000E+00    0.0000000000E+00    0.0000000000E+00
    0.0000000000E+00    0.0000000000E+00    0.0000000000E+00    0.0000000000E+00
    0.0000000000E+00    0.0000000000E+00    0.0000000000E+00    0.0000000000E+00
    0.0000000000E+00    0.0000000000E+00    0.0000000000E+00    0.0000000000E+00
    0.0000000000E+00    0.0000000000E+00    0.0000000000E+00    0.0000000000E+00
    0.0000000000E+00    0.0000000000E+00    0.0000000000E+00    0.0000000000E+00
    0.0000000000E+00    0.0000000000E+00    0.0000000000E+00    0.0000000000E+00
    0.0000000000E+00    0.0000000000E+00    0.0000000000E+00    0.0000000000E+00
    0.0000000000E+00    0.0000000000E+00    0.0000000000E+00    0.0000000000E+00
    0.0000000000E+00    0.0000000000E+00    0.0000000000E+00    0.0000000000E+00
    0.0000000000E+00    0.0000000000E+00    0.0000000000E+00    0.0000000000E+00
    0.0000000000E+00    0.0000000000E+00    0.0000000000E+00    0.0000000000E+00
    0.0000000000E+00    0.0000000000E+00    0.0000000000E+00    0.0000000000E+00
    0.0000000000E+00    0.0000000000E+00    0.0000000000E+00    0.0000000000E+00
    0.0000000000E+00    0.0000000000E+00    0.0000000000E+00    0.0000000000E+00
    0.0000000000E+00    0.0000000000E+00    0.0000000000E+00    0.0000000000E+00
    0.0000000000E+00    0.0000000000E+00    0.0000000000E+00    0.0000000000E+00
    0.0000000000E+00    0.0000000000E+00    0.0000000000E+00    0.0000000000E+00
    0.0000000000E+00    0.0000000000E+00    0.0000000000E+00    0.0000000000E+00
    0.0000000000E+00    0.0000000000E+00    0.0000000000E+00    0.0000000000E+00
    0.0000000000E+00    0.0000000000E+00    0.0000000000E+00    0.0000000000E+00
    0.0000000000E+00    0.0000000000E+00    0.0000000000E+00    0.0000000000E+00
    0.0000000000E+00    0.0000000000E+00    0.0000000000E+00    0.0000000000E+00
    0.0000000000E+00    0.0000000000E+00    0.0000000000E+00    0.0000000000E+00
    0.0000000000E+00    0.0000000000E+00    0.0000000000E+00    0.0000000000E+00
    0.0000000000E+00    0.0000000000E+00    0.0000000000E+00    0.0000000000E+00
    0.0000000000E+00    0.0000000000E+00    0.0000000000E+00    0.0000000000E+00
    0.0000000000E+00    0.0000000000E+00    0.0000000000E+00    0.0000000000E+00
    0.0000000000E+00    0.0000000000E+00    0.0000000000E+00    0.0000000000E+00
    0.0000000000E+00    0.0000000000E+00    0.0000000000E+00    0.0000000000E+00
    0.0000000000E+00    0.0000000000E+00    0.0000000000E+00    0.0000000000E+00
    0.0000000000E+00    0.0000000000E+00    0.0000000000E+00    0.0000000000E+00
    0.0000000000E+00    0.0000000000E+00    0.0000000000E+00    0.0000000000E+00
    0.0000000000E+00    0.0000000000E+00    0.0000000000E+00    0.0000000000E+00
    0.0000000000E+00    0.0000000000E+00    0.0000000000E+00    0.0000000000E+00
    0.0000000000E+00    0.0000000000E+00    0.0000000000E+00    0.0000000000E+00
    0.0000000000E+00    0.0000000000E+00    0.0000000000E+00    0.0000000000E+00
    0.0000000000E+00    0.0000000000E+00    0.0000000000E+00    0.0000000000E+00
    0.0000000000E+00    0.0000000000E+00    0.0000000000E+00    0.0000000000E+00
    0.0000000000E+00    0.0000000000E+00    0.0000000000E+00    0.0000000000E+00
    0.0000000000E+00    0.0000000000E+00    0.0000000000E+00    0.0000000000E+00
    0.0000000000E+00    0.0000000000E+00    0.0000000000E+00    0.0000000000E+00
    0.0000000000E+00    0.0000000000E+00    0.0000000000E+00    0.0000000000E+00
    0.0000000000E+00    0.0000000000E+00    0.0000000000E+00    0.0000000000E+00
    0.0000000000E+00    0.0000000000E+00    0.0000000000E+00    0.0000000000E+00
    0.0000000000E+00    0.0000000000E+00    0.0000000000E+00    0.0000000000E+00
    0.0000000000E+00    0.0000000000E+00    0.0000000000E+00    0.0000000000E+00
    0.0000000000E+00    0.0000000000E+00    0.0000000000E+00    0.0000000000E+00
    0.0000000000E+00    0.0000000000E+00    0.0000000000E+00    0.0000000000E+00
    0.0000000000E+00    0.0000000000E+00    0.0000000000E+00    0.0000000000E+00
    0.0000000000E+00    0.0000000000E+00    0.0000000000E+00    0.0000000000E+00
    0.0000000000E+00    0.0000000000E+00    0.0000000000E+00    0.0000000000E+00
    0.0000000000E+00    0.0000000000E+00    0.0000000000E+00    0.0000000000E+00
    0.0000000000E+00    0.0000000000E+00    0.0000000000E+00    0.0000000000E+00
    0.0000000000E+00    0.0000000000E+00    0.0000000000E+00    0.0000000000E+00
    0.0000000000E+00    0.0000000000E+00    0.0000000000E+00    0.0000000000E+00
    0.0000000000E+00    0.0000000000E+00    0.0000000000E+00    0.0000000000E+00
    0.0000000000E+00    0.0000000000E+00    0.0000000000E+00    0.0000000000E+00
    0.0000000000E+00    0.0000000000E+00    0.0000000000E+00    0.0000000000E+00
    0.0000000000E+00    0.0000000000E+00    0.0000000000E+00    0.0000000000E+00
    0.0000000000E+00    0.0000000000E+00    0.0000000000E+00    0.0000000000E+00
    0.0000000000E+00    0.0000000000E+00    0.0000000000E+00    0.0000000000E+00
    0.0000000000E+00    0.0000000000E+00    0.0000000000E+00    0.0000000000E+00
    0.0000000000E+00    0.0000000000E+00    0.0000000000E+00    0.0000000000E+00
    0.0000000000E+00    0.0000000000E+00    0.0000000000E+00    0.0000000000E+00
    0.0000000000E+00    0.0000000000E+00    0.0000000000E+00    0.0000000000E+00
    0.0000000000E+00    0.0000000000E+00    0.0000000000E+00    0.0000000000E+00
    0.0000000000E+00    0.0000000000E+00    0.0000000000E+00    0.0000000000E+00
    0.0000000000E+00    0.0000000000E+00    0.0000000000E+00    0.0000000000E+00
    0.0000000000E+00    0.0000000000E+00    0.0000000000E+00    0.0000000000E+00
    0.0000000000E+00    0.0000000000E+00    0.0000000000E+00    0.0000000000E+00
    0.0000000000E+00    0.0000000000E+00    0.0000000000E+00    0.0000000000E+00
    0.0000000000E+00    0.0000000000E+00    0.0000000000E+00    0.0000000000E+00
    0.0000000000E+00    0.0000000000E+00    0.0000000000E+00    0.0000000000E+00
    0.0000000000E+00    0.0000000000E+00    0.0000000000E+00    0.0000000000E+00
    0.0000000000E+00    0.0000000000E+00    0.0000000000E+00    0.0000000000E+00
    0.0000000000E+00    0.0000000000E+00    0.0000000000E+00    0.0000000000E+00
    0.0000000000E+00    0.0000000000E+00    0.0000000000E+00    0.0000000000E+00
    0.0000000000E+00    0.0000000000E+00    0.0000000000E+00    0.0000000000E+00
    0.0000000000E+00    0.0000000000E+00    0.0000000000E+00    0.0000000000E+00
    0.0000000000E+00    0.0000000000E+00    0.0000000000E+00    0.0000000000E+00
    0.0000000000E+00    0.0000000000E+00    0.0000000000E+00    0.0000000000E+00
    0.0000000000E+00    0.0000000000E+00    0.0000000000E+00    0.0000000000E+00
    0.0000000000E+00    0.0000000000E+00    0.0000000000E+00    0.0000000000E+00
    0.0000000000E+00    0.0000000000E+00    0.0000000000E+00    0.0000000000E+00
    0.0000000000E+00    0.0000000000E+00    0.0000000000E+00    0.0000000000E+00
    0.0000000000E+00    0.0000000000E+00    0.0000000000E+00    0.0000000000E+00
    0.0000000000E+00    0.0000000000E+00    0.0000000000E+00    0.0000000000E+00
    0.0000000000E+00    0.0000000000E+00    0.0000000000E+00    0.0000000000E+00
    0.0000000000E+00    0.0000000000E+00    0.0000000000E+00    0.0000000000E+00
    0.0000000000E+00    0.0000000000E+00    0.0000000000E+00    0.0000000000E+00
    0.0000000000E+00    0.0000000000E+00    0.0000000000E+00    0.0000000000E+00
    0.0000000000E+00    0.0000000000E+00    0.0000000000E+00    0.0000000000E+00
    0.0000000000E+00    0.0000000000E+00    0.0000000000E+00    0.0000000000E+00
    0.0000000000E+00    0.0000000000E+00    0.0000000000E+00    0.0000000000E+00
    0.0000000000E+00    0.0000000000E+00    0.0000000000E+00    0.0000000000E+00
    0.0000000000E+00    0.0000000000E+00    0.0000000000E+00    0.0000000000E+00
    0.0000000000E+00    0.0000000000E+00    0.0000000000E+00    0.0000000000E+00
    0.0000000000E+00    0.0000000000E+00    0.0000000000E+00    0.0000000000E+00
    0.0000000000E+00    0.0000000000E+00    0.0000000000E+00    0.0000000000E+00
    0.0000000000E+00    0.0000000000E+00    0.0000000000E+00    0.0000000000E+00
    0.0000000000E+00    0.0000000000E+00    0.0000000000E+00    0.0000000000E+00
    0.0000000000E+00    0.0000000000E+00    0.0000000000E+00    0.0000000000E+00
    0.0000000000E+00    0.0000000000E+00    0.0000000000E+00    0.0000000000E+00
    0.0000000000E+00    0.0000000000E+00    0.0000000000E+00    0.0000000000E+00
    0.0000000000E+00    0.0000000000E+00    0.0000000000E+00    0.0000000000E+00
    0.0000000000E+00    0.0000000000E+00    0.0000000000E+00    0.0000000000E+00
    0.0000000000E+00    0.0000000000E+00    0.0000000000E+00    0.0000000000E+00
    0.0000000000E+00    0.0000000000E+00    0.0000000000E+00    0.0000000000E+00
    0.0000000000E+00    0.0000000000E+00    0.0000000000E+00    0.0000000000E+00
    0.0000000000E+00    0.0000000000E+00    0.0000000000E+00    0.0000000000E+00
    0.0000000000E+00    0.0000000000E+00    0.0000000000E+00    0.0000000000E+00
    0.0000000000E+00    0.0000000000E+00    0.0000000000E+00    0.0000000000E+00
    0.0000000000E+00    0.0000000000E+00    0.0000000000E+00    0.0000000000E+00
    0.0000000000E+00    0.0000000000E+00    0.0000000000E+00    0.0000000000E+00
    0.0000000000E+00    0.0000000000E+00    0.0000000000E+00    0.0000000000E+00
    0.0000000000E+00    0.0000000000E+00    0.0000000000E+00    0.0000000000E+00
    0.0000000000E+00    0.0000000000E+00    0.0000000000E+00    0.0000000000E+00
    0.0000000000E+00    0.0000000000E+00    0.0000000000E+00    0.0000000000E+00
    0.0000000000E+00    0.0000000000E+00    0.0000000000E+00    0.0000000000E+00
    0.0000000000E+00    0.0000000000E+00    0.0000000000E+00    0.0000000000E+00
    0.0000000000E+00    0.0000000000E+00    0.0000000000E+00    0.0000000000E+00
 </PP_NLCC>
 <PP_RHOATOM type="real"  size="1672" columns="4">
    0.0000000000E+00    2.2156552558E-05    8.8647032814E-05    1.9954133563E-04
    3.5498065170E-04    5.5521431426E-04    8.0065098165E-04    1.0919237555E-03
    1.4299687249E-03    1.8161163188E-03    2.2521947469E-03    2.7406447107E-03
    3.2846444697E-03    3.8882442649E-03    4.5565090134E-03    5.2956681187E-03
    6.1132711673E-03    7.0183482264E-03    8.0215734014E-03    9.1354302690E-03
    1.0374377765E-02    1.1755015079E-02    1.3296244092E-02    1.5019427882E-02
    1.6948543814E-02    1.9110329771E-02    2.1534422057E-02    2.4253483562E-02
    2.7303320822E-02    3.0722988611E-02    3.4554880808E-02    3.8844806316E-02
    4.3642048872E-02    4.8999409701E-02    5.4973232017E-02    6.1623406479E-02
    6.9013356826E-02    7.7210004982E-02    8.6283715075E-02    9.6308215890E-02
    1.0736050142E-01    1.1952070928E-01    1.3287197690E-01    1.4750027551E-01
    1.6349422207E-01    1.8094486943E-01    1.9994547510E-01    2.2059124923E-01
    2.4297908236E-01    2.6720725380E-01    2.9337512155E-01    3.2158279460E-01
    3.5193078905E-01    3.8451966892E-01    4.1944967332E-01    4.5682033111E-01
    4.9673006479E-01    5.3927578509E-01    5.8455247794E-01    6.3265278561E-01
    6.8366658372E-01    7.3768055606E-01    7.9477776900E-01    8.5503724741E-01
    9.1853355407E-01    9.8533637444E-01    1.0555101088E+00    1.1291134734E+00
    1.2061991133E+00    1.2868132273E+00    1.3709952090E+00    1.4587773031E+00
    1.5501842811E+00    1.6452331369E+00    1.7439328035E+00    1.8462838932E+00
    1.9522784628E+00    2.0618998037E+00    2.1751222604E+00    2.2919110758E+00
    2.4122222670E+00    2.5360025303E+00    2.6631891776E+00    2.7937101041E+00
    2.9274837880E+00    3.0644193221E+00    3.2044164785E+00    3.3473658058E+00
    3.4931487584E+00    3.6416378587E+00    3.7926968909E+00    3.9461811261E+00
    4.1019375794E+00    4.2598052955E+00    4.4196156651E+00    4.5811927687E+00
    4.7443537478E+00    4.9089092020E+00    5.0746636109E+00    5.2414157790E+00
    5.4089593018E+00    5.5770830529E+00    5.7455716882E+00    5.9142061673E+00
    6.0827642893E+00    6.2510212415E+00    6.4187501585E+00    6.5857226905E+00
    6.7517095779E+00    6.9164812306E+00    7.0798083107E+00    7.2414623145E+00
    7.4012161540E+00    7.5588447343E+00    7.7141255254E+00    7.8668391270E+00
    8.0167698227E+00    8.1637061238E+00    8.3074412991E+00    8.4477738898E+00
    8.5845082077E+00    8.7174548148E+00    8.8464309828E+00    8.9712611312E+00
    9.0917772426E+00    9.2078192537E+00    9.3192354209E+00    9.4258826599E+00
    9.5276268573E+00    9.6243431549E+00    9.7159162041E+00    9.8022403913E+00
    9.8832200336E+00    9.9587695435E+00    1.0028813563E+01    1.0093287068E+01
    1.0152135440E+01    1.0205314509E+01    1.0252790565E+01    1.0294540339E+01
    1.0330550957E+01    1.0360819860E+01    1.0385354700E+01    1.0404173205E+01
    1.0417303021E+01    1.0424781524E+01    1.0426655609E+01    1.0422981455E+01
    1.0413824266E+01    1.0399257993E+01    1.0379365035E+01    1.0354235916E+01
    1.0323968954E+01    1.0288669906E+01    1.0248451602E+01    1.0203433564E+01
    1.0153741613E+01    1.0099507471E+01    1.0040868347E+01    9.9779665191E+00
    9.9109489113E+00    9.8399666669E+00    9.7651747172E+00    9.6867313498E+00
    9.6047977775E+00    9.5195377082E+00    9.4311169184E+00    9.3397028306E+00
    9.2454640961E+00    9.1485701847E+00    9.0491909828E+00    8.9474963995E+00
    8.8436559839E+00    8.7378385522E+00    8.6302118281E+00    8.5209420949E+00
    8.4101938614E+00    8.2981295424E+00    8.1849091541E+00    8.0706900240E+00
    7.9556265178E+00    7.8398697825E+00    7.7235675051E+00    7.6068636899E+00
    7.4898984513E+00    7.3728078248E+00    7.2557235953E+00    7.1387731422E+00
    7.0220793022E+00    6.9057602489E+00    6.7899293896E+00    6.6746952785E+00
    6.5601615464E+00    6.4464268466E+00    6.3335848162E+00    6.2217240525E+00
    6.1109281048E+00    6.0012754791E+00    5.8928396584E+00    5.7856891337E+00
    5.6798874500E+00    5.5754932620E+00    5.4725604022E+00    5.3711379594E+00
    5.2712703668E+00    5.1729974993E+00    5.0763547796E+00    4.9813732917E+00
    4.8880799016E+00    4.7964973849E+00    4.7066445591E+00    4.6185364219E+00
    4.5321842933E+00    4.4475959617E+00    4.3647758327E+00    4.2837250808E+00
    4.2044418024E+00    4.1269211706E+00    4.0511555903E+00    3.9771348533E+00
    3.9048462936E+00    3.8342749410E+00    3.7654036742E+00    3.6982133718E+00
    3.6326830604E+00    3.5687900617E+00    3.5065101350E+00    3.4458176176E+00
    3.3866855613E+00    3.3290858648E+00    3.2729894029E+00    3.2183661502E+00
    3.1651853014E+00    3.1134153870E+00    3.0630243834E+00    3.0139798189E+00
    2.9662488749E+00    2.9197984816E+00    2.8745954090E+00    2.8306063531E+00
    2.7877980166E+00    2.7461371849E+00    2.7055907977E+00    2.6661260144E+00
    2.6277102761E+00    2.5903113623E+00    2.5538974427E+00    2.5184371251E+00
    2.4838994988E+00    2.4502541733E+00    2.4174713139E+00    2.3855216722E+00
    2.3543766138E+00    2.3240081420E+00    2.2943889180E+00    2.2654922780E+00
    2.2372922471E+00    2.2097635506E+00    2.1828816217E+00    2.1566226077E+00
    2.1309633732E+00    2.1058815009E+00    2.0813552909E+00    2.0573637572E+00
    2.0338866238E+00    2.0109043175E+00    1.9883979608E+00    1.9663493622E+00
    1.9447410065E+00    1.9235560427E+00    1.9027782727E+00    1.8823921372E+00
    1.8623827024E+00    1.8427356459E+00    1.8234372410E+00    1.8044743421E+00
    1.7858343688E+00    1.7675052901E+00    1.7494756084E+00    1.7317343432E+00
    1.7142710150E+00    1.6970756294E+00    1.6801386606E+00    1.6634510356E+00
    1.6470041184E+00    1.6307896942E+00    1.6147999540E+00    1.5990274793E+00
    1.5834652273E+00    1.5681065158E+00    1.5529450090E+00    1.5379747036E+00
    1.5231899145E+00    1.5085852613E+00    1.4941556555E+00    1.4798962870E+00
    1.4658026120E+00    1.4518703408E+00    1.4380954294E+00    1.4244740722E+00
    1.4110026973E+00    1.3976779577E+00    1.3844967197E+00    1.3714560521E+00
    1.3585532129E+00    1.3457856417E+00    1.3331509497E+00    1.3206469095E+00
    1.3082714457E+00    1.2960226258E+00    1.2838986508E+00    1.2718978477E+00
    1.2600186465E+00    1.2482595601E+00    1.2366191492E+00    1.2250959768E+00
    1.2136886254E+00    1.2023957070E+00    1.1912158537E+00    1.1801477184E+00
    1.1691899748E+00    1.1583413168E+00    1.1476004584E+00    1.1369661330E+00
    1.1264370934E+00    1.1160121108E+00    1.1056899752E+00    1.0954694945E+00
    1.0853494945E+00    1.0753288181E+00    1.0654063255E+00    1.0555808937E+00
    1.0458514160E+00    1.0362168018E+00    1.0266759764E+00    1.0172278806E+00
    1.0078714706E+00    9.9860571725E-01    9.8942960639E-01    9.8034213813E-01
    9.7134232676E-01    9.6242920047E-01    9.5360180112E-01    9.4485918394E-01
    9.3620041736E-01    9.2762458271E-01    9.1913077402E-01    9.1071809781E-01
    9.0238567282E-01    8.9413262987E-01    8.8595811156E-01    8.7786127214E-01
    8.6984127726E-01    8.6189730381E-01    8.5402853968E-01    8.4623418362E-01
    8.3851344502E-01    8.3086554373E-01    8.2328970992E-01    8.1578518385E-01
    8.0835121575E-01    8.0098706562E-01    7.9369200307E-01    7.8646530719E-01
    7.7930626636E-01    7.7221417810E-01    7.6518834895E-01    7.5822809427E-01
    7.5133273815E-01    7.4450161323E-01    7.3773406059E-01    7.3102942959E-01
    7.2438707774E-01    7.1780637061E-01    7.1128668162E-01    7.0482739199E-01
    6.9842789060E-01    6.9208757383E-01    6.8580584550E-01    6.7958211671E-01
    6.7341580573E-01    6.6730633794E-01    6.6125314562E-01    6.5525566797E-01
    6.4931335088E-01    6.4342564691E-01    6.3759201517E-01    6.3181192120E-01
    6.2608483688E-01    6.2041024036E-01    6.1478761593E-01    6.0921645394E-01
    6.0369625073E-01    5.9822650849E-01    5.9280673525E-01    5.8743644471E-01
    5.8211515622E-01    5.7684239466E-01    5.7161769037E-01    5.6644057908E-01
    5.6131060183E-01    5.5622730485E-01    5.5119023956E-01    5.4619896244E-01
    5.4125303496E-01    5.3635202354E-01    5.3149549945E-01    5.2668303874E-01
    5.2191422221E-01    5.1718863528E-01    5.1250586799E-01    5.0786551489E-01
    5.0326717499E-01    4.9871045169E-01    4.9419495274E-01    4.8972029017E-01
    4.8528608022E-01    4.8089194327E-01    4.7653750383E-01    4.7222239044E-01
    4.6794623562E-01    4.6370867584E-01    4.5950935144E-01    4.5534790659E-01
    4.5122398923E-01    4.4713725103E-01    4.4308734734E-01    4.3907393711E-01
    4.3509668289E-01    4.3115525075E-01    4.2724931023E-01    4.2337853432E-01
    4.1954259938E-01    4.1574118513E-01    4.1197397458E-01    4.0824065401E-01
    4.0454091289E-01    4.0087444387E-01    3.9724094275E-01    3.9364010839E-01
    3.9007164272E-01    3.8653525066E-01    3.8303064012E-01    3.7955752194E-01
    3.7611560985E-01    3.7270462043E-01    3.6932427311E-01    3.6597429007E-01
    3.6265439627E-01    3.5936431938E-01    3.5610378974E-01    3.5287254036E-01
    3.4967030686E-01    3.4649682742E-01    3.4335184281E-01    3.4023509630E-01
    3.3714633364E-01    3.3408530306E-01    3.3105175522E-01    3.2804544316E-01
    3.2506612230E-01    3.2211355040E-01    3.1918748756E-01    3.1628769612E-01
    3.1341394072E-01    3.1056598822E-01    3.0774360767E-01    3.0494657032E-01
    3.0217464958E-01    2.9942762096E-01    2.9670526211E-01    2.9400735274E-01
    2.9133367462E-01    2.8868401155E-01    2.8605814936E-01    2.8345587585E-01
    2.8087698078E-01    2.7832125586E-01    2.7578849473E-01    2.7327849292E-01
    2.7079104783E-01    2.6832595873E-01    2.6588302673E-01    2.6346205474E-01
    2.6106284749E-01    2.5868521147E-01    2.5632895493E-01    2.5399388788E-01
    2.5167982201E-01    2.4938657075E-01    2.4711394921E-01    2.4486177414E-01
    2.4262986396E-01    2.4041803873E-01    2.3822612011E-01    2.3605393135E-01
    2.3390129731E-01    2.3176804438E-01    2.2965400053E-01    2.2755899525E-01
    2.2548285954E-01    2.2342542591E-01    2.2138652837E-01    2.1936600238E-01
    2.1736368488E-01    2.1537941423E-01    2.1341303024E-01    2.1146437412E-01
    2.0953328850E-01    2.0761961736E-01    2.0572320610E-01    2.0384390146E-01
    2.0198155151E-01    2.0013600569E-01    1.9830711474E-01    1.9649473071E-01
    1.9469870695E-01    1.9291889810E-01    1.9115516006E-01    1.8940735002E-01
    1.8767532638E-01    1.8595894879E-01    1.8425807816E-01    1.8257257656E-01
    1.8090230730E-01    1.7924713488E-01    1.7760692497E-01    1.7598154441E-01
    1.7437086121E-01    1.7277474453E-01    1.7119306466E-01    1.6962569304E-01
    1.6807250220E-01    1.6653336579E-01    1.6500815858E-01    1.6349675640E-01
    1.6199903618E-01    1.6051487591E-01    1.5904415465E-01    1.5758675250E-01
    1.5614255062E-01    1.5471143118E-01    1.5329327740E-01    1.5188797350E-01
    1.5049540470E-01    1.4911545725E-01    1.4774801836E-01    1.4639297622E-01
    1.4505022001E-01    1.4371963987E-01    1.4240112689E-01    1.4109457311E-01
    1.3979987152E-01    1.3851691603E-01    1.3724560146E-01    1.3598582359E-01
    1.3473747907E-01    1.3350046546E-01    1.3227468121E-01    1.3106002568E-01
    1.2985639908E-01    1.2866370250E-01    1.2748183790E-01    1.2631070809E-01
    1.2515021671E-01    1.2400026829E-01    1.2286076815E-01    1.2173162246E-01
    1.2061273821E-01    1.1950402319E-01    1.1840538600E-01    1.1731673607E-01
    1.1623798359E-01    1.1516903955E-01    1.1410981571E-01    1.1306022463E-01
    1.1202017961E-01    1.1098959473E-01    1.0996838481E-01    1.0895646544E-01
    1.0795375292E-01    1.0696016433E-01    1.0597561744E-01    1.0500003076E-01
    1.0403332352E-01    1.0307541567E-01    1.0212622785E-01    1.0118568140E-01
    1.0025369837E-01    9.9330201481E-02    9.8415114157E-02    9.7508360482E-02
    9.6609865220E-02    9.5719553796E-02    9.4837352301E-02    9.3963187475E-02
    9.3096986712E-02    9.2238678048E-02    9.1388190156E-02    9.0545452346E-02
    8.9710394553E-02    8.8882947336E-02    8.8063041869E-02    8.7250609941E-02
    8.6445583946E-02    8.5647896883E-02    8.4857482343E-02    8.4074274513E-02
    8.3298208165E-02    8.2529218652E-02    8.1767241906E-02    8.1012214430E-02
    8.0264073294E-02    7.9522756131E-02    7.8788201130E-02    7.8060347036E-02
    7.7339133138E-02    7.6624499271E-02    7.5916385810E-02    7.5214733662E-02
    7.4519484264E-02    7.3830579579E-02    7.3147962090E-02    7.2471574798E-02
    7.1801361212E-02    7.1137265353E-02    7.0479231741E-02    6.9827205398E-02
    6.9181131838E-02    6.8540957065E-02    6.7906627572E-02    6.7278090331E-02
    6.6655292791E-02    6.6038182878E-02    6.5426708983E-02    6.4820819965E-02
    6.4220465143E-02    6.3625594294E-02    6.3036157649E-02    6.2452105885E-02
    6.1873390128E-02    6.1299961944E-02    6.0731773336E-02    6.0168776742E-02
    5.9610925029E-02    5.9058171491E-02    5.8510469844E-02    5.7967774223E-02
    5.7430039177E-02    5.6897219669E-02    5.6369271067E-02    5.5846149145E-02
    5.5327810077E-02    5.4814210435E-02    5.4305307182E-02    5.3801057675E-02
    5.3301419654E-02    5.2806351245E-02    5.2315810952E-02    5.1829757657E-02
    5.1348150613E-02    5.0870949445E-02    5.0398114143E-02    4.9929605061E-02
    4.9465382912E-02    4.9005408769E-02    4.8549644053E-02    4.8098050540E-02
    4.7650590353E-02    4.7207225956E-02    4.6767920156E-02    4.6332636100E-02
    4.5901337267E-02    4.5473987468E-02    4.5050550846E-02    4.4630991867E-02
    4.4215275322E-02    4.3803366320E-02    4.3395230289E-02    4.2990832972E-02
    4.2590140422E-02    4.2193119001E-02    4.1799735378E-02    4.1409956524E-02
    4.1023749712E-02    4.0641082511E-02    4.0261922786E-02    3.9886238694E-02
    3.9513998682E-02    3.9145171484E-02    3.8779726118E-02    3.8417631885E-02
    3.8058858364E-02    3.7703375411E-02    3.7351153157E-02    3.7002162004E-02
    3.6656372624E-02    3.6313755955E-02    3.5974283199E-02    3.5637925822E-02
    3.5304655548E-02    3.4974444358E-02    3.4647264488E-02    3.4323088427E-02
    3.4001888914E-02    3.3683638936E-02    3.3368311725E-02    3.3055880757E-02
    3.2746319750E-02    3.2439602659E-02    3.2135703676E-02    3.1834597229E-02
    3.1536257979E-02    3.1240660813E-02    3.0947780852E-02    3.0657593439E-02
    3.0370074142E-02    3.0085198752E-02    2.9802943279E-02    2.9523283950E-02
    2.9246197209E-02    2.8971659715E-02    2.8699648337E-02    2.8430140154E-02
    2.8163112454E-02    2.7898542731E-02    2.7636408684E-02    2.7376688212E-02
    2.7119359417E-02    2.6864400598E-02    2.6611790251E-02    2.6361507068E-02
    2.6113529934E-02    2.5867837924E-02    2.5624410304E-02    2.5383226528E-02
    2.5144266236E-02    2.4907509252E-02    2.4672935583E-02    2.4440525417E-02
    2.4210259122E-02    2.3982117243E-02    2.3756080503E-02    2.3532129796E-02
    2.3310246191E-02    2.3090410931E-02    2.2872605423E-02    2.2656811246E-02
    2.2443010146E-02    2.2231184032E-02    2.2021314978E-02    2.1813385219E-02
    2.1607377151E-02    2.1403273331E-02    2.1201056470E-02    2.1000709438E-02
    2.0802215259E-02    2.0605557110E-02    2.0410718321E-02    2.0217682370E-02
    2.0026432888E-02    1.9836953650E-02    1.9649228579E-02    1.9463241745E-02
    1.9278977358E-02    1.9096419773E-02    1.8915553486E-02    1.8736363132E-02
    1.8558833485E-02    1.8382949455E-02    1.8208696090E-02    1.8036058573E-02
    1.7865022218E-02    1.7695572473E-02    1.7527694917E-02    1.7361375259E-02
    1.7196599337E-02    1.7033353115E-02    1.6871622685E-02    1.6711394264E-02
    1.6552654193E-02    1.6395388935E-02    1.6239585075E-02    1.6085229321E-02
    1.5932308497E-02    1.5780809548E-02    1.5630719537E-02    1.5482025640E-02
    1.5334715153E-02    1.5188775481E-02    1.5044194148E-02    1.4900958784E-02
    1.4759057136E-02    1.4618477057E-02    1.4479206511E-02    1.4341233570E-02
    1.4204546412E-02    1.4069133324E-02    1.3934982695E-02    1.3802083020E-02
    1.3670422898E-02    1.3539991028E-02    1.3410776213E-02    1.3282767355E-02
    1.3155953456E-02    1.3030323618E-02    1.2905867039E-02    1.2782573014E-02
    1.2660430937E-02    1.2539430292E-02    1.2419560663E-02    1.2300811724E-02
    1.2183173242E-02    1.2066635077E-02    1.1951187180E-02    1.1836819591E-02
    1.1723522439E-02    1.1611285944E-02    1.1500100412E-02    1.1389956236E-02
    1.1280843895E-02    1.1172753955E-02    1.1065677065E-02    1.0959603957E-02
    1.0854525450E-02    1.0750432442E-02    1.0647315913E-02    1.0545166925E-02
    1.0443976619E-02    1.0343736218E-02    1.0244437020E-02    1.0146070403E-02
    1.0048627824E-02    9.9521008129E-03    9.8564809791E-03    9.7617600054E-03
    9.6679296496E-03    9.5749817436E-03    9.4829081925E-03    9.3917009739E-03
    9.3013521377E-03    9.2118538049E-03    9.1231981671E-03    9.0353774864E-03
    8.9483840940E-03    8.8622103900E-03    8.7768488427E-03    8.6922919881E-03
    8.6085324292E-03    8.5255628353E-03    8.4433759416E-03    8.3619645486E-03
    8.2813215211E-03    8.2014397885E-03    8.1223123434E-03    8.0439322413E-03
    7.9662926001E-03    7.8893865997E-03    7.8132074812E-03    7.7377485464E-03
    7.6630031571E-03    7.5889647351E-03    7.5156267612E-03    7.4429827747E-03
    7.3710263731E-03    7.2997512114E-03    7.2291510017E-03    7.1592195127E-03
    7.0899505689E-03    7.0213380508E-03    6.9533758935E-03    6.8860580870E-03
    6.8193786752E-03    6.7533317557E-03    6.6879114792E-03    6.6231120491E-03
    6.5589277209E-03    6.4953528020E-03    6.4323816510E-03    6.3700086772E-03
    6.3082283405E-03    6.2470351505E-03    6.1864236665E-03    6.1263884968E-03
    6.0669242982E-03    6.0080257758E-03    5.9496876824E-03    5.8919048182E-03
    5.8346720302E-03    5.7779842120E-03    5.7218363034E-03    5.6662232897E-03
    5.6111402015E-03    5.5565821144E-03    5.5025441484E-03    5.4490214677E-03
    5.3960092800E-03    5.3435028365E-03    5.2914974313E-03    5.2399884009E-03
    5.1889711243E-03    5.1384410221E-03    5.0883935563E-03    5.0388242300E-03
    4.9897285871E-03    4.9411022119E-03    4.8929407284E-03    4.8452398006E-03
    4.7979951315E-03    4.7512024633E-03    4.7048575766E-03    4.6589562904E-03
    4.6134944614E-03    4.5684679842E-03    4.5238727905E-03    4.4797048488E-03
    4.4359601644E-03    4.3926347789E-03    4.3497247696E-03    4.3072262497E-03
    4.2651353676E-03    4.2234483067E-03    4.1821612852E-03    4.1412705556E-03
    4.1007724045E-03    4.0606631523E-03    4.0209391531E-03    3.9815967938E-03
    3.9426324945E-03    3.9040427078E-03    3.8658239186E-03    3.8279726439E-03
    3.7904854326E-03    3.7533588647E-03    3.7165895517E-03    3.6801741359E-03
    3.6441092903E-03    3.6083917183E-03    3.5730181532E-03    3.5379853584E-03
    3.5032901267E-03    3.4689292804E-03    3.4348996706E-03    3.4011981775E-03
    3.3678217094E-03    3.3347672034E-03    3.3020316243E-03    3.2696119648E-03
    3.2375052451E-03    3.2057085128E-03    3.1742188423E-03    3.1430333353E-03
    3.1121491195E-03    3.0815633493E-03    3.0512732052E-03    3.0212758934E-03
    2.9915686459E-03    2.9621487201E-03    2.9330133986E-03    2.9041599888E-03
    2.8755858230E-03    2.8472882581E-03    2.8192646752E-03    2.7915124795E-03
    2.7640291000E-03    2.7368119896E-03    2.7098586244E-03    2.6831665039E-03
    2.6567331506E-03    2.6305561098E-03    2.6046329495E-03    2.5789612602E-03
    2.5535386543E-03    2.5283627666E-03    2.5034312535E-03    2.4787417932E-03
    2.4542920853E-03    2.4300798506E-03    2.4061028309E-03    2.3823587891E-03
    2.3588455087E-03    2.3355607935E-03    2.3125024680E-03    2.2896683764E-03
    2.2670563833E-03    2.2446643728E-03    2.2224902487E-03    2.2005319342E-03
    2.1787873717E-03    2.1572545229E-03    2.1359313682E-03    2.1148159067E-03
    2.0939061563E-03    2.0732001532E-03    2.0526959517E-03    2.0323916245E-03
    2.0122852619E-03    1.9923749721E-03    1.9726588808E-03    1.9531351314E-03
    1.9338018843E-03    1.9146573171E-03    1.8956996244E-03    1.8769270177E-03
    1.8583377250E-03    1.8399299909E-03    1.8217020764E-03    1.8036522587E-03
    1.7857788310E-03    1.7680801026E-03    1.7505543983E-03    1.7332000590E-03
    1.7160154406E-03    1.6989989146E-03    1.6821488679E-03    1.6654637021E-03
    1.6489418341E-03    1.6325816953E-03    1.6163817322E-03    1.6003404053E-03
    1.5844561900E-03    1.5687275758E-03    1.5531530663E-03    1.5377311791E-03
    1.5224604460E-03    1.5073394121E-03    1.4923666367E-03    1.4775406920E-03
    1.4628601642E-03    1.4483236524E-03    1.4339297691E-03    1.4196771395E-03
    1.4055644021E-03    1.3915902081E-03    1.3777532212E-03    1.3640521178E-03
    1.3504855869E-03    1.3370523297E-03    1.3237510595E-03    1.3105805021E-03
    1.2975393948E-03    1.2846264873E-03    1.2718405408E-03    1.2591803283E-03
    1.2466446342E-03    1.2342322547E-03    1.2219419970E-03    1.2097726799E-03
    1.1977231331E-03    1.1857921975E-03    1.1739787248E-03    1.1622815779E-03
    1.1506996300E-03    1.1392317654E-03    1.1278768786E-03    1.1166338748E-03
    1.1055016694E-03    1.0944791883E-03    1.0835653673E-03    1.0727591525E-03
    1.0620594999E-03    1.0514653754E-03    1.0409757547E-03    1.0305896233E-03
    1.0203059764E-03    1.0101238184E-03    1.0000421635E-03    9.9006003508E-04
    9.8017646592E-04    9.7039049793E-04    9.6070118212E-04    9.5110757856E-04
    9.4160875625E-04    9.3220379304E-04    9.2289177557E-04    9.1367179918E-04
    9.0454296782E-04    8.9550439399E-04    8.8655519864E-04    8.7769451109E-04
    8.6892146898E-04    8.6023521817E-04    8.5163491266E-04    8.4311971455E-04
    8.3468879392E-04    8.2634132877E-04    8.1807650497E-04    8.0989351615E-04
    8.0179156366E-04    7.9376985650E-04    7.8582761119E-04    7.7796405178E-04
    7.7017840975E-04    7.6246992390E-04    7.5483784034E-04    7.4728141241E-04
    7.3979990058E-04    7.3239257242E-04    7.2505870250E-04    7.1779757238E-04
    7.1060847046E-04    7.0349069202E-04    6.9644353905E-04    6.8946632027E-04
    6.8255835104E-04    6.7571895326E-04    6.6894745537E-04    6.6224319226E-04
    6.5560550520E-04    6.4903374181E-04    6.4252725595E-04    6.3608540773E-04
    6.2970756339E-04    6.2339309527E-04    6.1714138177E-04    6.1095180725E-04
    6.0482376202E-04    5.9875664224E-04    5.9274984990E-04    5.8680279276E-04
    5.8091488426E-04    5.7508554353E-04    5.6931419528E-04    5.6360026978E-04
    5.5794320279E-04    5.5234243551E-04    5.4679741455E-04    5.4130759185E-04
    5.3587242465E-04    5.3049137543E-04    5.2516391187E-04    5.1988950679E-04
    5.1466763810E-04    5.0949778876E-04    5.0437944675E-04    4.9931210498E-04
    4.9429526127E-04    4.8932841833E-04    4.8441108363E-04    4.7954276946E-04
    4.7472299282E-04    4.6995127536E-04    4.6522714341E-04    4.6055012786E-04
    4.5591976416E-04    4.5133559226E-04    4.4679715658E-04    4.4230400596E-04
    4.3785569360E-04    4.3345177706E-04    4.2909181817E-04    4.2477538305E-04
    4.2050204200E-04    4.1627136952E-04    4.1208294422E-04    4.0793634882E-04
    4.0383117011E-04    3.9976699886E-04    3.9574342987E-04    3.9176006183E-04
    3.8781649737E-04    3.8391234298E-04    3.8004720898E-04    3.7622070947E-04
    3.7243246233E-04    3.6868208914E-04    3.6496921520E-04    3.6129346941E-04
    3.5765448435E-04    3.5405189612E-04    3.5048534441E-04    3.4695447241E-04
    3.4345892680E-04    3.3999835769E-04    3.3657241862E-04    3.3318076650E-04
    3.2982306161E-04    3.2649896751E-04    3.2320815109E-04    3.1995028247E-04
    3.1672503499E-04    3.1353208519E-04    3.1037111278E-04    3.0724180059E-04
    3.0414383456E-04    3.0107690368E-04    2.9804070002E-04    2.9503491863E-04
    2.9205925756E-04    2.8911341782E-04    2.8619710333E-04    2.8331002092E-04
    2.8045188030E-04    2.7762239401E-04    2.7482127742E-04    2.7204824867E-04
    2.6930302868E-04    2.6658534111E-04    2.6389491230E-04    2.6123147131E-04
    2.5859474983E-04    2.5598448221E-04    2.5340040539E-04    2.5084225889E-04
    2.4830978478E-04    2.4580272769E-04    2.4332083473E-04    2.4086385552E-04
    2.3843154212E-04    2.3602364902E-04    2.3363993315E-04    2.3128015381E-04
    2.2894407267E-04    2.2663145374E-04    2.2434206336E-04    2.2207567017E-04
    2.1983204506E-04    2.1761096122E-04    2.1541219403E-04    2.1323552110E-04
    2.1108072223E-04    2.0894757939E-04    2.0683587669E-04    2.0474540036E-04
    2.0267593876E-04    2.0062728232E-04    1.9859922353E-04    1.9659155694E-04
    1.9460407912E-04    1.9263658863E-04    1.9068888604E-04    1.8876077388E-04
    1.8685205663E-04    1.8496254068E-04    1.8309203436E-04    1.8124034788E-04
    1.7940729331E-04    1.7759268459E-04    1.7579633750E-04    1.7401806963E-04
    1.7225770038E-04    1.7051505093E-04    1.6878994423E-04    1.6708220497E-04
    1.6539165958E-04    1.6371813622E-04    1.6206146473E-04    1.6042147663E-04
    1.5879800512E-04    1.5719088504E-04    1.5559995288E-04    1.5402504674E-04
    1.5246600630E-04    1.5092267286E-04    1.4939488928E-04    1.4788249997E-04
    1.4638535088E-04    1.4490328950E-04    1.4343616481E-04    1.4198382730E-04
    1.4054612895E-04    1.3912292319E-04    1.3771406490E-04    1.3631941041E-04
    1.3493881748E-04    1.3357214527E-04    1.3221925434E-04    1.3088000663E-04
    1.2955426545E-04    1.2824189547E-04    1.2694276270E-04    1.2565673449E-04
    1.2438367948E-04    1.2312346765E-04    1.2187597024E-04    1.2064105979E-04
    1.1941861009E-04    1.1820849620E-04    1.1701059440E-04    1.1582478223E-04
    1.1465093841E-04    1.1348894290E-04    1.1233867682E-04    1.1120002250E-04
    1.1007286343E-04    1.0895708425E-04    1.0785257076E-04    1.0675920989E-04
    1.0567688970E-04    1.0460549935E-04    1.0354492911E-04    1.0249507036E-04
    1.0145581553E-04    1.0042705815E-04    9.9408692778E-05    9.8400615053E-05
    9.7402721636E-05    9.6414910223E-05    9.5437079526E-05    9.4469129268E-05
    9.3510960169E-05    9.2562473942E-05    9.1623573275E-05    9.0694161829E-05
    8.9774144225E-05    8.8863426033E-05    8.7961913767E-05    8.7069514872E-05
    8.6186137715E-05    8.5311691578E-05    8.4446086649E-05    8.3589234010E-05
    8.2741045632E-05    8.1901434363E-05    8.1070313922E-05    8.0247598887E-05
    7.9433204692E-05    7.8627047613E-05    7.7829044762E-05    7.7039114079E-05
    7.6257174325E-05    7.5483145070E-05    7.4716946689E-05    7.3958500352E-05
    7.3207728016E-05    7.2464552419E-05    7.1728897071E-05    7.1000686245E-05
    7.0279844974E-05    6.9566299037E-05    6.8859974958E-05    6.8160799993E-05
    6.7468702126E-05    6.6783610064E-05    6.6105453224E-05    6.5434161730E-05
    6.4769666407E-05    6.4111898768E-05    6.3460791015E-05    6.2816276027E-05
    6.2178287355E-05    6.1546759215E-05    6.0921626482E-05    6.0302824683E-05
    5.9690289989E-05    5.9083959213E-05    5.8483769798E-05    5.7889659816E-05
    5.7301567957E-05    5.6719433526E-05    5.6143196438E-05    5.5572797207E-05
    5.5008176946E-05    5.4449277356E-05    5.3896040723E-05    5.3348409912E-05
    5.2806328359E-05    5.2269740069E-05    5.1738589609E-05    5.1212822100E-05
    5.0692383214E-05    5.0177219168E-05    4.9667276719E-05    4.9162503156E-05
    4.8662846300E-05    4.8168254494E-05    4.7678676597E-05    4.7194061986E-05
    4.6714360543E-05    4.6239522652E-05    4.5769499199E-05    4.5304241558E-05
    4.4843701596E-05    4.4387831660E-05    4.3936584576E-05    4.3489913646E-05
    4.3047772639E-05    4.2610115788E-05    4.2176897786E-05    4.1748073783E-05
    4.1323599378E-05    4.0903430615E-05    4.0487523982E-05    4.0075836403E-05
    3.9668325235E-05    3.9264948265E-05    3.8865663703E-05    3.8470430177E-05
    3.8079206736E-05    3.7691952836E-05    3.7308628344E-05    3.6929193528E-05
    3.6553609057E-05    3.6181835996E-05    3.5813835801E-05    3.5449570315E-05
    3.5089001766E-05    3.4732092762E-05    3.4378806286E-05    3.4029105695E-05
    3.3682954714E-05    3.3340317433E-05    3.3001158303E-05    3.2665442135E-05
    3.2333134091E-05    3.2004199687E-05    3.1678604783E-05    3.1356315585E-05
    3.1037298638E-05    3.0721520826E-05    3.0408949365E-05    3.0099551799E-05
    2.9793296004E-05    2.9490150174E-05    2.9190082829E-05    2.8893062800E-05
    2.8599059239E-05    2.8308041602E-05    2.8019979659E-05    2.7734843479E-05
    2.7452603437E-05    2.7173230205E-05    2.6896694749E-05    2.6622968330E-05
    2.6352022499E-05    2.6083829091E-05    2.5818360228E-05    2.5555588312E-05
    2.5295486022E-05    2.5038026315E-05    2.4783182419E-05    2.4530927832E-05
    2.4281236320E-05    2.4034081914E-05    2.3789438906E-05    2.3547281848E-05
    2.3307585548E-05    2.3070325070E-05    2.2835475727E-05    2.2603013083E-05
    2.2372912948E-05    2.2145151376E-05    2.1919704664E-05    2.1696549347E-05
    2.1475662196E-05    2.1257020219E-05    2.1040600654E-05    2.0826380970E-05
    2.0614338863E-05    2.0404452254E-05    2.0196699287E-05    1.9991058328E-05
    1.9787507960E-05    1.9586026983E-05    1.9386594410E-05    1.9189189469E-05
    1.8993791594E-05    1.8800380429E-05    1.8608935824E-05    1.8419437831E-05
    1.8231866705E-05    1.8046202901E-05    1.7862427068E-05    1.7680520055E-05
    1.7500462902E-05    1.7322236842E-05    1.7145823296E-05    1.6971203874E-05
    1.6798360372E-05    1.6627274770E-05    1.6457929230E-05    1.6290306093E-05
    1.6124387881E-05    1.5960157292E-05    1.5797597198E-05    1.5636690645E-05
    1.5477420849E-05    1.5319771199E-05    1.5163725250E-05    1.5009266722E-05
    1.4856379501E-05    1.4705047638E-05    1.4555255342E-05    1.4406986984E-05
    1.4260227092E-05    1.4114960351E-05    1.3971171601E-05    1.3828845835E-05
    1.3687968199E-05    1.3548523988E-05    1.3410498646E-05    1.3273877766E-05
    1.3138647084E-05    1.3004792484E-05    1.2872299988E-05    1.2741155765E-05
    1.2611346121E-05    1.2482857499E-05    1.2355676484E-05    1.2229789792E-05
    1.2105184278E-05    1.1981846925E-05    1.1859764853E-05    1.1738925309E-05
    1.1619315670E-05    1.1500923441E-05    1.1383736255E-05    1.1267741868E-05
    1.1152928161E-05    1.1039283138E-05    1.0926794924E-05    1.0815451764E-05
    1.0705242024E-05    1.0596154186E-05    1.0488176849E-05    1.0381298728E-05
    1.0275508653E-05    1.0170795565E-05    1.0067148519E-05    9.9645566809E-06
    9.8630093251E-06    9.7624958360E-06    9.6630057050E-06    9.5645285302E-06
    9.4670540151E-06    9.3705719676E-06    9.2750722989E-06    9.1805450225E-06
    9.0869802530E-06    8.9943682055E-06    8.9026991943E-06    8.8119636317E-06
    8.7221520274E-06    8.6332549874E-06    8.5452632127E-06    8.4581674989E-06
    8.3719587348E-06    8.2866279016E-06    8.2021660719E-06    8.1185644092E-06
    8.0358141663E-06    7.9539066849E-06    7.8728333946E-06    7.7925858116E-06
    7.7131555386E-06    7.6345342633E-06    7.5567137577E-06    7.4796858772E-06
    7.4034425601E-06    7.3279758265E-06    7.2532777772E-06    7.1793405935E-06
    7.1061565358E-06    7.0337179432E-06    6.9620172324E-06    6.8910468971E-06
    6.8207995073E-06    6.7512677084E-06    6.6824442204E-06    6.6143218372E-06
    6.5468934258E-06    6.4801519259E-06    6.4140903486E-06    6.3487017759E-06
    6.2839793602E-06    6.2199163234E-06    6.1565059561E-06    6.0937416174E-06
    6.0316167333E-06    5.9701247970E-06    5.9092593675E-06    5.8490140694E-06
    5.7893825920E-06    5.7303586885E-06    5.6719361758E-06    5.6141089334E-06
    5.5568709031E-06    5.5002160883E-06    5.4441385531E-06    5.3886324221E-06
    5.3336918794E-06    5.2793111684E-06    5.2254845908E-06    5.1722065062E-06
    5.1194713315E-06    5.0672735405E-06    5.0156076629E-06    4.9644682843E-06
    4.9138500449E-06    4.8637476397E-06    4.8141558176E-06    4.7650693805E-06
    4.7164831836E-06    4.6683921340E-06    4.6207911906E-06    4.5736753639E-06
    4.5270397148E-06    4.4808793544E-06    4.4351894435E-06    4.3899651923E-06
    4.3452018593E-06    4.3008947516E-06    4.2570392237E-06    4.2136306775E-06
    4.1706645614E-06    4.1281363705E-06    4.0860416453E-06    4.0443759719E-06
    4.0031349811E-06    3.9623143482E-06    3.9219097924E-06    3.8819170765E-06
    3.8423320064E-06    3.8031504305E-06    3.7643682396E-06    3.7259813662E-06
    3.6879857841E-06    3.6503775083E-06    3.6131525939E-06    3.5763071366E-06
    3.5398372713E-06    3.5037391727E-06    3.4680090539E-06    3.4326431670E-06
    3.3976378020E-06    3.3629892865E-06    3.3286939857E-06    3.2947483017E-06
    3.2611486731E-06    3.2278915748E-06    3.1949735176E-06    3.1623910477E-06
    3.1301407464E-06    3.0982192299E-06    3.0666231488E-06    3.0353491878E-06
    3.0043940653E-06    2.9737545330E-06    2.9434273758E-06    2.9134094111E-06
    2.8836974890E-06    2.8542884913E-06    2.8251793318E-06    2.7963669554E-06
    2.7678483386E-06    2.7396204881E-06    2.7116804414E-06    2.6840252661E-06
    2.6566520595E-06    2.6295579487E-06    2.6027400897E-06    2.5761956678E-06
    2.5499218965E-06    2.5239160181E-06    2.4981753028E-06    2.4726970486E-06
    2.4474785809E-06    2.4225172525E-06    2.3978104429E-06    2.3733555586E-06
    2.3491500322E-06    2.3251913225E-06    2.3014769144E-06    2.2780043180E-06
    2.2547710691E-06    2.2317747285E-06    2.2090128818E-06    2.1864831390E-06
    2.1641831348E-06    2.1421105276E-06    2.1202630000E-06    2.0986382579E-06
 </PP_RHOATOM>
</UPF>

END_PSP
