Begin PSP_UPF
<UPF version="2.0.1">
  <PP_INFO>

 This pseudopotential file has been produced using the code
 ONCVPSP  (Optimized Norm-Conservinng Vanderbilt PSeudopotential)
 scalar-relativistic version 4.0.1 06/04/2019 by D. R. Hamann
 The code is available through a link at URL www.mat-simresearch.com.
 Documentation with the package provides a full discription of the
 input data below.


 While it is not required under the terms of the GNU GPL, it is
 suggested that you cite D. R. Hamann, Phys. Rev. B 88, 085117 (2013)
 in any publication using these pseudopotentials.

    <PP_INPUTFILE>
# ATOM AND REFERENCE CONFIGURATION
# atsym  z   nc   nv     iexc    psfile
  P 15.00    3    2 -116133      upf
#
#   n    l    f        energy (Ha)
    1    0    2.00
    2    0    2.00
    2    1    6.00
    3    0    2.00
    3    1    3.00
#
# PSEUDOPOTENTIAL AND OPTIMIZATION
# lmax
    1
#
#   l,   rc,      ep,       ncon, nbas, qcut
    0   2.58990  -0.51336    5    8   6.93562
    1   1.72641  -0.20237    5    8   8.86236
#
# LOCAL POTENTIAL
# lloc, lpopt,  rc(5),   dvloc0
    4    5   1.09720      0.00000
#
# VANDERBILT-KLEINMAN-BYLANDER PROJECTORs
# l, nproj, debl
    0    2   1.22971
    1    2   2.53859
#
# MODEL CORE CHARGE
# icmod, fcfact, rcfact
    0   0.00000   0.00000
#
# LOG DERIVATIVE ANALYSIS
# epsh1, epsh2, depsh
   -5.00    3.00    0.02
#
# OUTPUT GRID
# rlmax, drl
    6.00    0.01
#
# TEST CONFIGURATIONS
# ncnf
    0
# nvcnf
#   n    l    f
    </PP_INPUTFILE>
  </PP_INFO>
  <!--                               -->
  <!-- END OF HUMAN READABLE SECTION -->
  <!--                               -->
    <PP_HEADER
       generated="Generated using ONCVPSP code by D. R. Hamann"
       author="anonymous"
       date="251029"
       comment=""
       element="P "
       pseudo_type="NC"
       relativistic="scalar"
       is_ultrasoft="F"
       is_paw="F"
       is_coulomb="F"
       has_so="F"
       has_wfc="F"
       has_gipaw="F"
       core_correction="F"
       functional="PBESOL"
       z_valence="    5.00"
       total_psenergy="  -1.27779320347E+01"
       rho_cutoff="   1.29900000000E+01"
       l_max="1"
       l_local="-1"
       mesh_size="  1300"
       number_of_wfc="2"
       number_of_proj="4"/>
 <PP_MESH>
   <PP_R type="real"  size="1300" columns="8">
    0.0000    0.0100    0.0200    0.0300    0.0400    0.0500    0.0600    0.0700
    0.0800    0.0900    0.1000    0.1100    0.1200    0.1300    0.1400    0.1500
    0.1600    0.1700    0.1800    0.1900    0.2000    0.2100    0.2200    0.2300
    0.2400    0.2500    0.2600    0.2700    0.2800    0.2900    0.3000    0.3100
    0.3200    0.3300    0.3400    0.3500    0.3600    0.3700    0.3800    0.3900
    0.4000    0.4100    0.4200    0.4300    0.4400    0.4500    0.4600    0.4700
    0.4800    0.4900    0.5000    0.5100    0.5200    0.5300    0.5400    0.5500
    0.5600    0.5700    0.5800    0.5900    0.6000    0.6100    0.6200    0.6300
    0.6400    0.6500    0.6600    0.6700    0.6800    0.6900    0.7000    0.7100
    0.7200    0.7300    0.7400    0.7500    0.7600    0.7700    0.7800    0.7900
    0.8000    0.8100    0.8200    0.8300    0.8400    0.8500    0.8600    0.8700
    0.8800    0.8900    0.9000    0.9100    0.9200    0.9300    0.9400    0.9500
    0.9600    0.9700    0.9800    0.9900    1.0000    1.0100    1.0200    1.0300
    1.0400    1.0500    1.0600    1.0700    1.0800    1.0900    1.1000    1.1100
    1.1200    1.1300    1.1400    1.1500    1.1600    1.1700    1.1800    1.1900
    1.2000    1.2100    1.2200    1.2300    1.2400    1.2500    1.2600    1.2700
    1.2800    1.2900    1.3000    1.3100    1.3200    1.3300    1.3400    1.3500
    1.3600    1.3700    1.3800    1.3900    1.4000    1.4100    1.4200    1.4300
    1.4400    1.4500    1.4600    1.4700    1.4800    1.4900    1.5000    1.5100
    1.5200    1.5300    1.5400    1.5500    1.5600    1.5700    1.5800    1.5900
    1.6000    1.6100    1.6200    1.6300    1.6400    1.6500    1.6600    1.6700
    1.6800    1.6900    1.7000    1.7100    1.7200    1.7300    1.7400    1.7500
    1.7600    1.7700    1.7800    1.7900    1.8000    1.8100    1.8200    1.8300
    1.8400    1.8500    1.8600    1.8700    1.8800    1.8900    1.9000    1.9100
    1.9200    1.9300    1.9400    1.9500    1.9600    1.9700    1.9800    1.9900
    2.0000    2.0100    2.0200    2.0300    2.0400    2.0500    2.0600    2.0700
    2.0800    2.0900    2.1000    2.1100    2.1200    2.1300    2.1400    2.1500
    2.1600    2.1700    2.1800    2.1900    2.2000    2.2100    2.2200    2.2300
    2.2400    2.2500    2.2600    2.2700    2.2800    2.2900    2.3000    2.3100
    2.3200    2.3300    2.3400    2.3500    2.3600    2.3700    2.3800    2.3900
    2.4000    2.4100    2.4200    2.4300    2.4400    2.4500    2.4600    2.4700
    2.4800    2.4900    2.5000    2.5100    2.5200    2.5300    2.5400    2.5500
    2.5600    2.5700    2.5800    2.5900    2.6000    2.6100    2.6200    2.6300
    2.6400    2.6500    2.6600    2.6700    2.6800    2.6900    2.7000    2.7100
    2.7200    2.7300    2.7400    2.7500    2.7600    2.7700    2.7800    2.7900
    2.8000    2.8100    2.8200    2.8300    2.8400    2.8500    2.8600    2.8700
    2.8800    2.8900    2.9000    2.9100    2.9200    2.9300    2.9400    2.9500
    2.9600    2.9700    2.9800    2.9900    3.0000    3.0100    3.0200    3.0300
    3.0400    3.0500    3.0600    3.0700    3.0800    3.0900    3.1000    3.1100
    3.1200    3.1300    3.1400    3.1500    3.1600    3.1700    3.1800    3.1900
    3.2000    3.2100    3.2200    3.2300    3.2400    3.2500    3.2600    3.2700
    3.2800    3.2900    3.3000    3.3100    3.3200    3.3300    3.3400    3.3500
    3.3600    3.3700    3.3800    3.3900    3.4000    3.4100    3.4200    3.4300
    3.4400    3.4500    3.4600    3.4700    3.4800    3.4900    3.5000    3.5100
    3.5200    3.5300    3.5400    3.5500    3.5600    3.5700    3.5800    3.5900
    3.6000    3.6100    3.6200    3.6300    3.6400    3.6500    3.6600    3.6700
    3.6800    3.6900    3.7000    3.7100    3.7200    3.7300    3.7400    3.7500
    3.7600    3.7700    3.7800    3.7900    3.8000    3.8100    3.8200    3.8300
    3.8400    3.8500    3.8600    3.8700    3.8800    3.8900    3.9000    3.9100
    3.9200    3.9300    3.9400    3.9500    3.9600    3.9700    3.9800    3.9900
    4.0000    4.0100    4.0200    4.0300    4.0400    4.0500    4.0600    4.0700
    4.0800    4.0900    4.1000    4.1100    4.1200    4.1300    4.1400    4.1500
    4.1600    4.1700    4.1800    4.1900    4.2000    4.2100    4.2200    4.2300
    4.2400    4.2500    4.2600    4.2700    4.2800    4.2900    4.3000    4.3100
    4.3200    4.3300    4.3400    4.3500    4.3600    4.3700    4.3800    4.3900
    4.4000    4.4100    4.4200    4.4300    4.4400    4.4500    4.4600    4.4700
    4.4800    4.4900    4.5000    4.5100    4.5200    4.5300    4.5400    4.5500
    4.5600    4.5700    4.5800    4.5900    4.6000    4.6100    4.6200    4.6300
    4.6400    4.6500    4.6600    4.6700    4.6800    4.6900    4.7000    4.7100
    4.7200    4.7300    4.7400    4.7500    4.7600    4.7700    4.7800    4.7900
    4.8000    4.8100    4.8200    4.8300    4.8400    4.8500    4.8600    4.8700
    4.8800    4.8900    4.9000    4.9100    4.9200    4.9300    4.9400    4.9500
    4.9600    4.9700    4.9800    4.9900    5.0000    5.0100    5.0200    5.0300
    5.0400    5.0500    5.0600    5.0700    5.0800    5.0900    5.1000    5.1100
    5.1200    5.1300    5.1400    5.1500    5.1600    5.1700    5.1800    5.1900
    5.2000    5.2100    5.2200    5.2300    5.2400    5.2500    5.2600    5.2700
    5.2800    5.2900    5.3000    5.3100    5.3200    5.3300    5.3400    5.3500
    5.3600    5.3700    5.3800    5.3900    5.4000    5.4100    5.4200    5.4300
    5.4400    5.4500    5.4600    5.4700    5.4800    5.4900    5.5000    5.5100
    5.5200    5.5300    5.5400    5.5500    5.5600    5.5700    5.5800    5.5900
    5.6000    5.6100    5.6200    5.6300    5.6400    5.6500    5.6600    5.6700
    5.6800    5.6900    5.7000    5.7100    5.7200    5.7300    5.7400    5.7500
    5.7600    5.7700    5.7800    5.7900    5.8000    5.8100    5.8200    5.8300
    5.8400    5.8500    5.8600    5.8700    5.8800    5.8900    5.9000    5.9100
    5.9200    5.9300    5.9400    5.9500    5.9600    5.9700    5.9800    5.9900
    6.0000    6.0100    6.0200    6.0300    6.0400    6.0500    6.0600    6.0700
    6.0800    6.0900    6.1000    6.1100    6.1200    6.1300    6.1400    6.1500
    6.1600    6.1700    6.1800    6.1900    6.2000    6.2100    6.2200    6.2300
    6.2400    6.2500    6.2600    6.2700    6.2800    6.2900    6.3000    6.3100
    6.3200    6.3300    6.3400    6.3500    6.3600    6.3700    6.3800    6.3900
    6.4000    6.4100    6.4200    6.4300    6.4400    6.4500    6.4600    6.4700
    6.4800    6.4900    6.5000    6.5100    6.5200    6.5300    6.5400    6.5500
    6.5600    6.5700    6.5800    6.5900    6.6000    6.6100    6.6200    6.6300
    6.6400    6.6500    6.6600    6.6700    6.6800    6.6900    6.7000    6.7100
    6.7200    6.7300    6.7400    6.7500    6.7600    6.7700    6.7800    6.7900
    6.8000    6.8100    6.8200    6.8300    6.8400    6.8500    6.8600    6.8700
    6.8800    6.8900    6.9000    6.9100    6.9200    6.9300    6.9400    6.9500
    6.9600    6.9700    6.9800    6.9900    7.0000    7.0100    7.0200    7.0300
    7.0400    7.0500    7.0600    7.0700    7.0800    7.0900    7.1000    7.1100
    7.1200    7.1300    7.1400    7.1500    7.1600    7.1700    7.1800    7.1900
    7.2000    7.2100    7.2200    7.2300    7.2400    7.2500    7.2600    7.2700
    7.2800    7.2900    7.3000    7.3100    7.3200    7.3300    7.3400    7.3500
    7.3600    7.3700    7.3800    7.3900    7.4000    7.4100    7.4200    7.4300
    7.4400    7.4500    7.4600    7.4700    7.4800    7.4900    7.5000    7.5100
    7.5200    7.5300    7.5400    7.5500    7.5600    7.5700    7.5800    7.5900
    7.6000    7.6100    7.6200    7.6300    7.6400    7.6500    7.6600    7.6700
    7.6800    7.6900    7.7000    7.7100    7.7200    7.7300    7.7400    7.7500
    7.7600    7.7700    7.7800    7.7900    7.8000    7.8100    7.8200    7.8300
    7.8400    7.8500    7.8600    7.8700    7.8800    7.8900    7.9000    7.9100
    7.9200    7.9300    7.9400    7.9500    7.9600    7.9700    7.9800    7.9900
    8.0000    8.0100    8.0200    8.0300    8.0400    8.0500    8.0600    8.0700
    8.0800    8.0900    8.1000    8.1100    8.1200    8.1300    8.1400    8.1500
    8.1600    8.1700    8.1800    8.1900    8.2000    8.2100    8.2200    8.2300
    8.2400    8.2500    8.2600    8.2700    8.2800    8.2900    8.3000    8.3100
    8.3200    8.3300    8.3400    8.3500    8.3600    8.3700    8.3800    8.3900
    8.4000    8.4100    8.4200    8.4300    8.4400    8.4500    8.4600    8.4700
    8.4800    8.4900    8.5000    8.5100    8.5200    8.5300    8.5400    8.5500
    8.5600    8.5700    8.5800    8.5900    8.6000    8.6100    8.6200    8.6300
    8.6400    8.6500    8.6600    8.6700    8.6800    8.6900    8.7000    8.7100
    8.7200    8.7300    8.7400    8.7500    8.7600    8.7700    8.7800    8.7900
    8.8000    8.8100    8.8200    8.8300    8.8400    8.8500    8.8600    8.8700
    8.8800    8.8900    8.9000    8.9100    8.9200    8.9300    8.9400    8.9500
    8.9600    8.9700    8.9800    8.9900    9.0000    9.0100    9.0200    9.0300
    9.0400    9.0500    9.0600    9.0700    9.0800    9.0900    9.1000    9.1100
    9.1200    9.1300    9.1400    9.1500    9.1600    9.1700    9.1800    9.1900
    9.2000    9.2100    9.2200    9.2300    9.2400    9.2500    9.2600    9.2700
    9.2800    9.2900    9.3000    9.3100    9.3200    9.3300    9.3400    9.3500
    9.3600    9.3700    9.3800    9.3900    9.4000    9.4100    9.4200    9.4300
    9.4400    9.4500    9.4600    9.4700    9.4800    9.4900    9.5000    9.5100
    9.5200    9.5300    9.5400    9.5500    9.5600    9.5700    9.5800    9.5900
    9.6000    9.6100    9.6200    9.6300    9.6400    9.6500    9.6600    9.6700
    9.6800    9.6900    9.7000    9.7100    9.7200    9.7300    9.7400    9.7500
    9.7600    9.7700    9.7800    9.7900    9.8000    9.8100    9.8200    9.8300
    9.8400    9.8500    9.8600    9.8700    9.8800    9.8900    9.9000    9.9100
    9.9200    9.9300    9.9400    9.9500    9.9600    9.9700    9.9800    9.9900
   10.0000   10.0100   10.0200   10.0300   10.0400   10.0500   10.0600   10.0700
   10.0800   10.0900   10.1000   10.1100   10.1200   10.1300   10.1400   10.1500
   10.1600   10.1700   10.1800   10.1900   10.2000   10.2100   10.2200   10.2300
   10.2400   10.2500   10.2600   10.2700   10.2800   10.2900   10.3000   10.3100
   10.3200   10.3300   10.3400   10.3500   10.3600   10.3700   10.3800   10.3900
   10.4000   10.4100   10.4200   10.4300   10.4400   10.4500   10.4600   10.4700
   10.4800   10.4900   10.5000   10.5100   10.5200   10.5300   10.5400   10.5500
   10.5600   10.5700   10.5800   10.5900   10.6000   10.6100   10.6200   10.6300
   10.6400   10.6500   10.6600   10.6700   10.6800   10.6900   10.7000   10.7100
   10.7200   10.7300   10.7400   10.7500   10.7600   10.7700   10.7800   10.7900
   10.8000   10.8100   10.8200   10.8300   10.8400   10.8500   10.8600   10.8700
   10.8800   10.8900   10.9000   10.9100   10.9200   10.9300   10.9400   10.9500
   10.9600   10.9700   10.9800   10.9900   11.0000   11.0100   11.0200   11.0300
   11.0400   11.0500   11.0600   11.0700   11.0800   11.0900   11.1000   11.1100
   11.1200   11.1300   11.1400   11.1500   11.1600   11.1700   11.1800   11.1900
   11.2000   11.2100   11.2200   11.2300   11.2400   11.2500   11.2600   11.2700
   11.2800   11.2900   11.3000   11.3100   11.3200   11.3300   11.3400   11.3500
   11.3600   11.3700   11.3800   11.3900   11.4000   11.4100   11.4200   11.4300
   11.4400   11.4500   11.4600   11.4700   11.4800   11.4900   11.5000   11.5100
   11.5200   11.5300   11.5400   11.5500   11.5600   11.5700   11.5800   11.5900
   11.6000   11.6100   11.6200   11.6300   11.6400   11.6500   11.6600   11.6700
   11.6800   11.6900   11.7000   11.7100   11.7200   11.7300   11.7400   11.7500
   11.7600   11.7700   11.7800   11.7900   11.8000   11.8100   11.8200   11.8300
   11.8400   11.8500   11.8600   11.8700   11.8800   11.8900   11.9000   11.9100
   11.9200   11.9300   11.9400   11.9500   11.9600   11.9700   11.9800   11.9900
   12.0000   12.0100   12.0200   12.0300   12.0400   12.0500   12.0600   12.0700
   12.0800   12.0900   12.1000   12.1100   12.1200   12.1300   12.1400   12.1500
   12.1600   12.1700   12.1800   12.1900   12.2000   12.2100   12.2200   12.2300
   12.2400   12.2500   12.2600   12.2700   12.2800   12.2900   12.3000   12.3100
   12.3200   12.3300   12.3400   12.3500   12.3600   12.3700   12.3800   12.3900
   12.4000   12.4100   12.4200   12.4300   12.4400   12.4500   12.4600   12.4700
   12.4800   12.4900   12.5000   12.5100   12.5200   12.5300   12.5400   12.5500
   12.5600   12.5700   12.5800   12.5900   12.6000   12.6100   12.6200   12.6300
   12.6400   12.6500   12.6600   12.6700   12.6800   12.6900   12.7000   12.7100
   12.7200   12.7300   12.7400   12.7500   12.7600   12.7700   12.7800   12.7900
   12.8000   12.8100   12.8200   12.8300   12.8400   12.8500   12.8600   12.8700
   12.8800   12.8900   12.9000   12.9100   12.9200   12.9300   12.9400   12.9500
   12.9600   12.9700   12.9800   12.9900
   </PP_R>
   <PP_RAB type="real"  size="1300" columns="8">
    0.0100    0.0100    0.0100    0.0100    0.0100    0.0100    0.0100    0.0100
    0.0100    0.0100    0.0100    0.0100    0.0100    0.0100    0.0100    0.0100
    0.0100    0.0100    0.0100    0.0100    0.0100    0.0100    0.0100    0.0100
    0.0100    0.0100    0.0100    0.0100    0.0100    0.0100    0.0100    0.0100
    0.0100    0.0100    0.0100    0.0100    0.0100    0.0100    0.0100    0.0100
    0.0100    0.0100    0.0100    0.0100    0.0100    0.0100    0.0100    0.0100
    0.0100    0.0100    0.0100    0.0100    0.0100    0.0100    0.0100    0.0100
    0.0100    0.0100    0.0100    0.0100    0.0100    0.0100    0.0100    0.0100
    0.0100    0.0100    0.0100    0.0100    0.0100    0.0100    0.0100    0.0100
    0.0100    0.0100    0.0100    0.0100    0.0100    0.0100    0.0100    0.0100
    0.0100    0.0100    0.0100    0.0100    0.0100    0.0100    0.0100    0.0100
    0.0100    0.0100    0.0100    0.0100    0.0100    0.0100    0.0100    0.0100
    0.0100    0.0100    0.0100    0.0100    0.0100    0.0100    0.0100    0.0100
    0.0100    0.0100    0.0100    0.0100    0.0100    0.0100    0.0100    0.0100
    0.0100    0.0100    0.0100    0.0100    0.0100    0.0100    0.0100    0.0100
    0.0100    0.0100    0.0100    0.0100    0.0100    0.0100    0.0100    0.0100
    0.0100    0.0100    0.0100    0.0100    0.0100    0.0100    0.0100    0.0100
    0.0100    0.0100    0.0100    0.0100    0.0100    0.0100    0.0100    0.0100
    0.0100    0.0100    0.0100    0.0100    0.0100    0.0100    0.0100    0.0100
    0.0100    0.0100    0.0100    0.0100    0.0100    0.0100    0.0100    0.0100
    0.0100    0.0100    0.0100    0.0100    0.0100    0.0100    0.0100    0.0100
    0.0100    0.0100    0.0100    0.0100    0.0100    0.0100    0.0100    0.0100
    0.0100    0.0100    0.0100    0.0100    0.0100    0.0100    0.0100    0.0100
    0.0100    0.0100    0.0100    0.0100    0.0100    0.0100    0.0100    0.0100
    0.0100    0.0100    0.0100    0.0100    0.0100    0.0100    0.0100    0.0100
    0.0100    0.0100    0.0100    0.0100    0.0100    0.0100    0.0100    0.0100
    0.0100    0.0100    0.0100    0.0100    0.0100    0.0100    0.0100    0.0100
    0.0100    0.0100    0.0100    0.0100    0.0100    0.0100    0.0100    0.0100
    0.0100    0.0100    0.0100    0.0100    0.0100    0.0100    0.0100    0.0100
    0.0100    0.0100    0.0100    0.0100    0.0100    0.0100    0.0100    0.0100
    0.0100    0.0100    0.0100    0.0100    0.0100    0.0100    0.0100    0.0100
    0.0100    0.0100    0.0100    0.0100    0.0100    0.0100    0.0100    0.0100
    0.0100    0.0100    0.0100    0.0100    0.0100    0.0100    0.0100    0.0100
    0.0100    0.0100    0.0100    0.0100    0.0100    0.0100    0.0100    0.0100
    0.0100    0.0100    0.0100    0.0100    0.0100    0.0100    0.0100    0.0100
    0.0100    0.0100    0.0100    0.0100    0.0100    0.0100    0.0100    0.0100
    0.0100    0.0100    0.0100    0.0100    0.0100    0.0100    0.0100    0.0100
    0.0100    0.0100    0.0100    0.0100    0.0100    0.0100    0.0100    0.0100
    0.0100    0.0100    0.0100    0.0100    0.0100    0.0100    0.0100    0.0100
    0.0100    0.0100    0.0100    0.0100    0.0100    0.0100    0.0100    0.0100
    0.0100    0.0100    0.0100    0.0100    0.0100    0.0100    0.0100    0.0100
    0.0100    0.0100    0.0100    0.0100    0.0100    0.0100    0.0100    0.0100
    0.0100    0.0100    0.0100    0.0100    0.0100    0.0100    0.0100    0.0100
    0.0100    0.0100    0.0100    0.0100    0.0100    0.0100    0.0100    0.0100
    0.0100    0.0100    0.0100    0.0100    0.0100    0.0100    0.0100    0.0100
    0.0100    0.0100    0.0100    0.0100    0.0100    0.0100    0.0100    0.0100
    0.0100    0.0100    0.0100    0.0100    0.0100    0.0100    0.0100    0.0100
    0.0100    0.0100    0.0100    0.0100    0.0100    0.0100    0.0100    0.0100
    0.0100    0.0100    0.0100    0.0100    0.0100    0.0100    0.0100    0.0100
    0.0100    0.0100    0.0100    0.0100    0.0100    0.0100    0.0100    0.0100
    0.0100    0.0100    0.0100    0.0100    0.0100    0.0100    0.0100    0.0100
    0.0100    0.0100    0.0100    0.0100    0.0100    0.0100    0.0100    0.0100
    0.0100    0.0100    0.0100    0.0100    0.0100    0.0100    0.0100    0.0100
    0.0100    0.0100    0.0100    0.0100    0.0100    0.0100    0.0100    0.0100
    0.0100    0.0100    0.0100    0.0100    0.0100    0.0100    0.0100    0.0100
    0.0100    0.0100    0.0100    0.0100    0.0100    0.0100    0.0100    0.0100
    0.0100    0.0100    0.0100    0.0100    0.0100    0.0100    0.0100    0.0100
    0.0100    0.0100    0.0100    0.0100    0.0100    0.0100    0.0100    0.0100
    0.0100    0.0100    0.0100    0.0100    0.0100    0.0100    0.0100    0.0100
    0.0100    0.0100    0.0100    0.0100    0.0100    0.0100    0.0100    0.0100
    0.0100    0.0100    0.0100    0.0100    0.0100    0.0100    0.0100    0.0100
    0.0100    0.0100    0.0100    0.0100    0.0100    0.0100    0.0100    0.0100
    0.0100    0.0100    0.0100    0.0100    0.0100    0.0100    0.0100    0.0100
    0.0100    0.0100    0.0100    0.0100    0.0100    0.0100    0.0100    0.0100
    0.0100    0.0100    0.0100    0.0100    0.0100    0.0100    0.0100    0.0100
    0.0100    0.0100    0.0100    0.0100    0.0100    0.0100    0.0100    0.0100
    0.0100    0.0100    0.0100    0.0100    0.0100    0.0100    0.0100    0.0100
    0.0100    0.0100    0.0100    0.0100    0.0100    0.0100    0.0100    0.0100
    0.0100    0.0100    0.0100    0.0100    0.0100    0.0100    0.0100    0.0100
    0.0100    0.0100    0.0100    0.0100    0.0100    0.0100    0.0100    0.0100
    0.0100    0.0100    0.0100    0.0100    0.0100    0.0100    0.0100    0.0100
    0.0100    0.0100    0.0100    0.0100    0.0100    0.0100    0.0100    0.0100
    0.0100    0.0100    0.0100    0.0100    0.0100    0.0100    0.0100    0.0100
    0.0100    0.0100    0.0100    0.0100    0.0100    0.0100    0.0100    0.0100
    0.0100    0.0100    0.0100    0.0100    0.0100    0.0100    0.0100    0.0100
    0.0100    0.0100    0.0100    0.0100    0.0100    0.0100    0.0100    0.0100
    0.0100    0.0100    0.0100    0.0100    0.0100    0.0100    0.0100    0.0100
    0.0100    0.0100    0.0100    0.0100    0.0100    0.0100    0.0100    0.0100
    0.0100    0.0100    0.0100    0.0100    0.0100    0.0100    0.0100    0.0100
    0.0100    0.0100    0.0100    0.0100    0.0100    0.0100    0.0100    0.0100
    0.0100    0.0100    0.0100    0.0100    0.0100    0.0100    0.0100    0.0100
    0.0100    0.0100    0.0100    0.0100    0.0100    0.0100    0.0100    0.0100
    0.0100    0.0100    0.0100    0.0100    0.0100    0.0100    0.0100    0.0100
    0.0100    0.0100    0.0100    0.0100    0.0100    0.0100    0.0100    0.0100
    0.0100    0.0100    0.0100    0.0100    0.0100    0.0100    0.0100    0.0100
    0.0100    0.0100    0.0100    0.0100    0.0100    0.0100    0.0100    0.0100
    0.0100    0.0100    0.0100    0.0100    0.0100    0.0100    0.0100    0.0100
    0.0100    0.0100    0.0100    0.0100    0.0100    0.0100    0.0100    0.0100
    0.0100    0.0100    0.0100    0.0100    0.0100    0.0100    0.0100    0.0100
    0.0100    0.0100    0.0100    0.0100    0.0100    0.0100    0.0100    0.0100
    0.0100    0.0100    0.0100    0.0100    0.0100    0.0100    0.0100    0.0100
    0.0100    0.0100    0.0100    0.0100    0.0100    0.0100    0.0100    0.0100
    0.0100    0.0100    0.0100    0.0100    0.0100    0.0100    0.0100    0.0100
    0.0100    0.0100    0.0100    0.0100    0.0100    0.0100    0.0100    0.0100
    0.0100    0.0100    0.0100    0.0100    0.0100    0.0100    0.0100    0.0100
    0.0100    0.0100    0.0100    0.0100    0.0100    0.0100    0.0100    0.0100
    0.0100    0.0100    0.0100    0.0100    0.0100    0.0100    0.0100    0.0100
    0.0100    0.0100    0.0100    0.0100    0.0100    0.0100    0.0100    0.0100
    0.0100    0.0100    0.0100    0.0100    0.0100    0.0100    0.0100    0.0100
    0.0100    0.0100    0.0100    0.0100    0.0100    0.0100    0.0100    0.0100
    0.0100    0.0100    0.0100    0.0100    0.0100    0.0100    0.0100    0.0100
    0.0100    0.0100    0.0100    0.0100    0.0100    0.0100    0.0100    0.0100
    0.0100    0.0100    0.0100    0.0100    0.0100    0.0100    0.0100    0.0100
    0.0100    0.0100    0.0100    0.0100    0.0100    0.0100    0.0100    0.0100
    0.0100    0.0100    0.0100    0.0100    0.0100    0.0100    0.0100    0.0100
    0.0100    0.0100    0.0100    0.0100    0.0100    0.0100    0.0100    0.0100
    0.0100    0.0100    0.0100    0.0100    0.0100    0.0100    0.0100    0.0100
    0.0100    0.0100    0.0100    0.0100    0.0100    0.0100    0.0100    0.0100
    0.0100    0.0100    0.0100    0.0100    0.0100    0.0100    0.0100    0.0100
    0.0100    0.0100    0.0100    0.0100    0.0100    0.0100    0.0100    0.0100
    0.0100    0.0100    0.0100    0.0100    0.0100    0.0100    0.0100    0.0100
    0.0100    0.0100    0.0100    0.0100    0.0100    0.0100    0.0100    0.0100
    0.0100    0.0100    0.0100    0.0100    0.0100    0.0100    0.0100    0.0100
    0.0100    0.0100    0.0100    0.0100    0.0100    0.0100    0.0100    0.0100
    0.0100    0.0100    0.0100    0.0100    0.0100    0.0100    0.0100    0.0100
    0.0100    0.0100    0.0100    0.0100    0.0100    0.0100    0.0100    0.0100
    0.0100    0.0100    0.0100    0.0100    0.0100    0.0100    0.0100    0.0100
    0.0100    0.0100    0.0100    0.0100    0.0100    0.0100    0.0100    0.0100
    0.0100    0.0100    0.0100    0.0100    0.0100    0.0100    0.0100    0.0100
    0.0100    0.0100    0.0100    0.0100    0.0100    0.0100    0.0100    0.0100
    0.0100    0.0100    0.0100    0.0100    0.0100    0.0100    0.0100    0.0100
    0.0100    0.0100    0.0100    0.0100    0.0100    0.0100    0.0100    0.0100
    0.0100    0.0100    0.0100    0.0100    0.0100    0.0100    0.0100    0.0100
    0.0100    0.0100    0.0100    0.0100    0.0100    0.0100    0.0100    0.0100
    0.0100    0.0100    0.0100    0.0100    0.0100    0.0100    0.0100    0.0100
    0.0100    0.0100    0.0100    0.0100    0.0100    0.0100    0.0100    0.0100
    0.0100    0.0100    0.0100    0.0100    0.0100    0.0100    0.0100    0.0100
    0.0100    0.0100    0.0100    0.0100    0.0100    0.0100    0.0100    0.0100
    0.0100    0.0100    0.0100    0.0100    0.0100    0.0100    0.0100    0.0100
    0.0100    0.0100    0.0100    0.0100    0.0100    0.0100    0.0100    0.0100
    0.0100    0.0100    0.0100    0.0100    0.0100    0.0100    0.0100    0.0100
    0.0100    0.0100    0.0100    0.0100    0.0100    0.0100    0.0100    0.0100
    0.0100    0.0100    0.0100    0.0100    0.0100    0.0100    0.0100    0.0100
    0.0100    0.0100    0.0100    0.0100    0.0100    0.0100    0.0100    0.0100
    0.0100    0.0100    0.0100    0.0100    0.0100    0.0100    0.0100    0.0100
    0.0100    0.0100    0.0100    0.0100    0.0100    0.0100    0.0100    0.0100
    0.0100    0.0100    0.0100    0.0100    0.0100    0.0100    0.0100    0.0100
    0.0100    0.0100    0.0100    0.0100    0.0100    0.0100    0.0100    0.0100
    0.0100    0.0100    0.0100    0.0100    0.0100    0.0100    0.0100    0.0100
    0.0100    0.0100    0.0100    0.0100    0.0100    0.0100    0.0100    0.0100
    0.0100    0.0100    0.0100    0.0100    0.0100    0.0100    0.0100    0.0100
    0.0100    0.0100    0.0100    0.0100    0.0100    0.0100    0.0100    0.0100
    0.0100    0.0100    0.0100    0.0100    0.0100    0.0100    0.0100    0.0100
    0.0100    0.0100    0.0100    0.0100    0.0100    0.0100    0.0100    0.0100
    0.0100    0.0100    0.0100    0.0100    0.0100    0.0100    0.0100    0.0100
    0.0100    0.0100    0.0100    0.0100    0.0100    0.0100    0.0100    0.0100
    0.0100    0.0100    0.0100    0.0100    0.0100    0.0100    0.0100    0.0100
    0.0100    0.0100    0.0100    0.0100    0.0100    0.0100    0.0100    0.0100
    0.0100    0.0100    0.0100    0.0100    0.0100    0.0100    0.0100    0.0100
    0.0100    0.0100    0.0100    0.0100    0.0100    0.0100    0.0100    0.0100
    0.0100    0.0100    0.0100    0.0100    0.0100    0.0100    0.0100    0.0100
    0.0100    0.0100    0.0100    0.0100    0.0100    0.0100    0.0100    0.0100
    0.0100    0.0100    0.0100    0.0100    0.0100    0.0100    0.0100    0.0100
    0.0100    0.0100    0.0100    0.0100    0.0100    0.0100    0.0100    0.0100
    0.0100    0.0100    0.0100    0.0100    0.0100    0.0100    0.0100    0.0100
    0.0100    0.0100    0.0100    0.0100    0.0100    0.0100    0.0100    0.0100
    0.0100    0.0100    0.0100    0.0100    0.0100    0.0100    0.0100    0.0100
    0.0100    0.0100    0.0100    0.0100    0.0100    0.0100    0.0100    0.0100
    0.0100    0.0100    0.0100    0.0100    0.0100    0.0100    0.0100    0.0100
    0.0100    0.0100    0.0100    0.0100    0.0100    0.0100    0.0100    0.0100
    0.0100    0.0100    0.0100    0.0100    0.0100    0.0100    0.0100    0.0100
    0.0100    0.0100    0.0100    0.0100    0.0100    0.0100    0.0100    0.0100
    0.0100    0.0100    0.0100    0.0100
   </PP_RAB>
 </PP_MESH>
  <PP_LOCAL type="real"  size="1300" columns="4">
   -5.8096913870E+00   -3.1538361979E+01   -3.1596027076E+01   -3.1588158982E+01
   -3.1550984956E+01   -3.1501897993E+01   -3.1443430982E+01   -3.1376316677E+01
   -3.1301000946E+01   -3.1217861780E+01   -3.1127245175E+01   -3.1029472123E+01
   -3.0924840868E+01   -3.0813627903E+01   -3.0696088029E+01   -3.0572453459E+01
   -3.0442932156E+01   -3.0307705657E+01   -3.0166926718E+01   -3.0020717088E+01
   -2.9869165751E+01   -2.9712327858E+01   -2.9550224606E+01   -2.9382844170E+01
   -2.9210143792E+01   -2.9032053017E+01   -2.8848478009E+01   -2.8659306813E+01
   -2.8464415372E+01   -2.8263674071E+01   -2.8056954552E+01   -2.7844136537E+01
   -2.7625114409E+01   -2.7399803323E+01   -2.7168144659E+01   -2.6930110651E+01
   -2.6685708125E+01   -2.6434981246E+01   -2.6178013301E+01   -2.5914927519E+01
   -2.5645886980E+01   -2.5371093703E+01   -2.5090786986E+01   -2.4805241096E+01
   -2.4514762414E+01   -2.4219686120E+01   -2.3920372529E+01   -2.3617203159E+01
   -2.3310576625E+01   -2.3000904462E+01   -2.2688606939E+01   -2.2374108980E+01
   -2.2057836259E+01   -2.1740211545E+01   -2.1421651388E+01   -2.1102563178E+01
   -2.0783342650E+01   -2.0464371845E+01   -2.0146017550E+01   -1.9828630208E+01
   -1.9512543274E+01   -1.9198072986E+01   -1.8885518487E+01   -1.8575162250E+01
   -1.8267270748E+01   -1.7962095280E+01   -1.7659872925E+01   -1.7360827531E+01
   -1.7065170720E+01   -1.6773102844E+01   -1.6484813874E+01   -1.6200484188E+01
   -1.5920285247E+01   -1.5644380151E+01   -1.5372924063E+01   -1.5106064525E+01
   -1.4843941640E+01   -1.4586688163E+01   -1.4334429483E+01   -1.4087283531E+01
   -1.3845360605E+01   -1.3608763141E+01   -1.3377585430E+01   -1.3151913294E+01
   -1.2931823731E+01   -1.2717384540E+01   -1.2508653927E+01   -1.2305680095E+01
   -1.2108500843E+01   -1.1917143147E+01   -1.1731622752E+01   -1.1551943763E+01
   -1.1378098247E+01   -1.1210065829E+01   -1.1047813309E+01   -1.0891294270E+01
   -1.0740448701E+01   -1.0595202617E+01   -1.0455467688E+01   -1.0321140859E+01
   -1.0192103980E+01   -1.0068223423E+01   -9.9493497007E+00   -9.8353170694E+00
   -9.7259431326E+00   -9.6210284260E+00   -9.5203559925E+00   -9.4236909416E+00
   -9.3307799940E+00   -9.2413510088E+00   -9.1551125020E+00   -9.0717539989E+00
   -8.9909536036E+00   -8.9123926393E+00   -8.8357684559E+00   -8.7608049361E+00
   -8.6872600169E+00   -8.6149299837E+00   -8.5436506909E+00   -8.4732961620E+00
   -8.4037752085E+00   -8.3350267667E+00   -8.2670146071E+00   -8.1997219652E+00
   -8.1331464992E+00   -8.0672958335E+00   -8.0021838216E+00   -7.9378275595E+00
   -7.8742451109E+00   -7.8114538634E+00   -7.7494694136E+00   -7.6883048776E+00
   -7.6279705263E+00   -7.5684736602E+00   -7.5098186524E+00   -7.4520071021E+00
   -7.3950380545E+00   -7.3389082580E+00   -7.2836124314E+00   -7.2291435297E+00
   -7.1754929977E+00   -7.1226510036E+00   -7.0706066528E+00   -7.0193481789E+00
   -6.9688631126E+00   -6.9191384307E+00   -6.8701606849E+00   -6.8219161141E+00
   -6.7743907412E+00   -6.7275704554E+00   -6.6814410830E+00   -6.6359884482E+00
   -6.5911984233E+00   -6.5470569727E+00   -6.5035501886E+00   -6.4606643223E+00
   -6.4183858091E+00   -6.3767012904E+00   -6.3355976304E+00   -6.2950619318E+00
   -6.2550815471E+00   -6.2156440884E+00   -6.1767374358E+00   -6.1383497430E+00
   -6.1004694435E+00   -6.0630852588E+00   -6.0261862000E+00   -5.9897615569E+00
   -5.9538008983E+00   -5.9182940851E+00   -5.8832312713E+00   -5.8486029000E+00
   -5.8143997037E+00   -5.7806127066E+00   -5.7472332458E+00   -5.7142529884E+00
   -5.6816638942E+00   -5.6494581620E+00   -5.6176282186E+00   -5.5861667178E+00
   -5.5550665310E+00   -5.5243207373E+00   -5.4939226167E+00   -5.4638656428E+00
   -5.4341434754E+00   -5.4047499537E+00   -5.3756790900E+00   -5.3469250634E+00
   -5.3184822137E+00   -5.2903450359E+00   -5.2625081745E+00   -5.2349664186E+00
   -5.2077146967E+00   -5.1807480717E+00   -5.1540617369E+00   -5.1276510107E+00
   -5.1015113333E+00   -5.0756382619E+00   -5.0500274673E+00   -5.0246747297E+00
   -4.9995759354E+00   -4.9747270732E+00   -4.9501242309E+00   -4.9257635922E+00
   -4.9016414336E+00   -4.8777541214E+00   -4.8540981085E+00   -4.8306699317E+00
   -4.8074662094E+00   -4.7844836382E+00   -4.7617189909E+00   -4.7391691139E+00
   -4.7168309247E+00   -4.6947014097E+00   -4.6727776217E+00   -4.6510566782E+00
   -4.6295357588E+00   -4.6082121035E+00   -4.5870830105E+00   -4.5661458344E+00
   -4.5453979843E+00   -4.5248369222E+00   -4.5044601607E+00   -4.4842652621E+00
   -4.4642498361E+00   -4.4444115386E+00   -4.4247480700E+00   -4.4052571740E+00
   -4.3859366355E+00   -4.3667842802E+00   -4.3477979724E+00   -4.3289756141E+00
   -4.3103151439E+00   -4.2918145354E+00   -4.2734717964E+00   -4.2552849677E+00
   -4.2372521216E+00   -4.2193713617E+00   -4.2016408212E+00   -4.1840586621E+00
   -4.1666230746E+00   -4.1493322757E+00   -4.1321845087E+00   -4.1151780423E+00
   -4.0983111697E+00   -4.0815822082E+00   -4.0649894976E+00   -4.0485313995E+00
   -4.0322062958E+00   -4.0160125899E+00   -3.9999487078E+00   -3.9840130968E+00
   -3.9682042245E+00   -3.9525205760E+00   -3.9369606543E+00   -3.9215229796E+00
   -3.9062060899E+00   -3.8910085393E+00   -3.8759288972E+00   -3.8609657485E+00
   -3.8461176990E+00   -3.8313833845E+00   -3.8167614827E+00   -3.8022507086E+00
   -3.7878498069E+00   -3.7735575374E+00   -3.7593726762E+00   -3.7452940163E+00
   -3.7313203706E+00   -3.7174505697E+00   -3.7036834613E+00   -3.6900179099E+00
   -3.6764527968E+00   -3.6629870196E+00   -3.6496194921E+00   -3.6363491436E+00
   -3.6231749191E+00   -3.6100957789E+00   -3.5971106979E+00   -3.5842186661E+00
   -3.5714186874E+00   -3.5587097802E+00   -3.5460909768E+00   -3.5335613229E+00
   -3.5211198779E+00   -3.5087657142E+00   -3.4964979171E+00   -3.4843155849E+00
   -3.4722178280E+00   -3.4602037694E+00   -3.4482725440E+00   -3.4364232988E+00
   -3.4246551922E+00   -3.4129673940E+00   -3.4013590857E+00   -3.3898294594E+00
   -3.3783777184E+00   -3.3670030766E+00   -3.3557047585E+00   -3.3444819989E+00
   -3.3333340427E+00   -3.3222601450E+00   -3.3112595705E+00   -3.3003315940E+00
   -3.2894754993E+00   -3.2786905800E+00   -3.2679761387E+00   -3.2573314871E+00
   -3.2467559460E+00   -3.2362488447E+00   -3.2258095213E+00   -3.2154373224E+00
   -3.2051316029E+00   -3.1948917260E+00   -3.1847170630E+00   -3.1746069930E+00
   -3.1645609033E+00   -3.1545781886E+00   -3.1446582512E+00   -3.1348005012E+00
   -3.1250043557E+00   -3.1152692393E+00   -3.1055945836E+00   -3.0959798274E+00
   -3.0864244161E+00   -3.0769278023E+00   -3.0674894451E+00   -3.0581088102E+00
   -3.0487853698E+00   -3.0395186026E+00   -3.0303079935E+00   -3.0211530338E+00
   -3.0120532208E+00   -3.0030080578E+00   -2.9940170540E+00   -2.9850797247E+00
   -2.9761955906E+00   -2.9673641785E+00   -2.9585850205E+00   -2.9498576542E+00
   -2.9411816229E+00   -2.9325564749E+00   -2.9239817641E+00   -2.9154570494E+00
   -2.9069818949E+00   -2.8985558697E+00   -2.8901785480E+00   -2.8818495087E+00
   -2.8735683358E+00   -2.8653346178E+00   -2.8571479480E+00   -2.8490079245E+00
   -2.8409141497E+00   -2.8328662306E+00   -2.8248637787E+00   -2.8169064098E+00
   -2.8089937441E+00   -2.8011254060E+00   -2.7933010240E+00   -2.7855202309E+00
   -2.7777826635E+00   -2.7700879626E+00   -2.7624357730E+00   -2.7548257435E+00
   -2.7472575265E+00   -2.7397307785E+00   -2.7322451596E+00   -2.7248003336E+00
   -2.7173959680E+00   -2.7100317339E+00   -2.7027073059E+00   -2.6954223622E+00
   -2.6881765843E+00   -2.6809696574E+00   -2.6738012697E+00   -2.6666711130E+00
   -2.6595788823E+00   -2.6525242758E+00   -2.6455069950E+00   -2.6385267443E+00
   -2.6315832314E+00   -2.6246761672E+00   -2.6178052653E+00   -2.6109702426E+00
   -2.6041708187E+00   -2.5974067162E+00   -2.5906776608E+00   -2.5839833806E+00
   -2.5773236068E+00   -2.5706980734E+00   -2.5641065169E+00   -2.5575486766E+00
   -2.5510242946E+00   -2.5445331155E+00   -2.5380748864E+00   -2.5316493571E+00
   -2.5252562798E+00   -2.5188954095E+00   -2.5125665032E+00   -2.5062693207E+00
   -2.5000036241E+00   -2.4937691778E+00   -2.4875657485E+00   -2.4813931055E+00
   -2.4752510202E+00   -2.4691392661E+00   -2.4630576191E+00   -2.4570058574E+00
   -2.4509837612E+00   -2.4449911129E+00   -2.4390276970E+00   -2.4330933002E+00
   -2.4271877112E+00   -2.4213107207E+00   -2.4154621215E+00   -2.4096417083E+00
   -2.4038492780E+00   -2.3980846291E+00   -2.3923475623E+00   -2.3866378802E+00
   -2.3809553871E+00   -2.3752998892E+00   -2.3696711947E+00   -2.3640691135E+00
   -2.3584934573E+00   -2.3529440396E+00   -2.3474206755E+00   -2.3419231821E+00
   -2.3364513780E+00   -2.3310050835E+00   -2.3255841208E+00   -2.3201883134E+00
   -2.3148174867E+00   -2.3094714676E+00   -2.3041500846E+00   -2.2988531679E+00
   -2.2935805491E+00   -2.2883320613E+00   -2.2831075394E+00   -2.2779068195E+00
   -2.2727297393E+00   -2.2675761381E+00   -2.2624458565E+00   -2.2573387365E+00
   -2.2522546217E+00   -2.2471933570E+00   -2.2421547886E+00   -2.2371387644E+00
   -2.2321451332E+00   -2.2271737455E+00   -2.2222244529E+00   -2.2172971086E+00
   -2.2123915669E+00   -2.2075076833E+00   -2.2026453147E+00   -2.1978043193E+00
   -2.1929845565E+00   -2.1881858869E+00   -2.1834081724E+00   -2.1786512759E+00
   -2.1739150617E+00   -2.1691993952E+00   -2.1645041430E+00   -2.1598291728E+00
   -2.1551743535E+00   -2.1505395550E+00   -2.1459246486E+00   -2.1413295063E+00
   -2.1367540016E+00   -2.1321980087E+00   -2.1276614032E+00   -2.1231440616E+00
   -2.1186458614E+00   -2.1141666812E+00   -2.1097064007E+00   -2.1052649004E+00
   -2.1008420621E+00   -2.0964377683E+00   -2.0920519027E+00   -2.0876843498E+00
   -2.0833349952E+00   -2.0790037253E+00   -2.0746904277E+00   -2.0703949907E+00
   -2.0661173036E+00   -2.0618572566E+00   -2.0576147407E+00   -2.0533896481E+00
   -2.0491818716E+00   -2.0449913050E+00   -2.0408178428E+00   -2.0366613807E+00
   -2.0325218148E+00   -2.0283990425E+00   -2.0242929617E+00   -2.0202034713E+00
   -2.0161304709E+00   -2.0120738610E+00   -2.0080335429E+00   -2.0040094185E+00
   -2.0000013908E+00   -1.9960093633E+00   -1.9920332404E+00   -1.9880729274E+00
   -1.9841283299E+00   -1.9801993548E+00   -1.9762859094E+00   -1.9723879017E+00
   -1.9685052407E+00   -1.9646378358E+00   -1.9607855974E+00   -1.9569484363E+00
   -1.9531262643E+00   -1.9493189936E+00   -1.9455265374E+00   -1.9417488092E+00
   -1.9379857236E+00   -1.9342371954E+00   -1.9305031405E+00   -1.9267834751E+00
   -1.9230781162E+00   -1.9193869814E+00   -1.9157099891E+00   -1.9120470580E+00
   -1.9083981077E+00   -1.9047630582E+00   -1.9011418304E+00   -1.8975343454E+00
   -1.8939405253E+00   -1.8903602925E+00   -1.8867935701E+00   -1.8832402818E+00
   -1.8797003518E+00   -1.8761737050E+00   -1.8726602666E+00   -1.8691599627E+00
   -1.8656727198E+00   -1.8621984648E+00   -1.8587371253E+00   -1.8552886295E+00
   -1.8518529060E+00   -1.8484298840E+00   -1.8450194931E+00   -1.8416216636E+00
   -1.8382363262E+00   -1.8348634122E+00   -1.8315028532E+00   -1.8281545816E+00
   -1.8248185300E+00   -1.8214946316E+00   -1.8181828202E+00   -1.8148830301E+00
   -1.8115951957E+00   -1.8083192523E+00   -1.8050551355E+00   -1.8018027814E+00
   -1.7985621264E+00   -1.7953331076E+00   -1.7921156624E+00   -1.7889097287E+00
   -1.7857152448E+00   -1.7825321496E+00   -1.7793603821E+00   -1.7761998820E+00
   -1.7730505895E+00   -1.7699124450E+00   -1.7667853893E+00   -1.7636693639E+00
   -1.7605643105E+00   -1.7574701712E+00   -1.7543868886E+00   -1.7513144056E+00
   -1.7482526656E+00   -1.7452016124E+00   -1.7421611900E+00   -1.7391313431E+00
   -1.7361120165E+00   -1.7331031556E+00   -1.7301047060E+00   -1.7271166137E+00
   -1.7241388253E+00   -1.7211712875E+00   -1.7182139474E+00   -1.7152667527E+00
   -1.7123296510E+00   -1.7094025908E+00   -1.7064855206E+00   -1.7035783894E+00
   -1.7006811463E+00   -1.6977937412E+00   -1.6949161239E+00   -1.6920482447E+00
   -1.6891900543E+00   -1.6863415038E+00   -1.6835025443E+00   -1.6806731276E+00
   -1.6778532056E+00   -1.6750427306E+00   -1.6722416552E+00   -1.6694499323E+00
   -1.6666675152E+00   -1.6638943574E+00   -1.6611304128E+00   -1.6583756355E+00
   -1.6556299799E+00   -1.6528934010E+00   -1.6501658537E+00   -1.6474472934E+00
   -1.6447376757E+00   -1.6420369566E+00   -1.6393450924E+00   -1.6366620394E+00
   -1.6339877547E+00   -1.6313221952E+00   -1.6286653183E+00   -1.6260170817E+00
   -1.6233774433E+00   -1.6207463612E+00   -1.6181237940E+00   -1.6155097003E+00
   -1.6129040392E+00   -1.6103067699E+00   -1.6077178520E+00   -1.6051372452E+00
   -1.6025649096E+00   -1.6000008055E+00   -1.5974448934E+00   -1.5948971342E+00
   -1.5923574888E+00   -1.5898259186E+00   -1.5873023852E+00   -1.5847868503E+00
   -1.5822792759E+00   -1.5797796244E+00   -1.5772878581E+00   -1.5748039400E+00
   -1.5723278330E+00   -1.5698595002E+00   -1.5673989051E+00   -1.5649460114E+00
   -1.5625007830E+00   -1.5600631841E+00   -1.5576331789E+00   -1.5552107320E+00
   -1.5527958083E+00   -1.5503883726E+00   -1.5479883904E+00   -1.5455958269E+00
   -1.5432106479E+00   -1.5408328192E+00   -1.5384623069E+00   -1.5360990773E+00
   -1.5337430968E+00   -1.5313943322E+00   -1.5290527504E+00   -1.5267183184E+00
   -1.5243910036E+00   -1.5220707735E+00   -1.5197575957E+00   -1.5174514382E+00
   -1.5151522690E+00   -1.5128600565E+00   -1.5105747690E+00   -1.5082963754E+00
   -1.5060248443E+00   -1.5037601450E+00   -1.5015022465E+00   -1.4992511183E+00
   -1.4970067300E+00   -1.4947690514E+00   -1.4925380524E+00   -1.4903137032E+00
   -1.4880959741E+00   -1.4858848355E+00   -1.4836802582E+00   -1.4814822129E+00
   -1.4792906708E+00   -1.4771056029E+00   -1.4749269806E+00   -1.4727547754E+00
   -1.4705889591E+00   -1.4684295035E+00   -1.4662763806E+00   -1.4641295625E+00
   -1.4619890217E+00   -1.4598547307E+00   -1.4577266620E+00   -1.4556047886E+00
   -1.4534890835E+00   -1.4513795197E+00   -1.4492760705E+00   -1.4471787095E+00
   -1.4450874103E+00   -1.4430021465E+00   -1.4409228921E+00   -1.4388496211E+00
   -1.4367823079E+00   -1.4347209266E+00   -1.4326654519E+00   -1.4306158583E+00
   -1.4285721208E+00   -1.4265342141E+00   -1.4245021134E+00   -1.4224757940E+00
   -1.4204552311E+00   -1.4184404003E+00   -1.4164312773E+00   -1.4144278377E+00
   -1.4124300576E+00   -1.4104379129E+00   -1.4084513800E+00   -1.4064704350E+00
   -1.4044950544E+00   -1.4025252149E+00   -1.4005608931E+00   -1.3986020660E+00
   -1.3966487104E+00   -1.3947008035E+00   -1.3927583225E+00   -1.3908212447E+00
   -1.3888895478E+00   -1.3869632092E+00   -1.3850422067E+00   -1.3831265182E+00
   -1.3812161217E+00   -1.3793109952E+00   -1.3774111170E+00   -1.3755164653E+00
   -1.3736270188E+00   -1.3717427559E+00   -1.3698636554E+00   -1.3679896961E+00
   -1.3661208568E+00   -1.3642571167E+00   -1.3623984549E+00   -1.3605448507E+00
   -1.3586962835E+00   -1.3568527327E+00   -1.3550141779E+00   -1.3531805990E+00
   -1.3513519756E+00   -1.3495282879E+00   -1.3477095157E+00   -1.3458956392E+00
   -1.3440866388E+00   -1.3422824947E+00   -1.3404831875E+00   -1.3386886976E+00
   -1.3368990059E+00   -1.3351140931E+00   -1.3333339400E+00   -1.3315585277E+00
   -1.3297878372E+00   -1.3280218497E+00   -1.3262605465E+00   -1.3245039091E+00
   -1.3227519188E+00   -1.3210045573E+00   -1.3192618062E+00   -1.3175236473E+00
   -1.3157900626E+00   -1.3140610339E+00   -1.3123365434E+00   -1.3106165731E+00
   -1.3089011054E+00   -1.3071901225E+00   -1.3054836070E+00   -1.3037815413E+00
   -1.3020839080E+00   -1.3003906899E+00   -1.2987018698E+00   -1.2970174306E+00
   -1.2953373551E+00   -1.2936616266E+00   -1.2919902281E+00   -1.2903231429E+00
   -1.2886603543E+00   -1.2870018457E+00   -1.2853476006E+00   -1.2836976026E+00
   -1.2820518354E+00   -1.2804102827E+00   -1.2787729283E+00   -1.2771397562E+00
   -1.2755107503E+00   -1.2738858948E+00   -1.2722651738E+00   -1.2706485714E+00
   -1.2690360722E+00   -1.2674276604E+00   -1.2658233205E+00   -1.2642230371E+00
   -1.2626267948E+00   -1.2610345783E+00   -1.2594463724E+00   -1.2578621621E+00
   -1.2562819321E+00   -1.2547056676E+00   -1.2531333537E+00   -1.2515649754E+00
   -1.2500005181E+00   -1.2484399670E+00   -1.2468833076E+00   -1.2453305253E+00
   -1.2437816057E+00   -1.2422365342E+00   -1.2406952968E+00   -1.2391578789E+00
   -1.2376242666E+00   -1.2360944456E+00   -1.2345684020E+00   -1.2330461217E+00
   -1.2315275909E+00   -1.2300127957E+00   -1.2285017224E+00   -1.2269943572E+00
   -1.2254906865E+00   -1.2239906968E+00   -1.2224943746E+00   -1.2210017064E+00
   -1.2195126788E+00   -1.2180272786E+00   -1.2165454924E+00   -1.2150673073E+00
   -1.2135927099E+00   -1.2121216873E+00   -1.2106542266E+00   -1.2091903147E+00
   -1.2077299388E+00   -1.2062730861E+00   -1.2048197439E+00   -1.2033698996E+00
   -1.2019235404E+00   -1.2004806539E+00   -1.1990412276E+00   -1.1976052490E+00
   -1.1961727057E+00   -1.1947435855E+00   -1.1933178761E+00   -1.1918955652E+00
   -1.1904766408E+00   -1.1890610908E+00   -1.1876489031E+00   -1.1862400659E+00
   -1.1848345671E+00   -1.1834323949E+00   -1.1820335375E+00   -1.1806379833E+00
   -1.1792457204E+00   -1.1778567373E+00   -1.1764710224E+00   -1.1750885642E+00
   -1.1737093512E+00   -1.1723333720E+00   -1.1709606152E+00   -1.1695910695E+00
   -1.1682247238E+00   -1.1668615666E+00   -1.1655015871E+00   -1.1641447739E+00
   -1.1627911161E+00   -1.1614406027E+00   -1.1600932228E+00   -1.1587489653E+00
   -1.1574078196E+00   -1.1560697749E+00   -1.1547348202E+00   -1.1534029451E+00
   -1.1520741388E+00   -1.1507483908E+00   -1.1494256904E+00   -1.1481060273E+00
   -1.1467893909E+00   -1.1454757708E+00   -1.1441651567E+00   -1.1428575384E+00
   -1.1415529054E+00   -1.1402512477E+00   -1.1389525551E+00   -1.1376568173E+00
   -1.1363640245E+00   -1.1350741664E+00   -1.1337872332E+00   -1.1325032149E+00
   -1.1312221017E+00   -1.1299438836E+00   -1.1286685509E+00   -1.1273960938E+00
   -1.1261265025E+00   -1.1248597676E+00   -1.1235958792E+00   -1.1223348278E+00
   -1.1210766039E+00   -1.1198211979E+00   -1.1185686005E+00   -1.1173188022E+00
   -1.1160717936E+00   -1.1148275654E+00   -1.1135861083E+00   -1.1123474131E+00
   -1.1111114705E+00   -1.1098782715E+00   -1.1086478068E+00   -1.1074200673E+00
   -1.1061950442E+00   -1.1049727282E+00   -1.1037531105E+00   -1.1025361822E+00
   -1.1013219343E+00   -1.1001103581E+00   -1.0989014446E+00   -1.0976951852E+00
   -1.0964915711E+00   -1.0952905936E+00   -1.0940922441E+00   -1.0928965139E+00
   -1.0917033945E+00   -1.0905128773E+00   -1.0893249538E+00   -1.0881396156E+00
   -1.0869568542E+00   -1.0857766612E+00   -1.0845990283E+00   -1.0834239472E+00
   -1.0822514095E+00   -1.0810814071E+00   -1.0799139316E+00   -1.0787489750E+00
   -1.0775865291E+00   -1.0764265857E+00   -1.0752691368E+00   -1.0741141744E+00
   -1.0729616905E+00   -1.0718116771E+00   -1.0706641262E+00   -1.0695190300E+00
   -1.0683763805E+00   -1.0672361700E+00   -1.0660983907E+00   -1.0649630348E+00
   -1.0638300945E+00   -1.0626995621E+00   -1.0615714301E+00   -1.0604456907E+00
   -1.0593223363E+00   -1.0582013594E+00   -1.0570827524E+00   -1.0559665079E+00
   -1.0548526183E+00   -1.0537410762E+00   -1.0526318742E+00   -1.0515250049E+00
   -1.0504204610E+00   -1.0493182351E+00   -1.0482183199E+00   -1.0471207083E+00
   -1.0460253929E+00   -1.0449323665E+00   -1.0438416221E+00   -1.0427531524E+00
   -1.0416669503E+00   -1.0405830089E+00   -1.0395013209E+00   -1.0384218795E+00
   -1.0373446775E+00   -1.0362697081E+00   -1.0351969643E+00   -1.0341264392E+00
   -1.0330581260E+00   -1.0319920177E+00   -1.0309281076E+00   -1.0298663888E+00
   -1.0288068547E+00   -1.0277494984E+00   -1.0266943134E+00   -1.0256412927E+00
   -1.0245904300E+00   -1.0235417184E+00   -1.0224951514E+00   -1.0214507225E+00
   -1.0204084250E+00   -1.0193682526E+00   -1.0183301986E+00   -1.0172942566E+00
   -1.0162604202E+00   -1.0152286829E+00   -1.0141990385E+00   -1.0131714804E+00
   -1.0121460024E+00   -1.0111225982E+00   -1.0101012615E+00   -1.0090819860E+00
   -1.0080647655E+00   -1.0070495938E+00   -1.0060364647E+00   -1.0050253720E+00
   -1.0040163096E+00   -1.0030092715E+00   -1.0020042514E+00   -1.0010012434E+00
   -1.0000002414E+00   -9.9900123945E-01   -9.9800423149E-01   -9.9700921159E-01
   -9.9601617380E-01   -9.9502511220E-01   -9.9403602091E-01   -9.9304889405E-01
   -9.9206372578E-01   -9.9108051027E-01   -9.9009924172E-01   -9.8911991436E-01
   -9.8814252243E-01   -9.8716706021E-01   -9.8619352197E-01   -9.8522190203E-01
   -9.8425219474E-01   -9.8328439444E-01   -9.8231849552E-01   -9.8135449238E-01
   -9.8039237944E-01   -9.7943215115E-01   -9.7847380198E-01   -9.7751732642E-01
   -9.7656271898E-01   -9.7560997418E-01   -9.7465908659E-01   -9.7371005078E-01
   -9.7276286135E-01   -9.7181751290E-01   -9.7087400009E-01   -9.6993231756E-01
   -9.6899246001E-01   -9.6805442212E-01   -9.6711819862E-01   -9.6618378424E-01
   -9.6525117376E-01   -9.6432036195E-01   -9.6339134361E-01   -9.6246411357E-01
   -9.6153866667E-01   -9.6061499776E-01   -9.5969310173E-01   -9.5877297348E-01
   -9.5785460793E-01   -9.5693800002E-01   -9.5602314471E-01   -9.5511003697E-01
   -9.5419867181E-01   -9.5328904423E-01   -9.5238114929E-01   -9.5147498202E-01
   -9.5057053750E-01   -9.4966781084E-01   -9.4876679712E-01   -9.4786749149E-01
   -9.4696988909E-01   -9.4607398509E-01   -9.4517977468E-01   -9.4428725304E-01
   -9.4339641542E-01   -9.4250725703E-01   -9.4161977314E-01   -9.4073395903E-01
   -9.3984980999E-01   -9.3896732131E-01   -9.3808648835E-01   -9.3720730643E-01
   -9.3632977091E-01   -9.3545387719E-01   -9.3457962066E-01   -9.3370699672E-01
   -9.3283600082E-01   -9.3196662839E-01   -9.3109887491E-01   -9.3023273586E-01
   -9.2936820673E-01   -9.2850528304E-01   -9.2764396033E-01   -9.2678423414E-01
   -9.2592610003E-01   -9.2506955359E-01   -9.2421459042E-01   -9.2336120614E-01
   -9.2250939636E-01   -9.2165915674E-01   -9.2081048294E-01   -9.1996337064E-01
   -9.1911781553E-01   -9.1827381333E-01   -9.1743135975E-01   -9.1659045055E-01
   -9.1575108148E-01   -9.1491324830E-01   -9.1407694682E-01   -9.1324217282E-01
   -9.1240892214E-01   -9.1157719061E-01   -9.1074697407E-01   -9.0991826839E-01
   -9.0909106945E-01   -9.0826537314E-01   -9.0744117538E-01   -9.0661847208E-01
   -9.0579725919E-01   -9.0497753266E-01   -9.0415928845E-01   -9.0334252256E-01
   -9.0252723097E-01   -9.0171340971E-01   -9.0090105479E-01   -9.0009016226E-01
   -8.9928072817E-01   -8.9847274859E-01   -8.9766621960E-01   -8.9686113730E-01
   -8.9605749780E-01   -8.9525529723E-01   -8.9445453173E-01   -8.9365519744E-01
   -8.9285729054E-01   -8.9206080720E-01   -8.9126574361E-01   -8.9047209600E-01
   -8.8967986057E-01   -8.8888903356E-01   -8.8809961121E-01   -8.8731158980E-01
   -8.8652496558E-01   -8.8573973486E-01   -8.8495589393E-01   -8.8417343910E-01
   -8.8339236670E-01   -8.8261267307E-01   -8.8183435456E-01   -8.8105740755E-01
   -8.8028182839E-01   -8.7950761350E-01   -8.7873475926E-01   -8.7796326210E-01
   -8.7719311845E-01   -8.7642432474E-01   -8.7565687743E-01   -8.7489077299E-01
   -8.7412600789E-01   -8.7336257863E-01   -8.7260048170E-01   -8.7183971364E-01
   -8.7108027095E-01   -8.7032215018E-01   -8.6956534788E-01   -8.6880986062E-01
   -8.6805568498E-01   -8.6730281753E-01   -8.6655125487E-01   -8.6580099363E-01
   -8.6505203042E-01   -8.6430436187E-01   -8.6355798463E-01   -8.6281289536E-01
   -8.6206909073E-01   -8.6132656742E-01   -8.6058532212E-01   -8.5984535153E-01
   -8.5910665238E-01   -8.5836922137E-01   -8.5763305526E-01   -8.5689815078E-01
   -8.5616450471E-01   -8.5543211381E-01   -8.5470097485E-01   -8.5397108464E-01
   -8.5324243998E-01   -8.5251503768E-01   -8.5178887457E-01   -8.5106394748E-01
   -8.5034025327E-01   -8.4961778878E-01   -8.4889655088E-01   -8.4817653646E-01
   -8.4745774241E-01   -8.4674016562E-01   -8.4602380301E-01   -8.4530865149E-01
   -8.4459470800E-01   -8.4388196948E-01   -8.4317043287E-01   -8.4246009516E-01
   -8.4175095330E-01   -8.4104300427E-01   -8.4033624508E-01   -8.3963067272E-01
   -8.3892628421E-01   -8.3822307657E-01   -8.3752104684E-01   -8.3682019205E-01
   -8.3612050926E-01   -8.3542199553E-01   -8.3472464793E-01   -8.3402846355E-01
   -8.3333343948E-01   -8.3263957282E-01   -8.3194686068E-01   -8.3125530019E-01
   -8.3056488846E-01   -8.2987562265E-01   -8.2918749990E-01   -8.2850051737E-01
   -8.2781467223E-01   -8.2712996166E-01   -8.2644638284E-01   -8.2576393298E-01
   -8.2508260927E-01   -8.2440240892E-01   -8.2372332918E-01   -8.2304536726E-01
   -8.2236852041E-01   -8.2169278588E-01   -8.2101816094E-01   -8.2034464284E-01
   -8.1967222888E-01   -8.1900091633E-01   -8.1833070249E-01   -8.1766158467E-01
   -8.1699356018E-01   -8.1632662634E-01   -8.1566078049E-01   -8.1499601996E-01
   -8.1433234211E-01   -8.1366974428E-01   -8.1300822385E-01   -8.1234777820E-01
   -8.1168840469E-01   -8.1103010073E-01   -8.1037286371E-01   -8.0971669105E-01
   -8.0906158015E-01   -8.0840752845E-01   -8.0775453337E-01   -8.0710259237E-01
   -8.0645170288E-01   -8.0580186237E-01   -8.0515306830E-01   -8.0450531815E-01
   -8.0385860940E-01   -8.0321293954E-01   -8.0256830607E-01   -8.0192470650E-01
   -8.0128213833E-01   -8.0064059910E-01   -8.0000008633E-01   -7.9936059757E-01
   -7.9872213035E-01   -7.9808468224E-01   -7.9744825079E-01   -7.9681283357E-01
   -7.9617842817E-01   -7.9554503216E-01   -7.9491264314E-01   -7.9428125872E-01
   -7.9365087649E-01   -7.9302149407E-01   -7.9239310910E-01   -7.9176571919E-01
   -7.9113932198E-01   -7.9051391513E-01   -7.8988949629E-01   -7.8926606311E-01
   -7.8864361326E-01   -7.8802214443E-01   -7.8740165429E-01   -7.8678214052E-01
   -7.8616360084E-01   -7.8554603294E-01   -7.8492943454E-01   -7.8431380335E-01
   -7.8369913710E-01   -7.8308543352E-01   -7.8247269036E-01   -7.8186090535E-01
   -7.8125007626E-01   -7.8064020085E-01   -7.8003127688E-01   -7.7942330214E-01
   -7.7881627439E-01   -7.7821019143E-01   -7.7760505107E-01   -7.7700085109E-01
   -7.7639758931E-01   -7.7579526355E-01   -7.7519387162E-01   -7.7459341137E-01
   -7.7399388062E-01   -7.7339527722E-01   -7.7279759902E-01   -7.7220084388E-01
   -7.7160500965E-01   -7.7101009422E-01   -7.7041609545E-01   -7.6982301123E-01
  </PP_LOCAL>
 <PP_NONLOCAL>
   <PP_BETA.1
       type="real"
       size="1300"
       columns="4"
       index="1"
       angular_momentum="0"
       cutoff_radius_index=" 264"
       cutoff_radius="    2.6300000000E+00" >
    3.4978797636E-11    3.4295594302E-02    6.8592750428E-02    1.0289282042E-01
    1.3719673828E-01    1.7150481464E-01    2.0581653596E-01    2.4013036959E-01
    2.7444357618E-01    3.0875203070E-01    3.4305005359E-01    3.7733025301E-01
    4.1158337965E-01    4.4579819504E-01    4.7996135449E-01    5.1405730554E-01
    5.4806820280E-01    5.8197384000E-01    6.1575159972E-01    6.4937642162E-01
    6.8282078933E-01    7.1605473647E-01    7.4904587201E-01    7.8175942493E-01
    8.1415830836E-01    8.4620320275E-01    8.7785265810E-01    9.0906321461E-01
    9.3978954142E-01    9.6998459268E-01    9.9959978029E-01    1.0285851624E+00
    1.0568896468E+00    1.0844612081E+00    1.1112471174E+00    1.1371941838E+00
    1.1622490053E+00    1.1863582291E+00    1.2094688185E+00    1.2315283262E+00
    1.2524851709E+00    1.2722889171E+00    1.2908905557E+00    1.3082427830E+00
    1.3243002782E+00    1.3390199761E+00    1.3523613339E+00    1.3642865905E+00
    1.3747610166E+00    1.3837531535E+00    1.3912350397E+00    1.3971824233E+00
    1.4015749591E+00    1.4043963882E+00    1.4056346998E+00    1.4052822731E+00
    1.4033359987E+00    1.3997973781E+00    1.3946726004E+00    1.3879725956E+00
    1.3797130635E+00    1.3699144781E+00    1.3586020660E+00    1.3458057599E+00
    1.3315601259E+00    1.3159042657E+00    1.2988816918E+00    1.2805401791E+00
    1.2609315901E+00    1.2401116767E+00    1.2181398579E+00    1.1950789750E+00
    1.1709950255E+00    1.1459568758E+00    1.1200359557E+00    1.0933059344E+00
    1.0658423816E+00    1.0377224134E+00    1.0090243268E+00    9.7982722279E-01
    9.5021062287E-01    9.2025407822E-01    8.9003677626E-01    8.5963714581E-01
    8.2913246379E-01    7.9859846601E-01    7.6810896474E-01    7.3773547581E-01
    7.0754685808E-01    6.7760896801E-01    6.4798433234E-01    6.1873184167E-01
    5.8990646788E-01    5.6155900835E-01    5.3373585969E-01    5.0647882414E-01
    4.7982495117E-01    4.5380641730E-01    4.2845044682E-01    4.0377927609E-01
    3.7981016401E-01    3.5655545124E-01    3.3402267069E-01    3.1221471143E-01
    2.9113003849E-01    2.7076297054E-01    2.5110401755E-01    2.3214028026E-01
    2.1385591325E-01    1.9623265324E-01    1.7925041448E-01    1.6288800141E-01
    1.4712426468E-01    1.3193951039E-01    1.1731653232E-01    1.0324124869E-01
    8.9702938250E-02    7.6694119688E-02    6.4210151463E-02    5.2248645816E-02
    4.0808791274E-02    2.9890665858E-02    1.9494603613E-02    9.6206551435E-03
    2.6816231565E-04   -8.5645494108E-03   -1.6880369266E-02   -2.4683505393E-02
   -3.1979513379E-02   -3.8775267658E-02   -4.5078892657E-02   -5.0899667961E-02
   -5.6247918801E-02   -6.1134900390E-02   -6.5572682121E-02   -6.9574035672E-02
   -7.3152329412E-02   -7.6321430567E-02   -7.9095615395E-02   -8.1489487553E-02
   -8.3517904234E-02   -8.5195909405E-02   -8.6538673651E-02   -8.7561439877E-02
   -8.8279474254E-02   -8.8708021817E-02   -8.8862266175E-02   -8.8757292855E-02
   -8.8408055860E-02   -8.7829347087E-02   -8.7035768292E-02   -8.6041705335E-02
   -8.4861304491E-02   -8.3508450633E-02   -8.1996747139E-02   -8.0339497386E-02
   -7.8549687738E-02   -7.6639971937E-02   -7.4622656823E-02   -7.2509689342E-02
   -7.0312644783E-02   -6.8042716222E-02   -6.5710705139E-02   -6.3327013183E-02
   -6.0901635073E-02   -5.8444152615E-02   -5.5963729814E-02   -5.3469109078E-02
   -5.0968608490E-02   -4.8470120128E-02   -4.5981109425E-02   -4.3508615544E-02
   -4.1059252740E-02   -3.8639212687E-02   -3.6254267758E-02   -3.3909775193E-02
   -3.1610682159E-02   -2.9361531646E-02   -2.7166469168E-02   -2.5029250226E-02
   -2.2953248496E-02   -2.0941464701E-02   -1.8996536112E-02   -1.7120746646E-02
   -1.5316037502E-02   -1.3584018301E-02   -1.1925978663E-02   -1.0342900196E-02
   -8.8354688313E-03   -7.4040874617E-03   -6.0488888406E-03   -4.7697486876E-03
   -3.5662989594E-03   -2.4379412371E-03   -1.3838601883E-03   -4.0303706192E-04
    5.0573682775E-04    1.3438466685E-03    2.1128408034E-03    2.8144175081E-03
    3.4504119282E-03    4.0227832083E-03    4.5336018416E-03    4.9850372705E-03
    5.3793457641E-03    5.7188585977E-03    6.0059705559E-03    6.2431287780E-03
    6.4328219657E-03    6.5775699701E-03    6.6799137683E-03    6.7424058422E-03
    6.7676009720E-03    6.7580474493E-03    6.7162787172E-03    6.6448054386E-03
    6.5461079974E-03    6.4226294332E-03    6.2767688067E-03    6.1108749924E-03
    5.9272408949E-03    5.7280980831E-03    5.5156118362E-03    5.2918765898E-03
    5.0589117736E-03    4.8186580315E-03    4.5729738114E-03    4.3236323107E-03
    4.0723187644E-03    3.8206280629E-03    3.5700626824E-03    3.3220309154E-03
    3.0778453821E-03    2.8387218074E-03    2.6057780506E-03    2.3800333534E-03
    2.1624078316E-03    1.9537221701E-03    1.7546974282E-03    1.5659550459E-03
    1.3880170370E-03    1.2213063884E-03    1.0661476040E-03    9.2276746168E-04
    7.9128625603E-04    6.7175221294E-04    5.6409480566E-04    4.6807847703E-04
    3.8258636775E-04    3.0650813736E-04    2.3986323500E-04    1.8255716486E-04
    1.3429042511E-04    9.4670548697E-05    6.3175948582E-05    3.9161856807E-05
    2.1858443589E-05    1.0364406446E-05    3.6610794650E-06    6.7592577036E-07
   -6.5937395504E-08   -5.3089163913E-08    2.7219265000E-08    3.3892187923E-09
 0. 0. 0. 0.
 0. 0. 0. 0.
 0. 0. 0. 0.
 0. 0. 0. 0.
 0. 0. 0. 0.
 0. 0. 0. 0.
 0. 0. 0. 0.
 0. 0. 0. 0.
 0. 0. 0. 0.
 0. 0. 0. 0.
 0. 0. 0. 0.
 0. 0. 0. 0.
 0. 0. 0. 0.
 0. 0. 0. 0.
 0. 0. 0. 0.
 0. 0. 0. 0.
 0. 0. 0. 0.
 0. 0. 0. 0.
 0. 0. 0. 0.
 0. 0. 0. 0.
 0. 0. 0. 0.
 0. 0. 0. 0.
 0. 0. 0. 0.
 0. 0. 0. 0.
 0. 0. 0. 0.
 0. 0. 0. 0.
 0. 0. 0. 0.
 0. 0. 0. 0.
 0. 0. 0. 0.
 0. 0. 0. 0.
 0. 0. 0. 0.
 0. 0. 0. 0.
 0. 0. 0. 0.
 0. 0. 0. 0.
 0. 0. 0. 0.
 0. 0. 0. 0.
 0. 0. 0. 0.
 0. 0. 0. 0.
 0. 0. 0. 0.
 0. 0. 0. 0.
 0. 0. 0. 0.
 0. 0. 0. 0.
 0. 0. 0. 0.
 0. 0. 0. 0.
 0. 0. 0. 0.
 0. 0. 0. 0.
 0. 0. 0. 0.
 0. 0. 0. 0.
 0. 0. 0. 0.
 0. 0. 0. 0.
 0. 0. 0. 0.
 0. 0. 0. 0.
 0. 0. 0. 0.
 0. 0. 0. 0.
 0. 0. 0. 0.
 0. 0. 0. 0.
 0. 0. 0. 0.
 0. 0. 0. 0.
 0. 0. 0. 0.
 0. 0. 0. 0.
 0. 0. 0. 0.
 0. 0. 0. 0.
 0. 0. 0. 0.
 0. 0. 0. 0.
 0. 0. 0. 0.
 0. 0. 0. 0.
 0. 0. 0. 0.
 0. 0. 0. 0.
 0. 0. 0. 0.
 0. 0. 0. 0.
 0. 0. 0. 0.
 0. 0. 0. 0.
 0. 0. 0. 0.
 0. 0. 0. 0.
 0. 0. 0. 0.
 0. 0. 0. 0.
 0. 0. 0. 0.
 0. 0. 0. 0.
 0. 0. 0. 0.
 0. 0. 0. 0.
 0. 0. 0. 0.
 0. 0. 0. 0.
 0. 0. 0. 0.
 0. 0. 0. 0.
 0. 0. 0. 0.
 0. 0. 0. 0.
 0. 0. 0. 0.
 0. 0. 0. 0.
 0. 0. 0. 0.
 0. 0. 0. 0.
 0. 0. 0. 0.
 0. 0. 0. 0.
 0. 0. 0. 0.
 0. 0. 0. 0.
 0. 0. 0. 0.
 0. 0. 0. 0.
 0. 0. 0. 0.
 0. 0. 0. 0.
 0. 0. 0. 0.
 0. 0. 0. 0.
 0. 0. 0. 0.
 0. 0. 0. 0.
 0. 0. 0. 0.
 0. 0. 0. 0.
 0. 0. 0. 0.
 0. 0. 0. 0.
 0. 0. 0. 0.
 0. 0. 0. 0.
 0. 0. 0. 0.
 0. 0. 0. 0.
 0. 0. 0. 0.
 0. 0. 0. 0.
 0. 0. 0. 0.
 0. 0. 0. 0.
 0. 0. 0. 0.
 0. 0. 0. 0.
 0. 0. 0. 0.
 0. 0. 0. 0.
 0. 0. 0. 0.
 0. 0. 0. 0.
 0. 0. 0. 0.
 0. 0. 0. 0.
 0. 0. 0. 0.
 0. 0. 0. 0.
 0. 0. 0. 0.
 0. 0. 0. 0.
 0. 0. 0. 0.
 0. 0. 0. 0.
 0. 0. 0. 0.
 0. 0. 0. 0.
 0. 0. 0. 0.
 0. 0. 0. 0.
 0. 0. 0. 0.
 0. 0. 0. 0.
 0. 0. 0. 0.
 0. 0. 0. 0.
 0. 0. 0. 0.
 0. 0. 0. 0.
 0. 0. 0. 0.
 0. 0. 0. 0.
 0. 0. 0. 0.
 0. 0. 0. 0.
 0. 0. 0. 0.
 0. 0. 0. 0.
 0. 0. 0. 0.
 0. 0. 0. 0.
 0. 0. 0. 0.
 0. 0. 0. 0.
 0. 0. 0. 0.
 0. 0. 0. 0.
 0. 0. 0. 0.
 0. 0. 0. 0.
 0. 0. 0. 0.
 0. 0. 0. 0.
 0. 0. 0. 0.
 0. 0. 0. 0.
 0. 0. 0. 0.
 0. 0. 0. 0.
 0. 0. 0. 0.
 0. 0. 0. 0.
 0. 0. 0. 0.
 0. 0. 0. 0.
 0. 0. 0. 0.
 0. 0. 0. 0.
 0. 0. 0. 0.
 0. 0. 0. 0.
 0. 0. 0. 0.
 0. 0. 0. 0.
 0. 0. 0. 0.
 0. 0. 0. 0.
 0. 0. 0. 0.
 0. 0. 0. 0.
 0. 0. 0. 0.
 0. 0. 0. 0.
 0. 0. 0. 0.
 0. 0. 0. 0.
 0. 0. 0. 0.
 0. 0. 0. 0.
 0. 0. 0. 0.
 0. 0. 0. 0.
 0. 0. 0. 0.
 0. 0. 0. 0.
 0. 0. 0. 0.
 0. 0. 0. 0.
 0. 0. 0. 0.
 0. 0. 0. 0.
 0. 0. 0. 0.
 0. 0. 0. 0.
 0. 0. 0. 0.
 0. 0. 0. 0.
 0. 0. 0. 0.
 0. 0. 0. 0.
 0. 0. 0. 0.
 0. 0. 0. 0.
 0. 0. 0. 0.
 0. 0. 0. 0.
 0. 0. 0. 0.
 0. 0. 0. 0.
 0. 0. 0. 0.
 0. 0. 0. 0.
 0. 0. 0. 0.
 0. 0. 0. 0.
 0. 0. 0. 0.
 0. 0. 0. 0.
 0. 0. 0. 0.
 0. 0. 0. 0.
 0. 0. 0. 0.
 0. 0. 0. 0.
 0. 0. 0. 0.
 0. 0. 0. 0.
 0. 0. 0. 0.
 0. 0. 0. 0.
 0. 0. 0. 0.
 0. 0. 0. 0.
 0. 0. 0. 0.
 0. 0. 0. 0.
 0. 0. 0. 0.
 0. 0. 0. 0.
 0. 0. 0. 0.
 0. 0. 0. 0.
 0. 0. 0. 0.
 0. 0. 0. 0.
 0. 0. 0. 0.
 0. 0. 0. 0.
 0. 0. 0. 0.
 0. 0. 0. 0.
 0. 0. 0. 0.
 0. 0. 0. 0.
 0. 0. 0. 0.
 0. 0. 0. 0.
 0. 0. 0. 0.
 0. 0. 0. 0.
 0. 0. 0. 0.
 0. 0. 0. 0.
 0. 0. 0. 0.
 0. 0. 0. 0.
 0. 0. 0. 0.
 0. 0. 0. 0.
 0. 0. 0. 0.
 0. 0. 0. 0.
 0. 0. 0. 0.
 0. 0. 0. 0.
 0. 0. 0. 0.
 0. 0. 0. 0.
 0. 0. 0. 0.
 0. 0. 0. 0.
 0. 0. 0. 0.
 0. 0. 0. 0.
 0. 0. 0. 0.
 0. 0. 0. 0.
 0. 0. 0. 0.
 0. 0. 0. 0.
 0. 0. 0. 0.
 0. 0. 0. 0.
 0. 0. 0. 0.
 0. 0. 0. 0.
 0. 0. 0. 0.
 0. 0. 0. 0.
 0. 0. 0. 0.
   </PP_BETA.1>
   <PP_BETA.2
       type="real"
       size="1300"
       columns="4"
       index="2"
       angular_momentum="0"
       cutoff_radius_index=" 264"
       cutoff_radius="    2.6300000000E+00" >
   -6.5450589393E-11   -3.6749846998E-02   -7.3428024951E-02   -1.0996281358E-01
   -1.4628239206E-01   -1.8231479345E-01   -2.1798786486E-01   -2.5322923499E-01
   -2.8796629092E-01   -3.2212616574E-01   -3.5563573858E-01   -3.8842164856E-01
   -4.2041032390E-01   -4.5152802745E-01   -4.8170091967E-01   -5.1085513986E-01
   -5.3891690657E-01   -5.6581263737E-01   -5.9146908875E-01   -6.1581351594E-01
   -6.3877385281E-01   -6.6027891155E-01   -6.8025860168E-01   -6.9864416770E-01
   -7.1536844463E-01   -7.3036613018E-01   -7.4357407255E-01   -7.5493157212E-01
   -7.6438069560E-01   -7.7186660075E-01   -7.7733786957E-01   -7.8074684792E-01
   -7.8204998927E-01   -7.8120819999E-01   -7.7818718371E-01   -7.7295778210E-01
   -7.6549630922E-01   -7.5578487658E-01   -7.4381170608E-01   -7.2957142791E-01
   -7.1306536025E-01   -6.9430176811E-01   -6.7329609815E-01   -6.5007118664E-01
   -6.2465743789E-01   -5.9709297011E-01   -5.6742372644E-01   -5.3570354841E-01
   -5.0199420952E-01   -4.6636540690E-01   -4.2889470898E-01   -3.8966745746E-01
   -3.4877662205E-01   -3.0632260676E-01   -2.6241300670E-01   -2.1716231479E-01
   -1.7069157792E-01   -1.2312800253E-01   -7.4604509932E-02   -2.5259241950E-02
    2.4764982087E-02    7.5321255636E-02    1.2625922077E-01    1.7742574739E-01
    2.2866565330E-01    2.7982246222E-01    3.3073919634E-01    3.8125919979E-01
    4.3122698878E-01    4.8048912395E-01    5.2889509999E-01    5.7629824724E-01
    6.2255663950E-01    6.6753400217E-01    7.1110061410E-01    7.5313419663E-01
    7.9352078254E-01    8.3215555765E-01    8.6894366739E-01    9.0380098029E-01
    9.3665480031E-01    9.6744451951E-01    9.9612220238E-01    1.0226530931E+00
    1.0470160366E+00    1.0692038047E+00    1.0892233171E+00    1.1070957493E+00
    1.1228565175E+00    1.1365551297E+00    1.1482548970E+00    1.1580324916E+00
    1.1659773457E+00    1.1721908802E+00    1.1767855546E+00    1.1798837295E+00
    1.1816163324E+00    1.1821213188E+00    1.1815419201E+00    1.1800246699E+00
    1.1777172018E+00    1.1747658104E+00    1.1713127686E+00    1.1674933954E+00
    1.1634328658E+00    1.1592427591E+00    1.1550173385E+00    1.1508295579E+00
    1.1467267896E+00    1.1427262716E+00    1.1388102749E+00    1.1349217169E+00
    1.1309661110E+00    1.1268213120E+00    1.1223482340E+00    1.1174018392E+00
    1.1118413209E+00    1.1055386523E+00    1.0983849788E+00    1.0902946648E+00
    1.0812070982E+00    1.0710865686E+00    1.0599206574E+00    1.0477176154E+00
    1.0345031728E+00    1.0203171548E+00    1.0052101860E+00    9.8924067332E-01
    9.7247217692E-01    9.5497121353E-01    9.3680548981E-01    9.1804253321E-01
    8.9874867129E-01    8.7898830368E-01    8.5882341109E-01    8.3831325075E-01
    8.1751419230E-01    7.9647966087E-01    7.7526015108E-01    7.5390329403E-01
    7.3245395774E-01    7.1095436537E-01    6.8944422436E-01    6.6796085800E-01
    6.4653933514E-01    6.2521259490E-01    6.0401156440E-01    5.8296526840E-01
    5.6210093055E-01    5.4144406600E-01    5.2101856566E-01    5.0084677264E-01
    4.8094955121E-01    4.6134634900E-01    4.4205525309E-01    4.2309304052E-01
    4.0447522395E-01    3.8621609309E-01    3.6832875231E-01    3.5082515531E-01
    3.3371613704E-01    3.1701144354E-01    3.0071976006E-01    2.8484873793E-01
    2.6940502042E-01    2.5439426803E-01    2.3982118339E-01    2.2568953607E-01
    2.1200218749E-01    1.9876111601E-01    1.8596744254E-01    1.7362145648E-01
    1.6172264239E-01    1.5026970716E-01    1.3926060790E-01    1.2869258044E-01
    1.1856216849E-01    1.0886525342E-01    9.9597084622E-02    9.0752310343E-02
    8.2325009038E-02    7.4308721070E-02    6.6696480716E-02    5.9480848398E-02
    5.2653943061E-02    4.6207474581E-02    4.0132776132E-02    3.4420836423E-02
    2.9062331713E-02    2.4047657507E-02    1.9366959861E-02    1.5010166217E-02
    1.0967015683E-02    7.2270886794E-03    3.7798358952E-03    6.1460649516E-04
   -2.2793244893E-03   -4.9127296536E-03   -7.2964036078E-03   -9.4411383192E-03
   -1.1357699454E-02   -1.3056803743E-02   -1.4549097375E-02   -1.5845135467E-02
   -1.6955362594E-02   -1.7890094425E-02   -1.8659500429E-02   -1.9273587668E-02
   -1.9742185669E-02   -2.0074932373E-02   -2.0281261132E-02   -2.0370388729E-02
   -2.0351304431E-02   -2.0232760019E-02   -2.0023260786E-02   -1.9731057451E-02
   -1.9364138982E-02   -1.8930226272E-02   -1.8436766656E-02   -1.7890929195E-02
   -1.7299600716E-02   -1.6669382555E-02   -1.6006587982E-02   -1.5317240230E-02
   -1.4607071115E-02   -1.3881520195E-02   -1.3145734437E-02   -1.2404568334E-02
   -1.1662584445E-02   -1.0924054302E-02   -1.0192959671E-02   -9.4729941098E-03
   -8.7675647915E-03   -8.0797945488E-03   -7.4125241378E-03   -6.7683145702E-03
   -6.1494497627E-03   -5.5579393081E-03   -4.9955208665E-03   -4.4636628291E-03
   -3.9635672586E-03   -3.4961732995E-03   -3.0621604724E-03   -2.6619525632E-03
   -2.2956724178E-03   -1.9633168276E-03   -1.6645173448E-03   -1.3983026422E-03
   -1.1594161046E-03   -9.4286060210E-04   -7.4965516893E-04   -5.8047754919E-04
   -4.3519575763E-04   -3.1343485977E-04   -2.1438895635E-04   -1.3684749376E-04
   -7.9186907108E-05   -3.9306556447E-05   -1.4749976779E-05   -2.9835364923E-06
    3.5238639408E-07    2.9601778608E-07   -1.3218630645E-07   -1.6674171071E-08
 0. 0. 0. 0.
 0. 0. 0. 0.
 0. 0. 0. 0.
 0. 0. 0. 0.
 0. 0. 0. 0.
 0. 0. 0. 0.
 0. 0. 0. 0.
 0. 0. 0. 0.
 0. 0. 0. 0.
 0. 0. 0. 0.
 0. 0. 0. 0.
 0. 0. 0. 0.
 0. 0. 0. 0.
 0. 0. 0. 0.
 0. 0. 0. 0.
 0. 0. 0. 0.
 0. 0. 0. 0.
 0. 0. 0. 0.
 0. 0. 0. 0.
 0. 0. 0. 0.
 0. 0. 0. 0.
 0. 0. 0. 0.
 0. 0. 0. 0.
 0. 0. 0. 0.
 0. 0. 0. 0.
 0. 0. 0. 0.
 0. 0. 0. 0.
 0. 0. 0. 0.
 0. 0. 0. 0.
 0. 0. 0. 0.
 0. 0. 0. 0.
 0. 0. 0. 0.
 0. 0. 0. 0.
 0. 0. 0. 0.
 0. 0. 0. 0.
 0. 0. 0. 0.
 0. 0. 0. 0.
 0. 0. 0. 0.
 0. 0. 0. 0.
 0. 0. 0. 0.
 0. 0. 0. 0.
 0. 0. 0. 0.
 0. 0. 0. 0.
 0. 0. 0. 0.
 0. 0. 0. 0.
 0. 0. 0. 0.
 0. 0. 0. 0.
 0. 0. 0. 0.
 0. 0. 0. 0.
 0. 0. 0. 0.
 0. 0. 0. 0.
 0. 0. 0. 0.
 0. 0. 0. 0.
 0. 0. 0. 0.
 0. 0. 0. 0.
 0. 0. 0. 0.
 0. 0. 0. 0.
 0. 0. 0. 0.
 0. 0. 0. 0.
 0. 0. 0. 0.
 0. 0. 0. 0.
 0. 0. 0. 0.
 0. 0. 0. 0.
 0. 0. 0. 0.
 0. 0. 0. 0.
 0. 0. 0. 0.
 0. 0. 0. 0.
 0. 0. 0. 0.
 0. 0. 0. 0.
 0. 0. 0. 0.
 0. 0. 0. 0.
 0. 0. 0. 0.
 0. 0. 0. 0.
 0. 0. 0. 0.
 0. 0. 0. 0.
 0. 0. 0. 0.
 0. 0. 0. 0.
 0. 0. 0. 0.
 0. 0. 0. 0.
 0. 0. 0. 0.
 0. 0. 0. 0.
 0. 0. 0. 0.
 0. 0. 0. 0.
 0. 0. 0. 0.
 0. 0. 0. 0.
 0. 0. 0. 0.
 0. 0. 0. 0.
 0. 0. 0. 0.
 0. 0. 0. 0.
 0. 0. 0. 0.
 0. 0. 0. 0.
 0. 0. 0. 0.
 0. 0. 0. 0.
 0. 0. 0. 0.
 0. 0. 0. 0.
 0. 0. 0. 0.
 0. 0. 0. 0.
 0. 0. 0. 0.
 0. 0. 0. 0.
 0. 0. 0. 0.
 0. 0. 0. 0.
 0. 0. 0. 0.
 0. 0. 0. 0.
 0. 0. 0. 0.
 0. 0. 0. 0.
 0. 0. 0. 0.
 0. 0. 0. 0.
 0. 0. 0. 0.
 0. 0. 0. 0.
 0. 0. 0. 0.
 0. 0. 0. 0.
 0. 0. 0. 0.
 0. 0. 0. 0.
 0. 0. 0. 0.
 0. 0. 0. 0.
 0. 0. 0. 0.
 0. 0. 0. 0.
 0. 0. 0. 0.
 0. 0. 0. 0.
 0. 0. 0. 0.
 0. 0. 0. 0.
 0. 0. 0. 0.
 0. 0. 0. 0.
 0. 0. 0. 0.
 0. 0. 0. 0.
 0. 0. 0. 0.
 0. 0. 0. 0.
 0. 0. 0. 0.
 0. 0. 0. 0.
 0. 0. 0. 0.
 0. 0. 0. 0.
 0. 0. 0. 0.
 0. 0. 0. 0.
 0. 0. 0. 0.
 0. 0. 0. 0.
 0. 0. 0. 0.
 0. 0. 0. 0.
 0. 0. 0. 0.
 0. 0. 0. 0.
 0. 0. 0. 0.
 0. 0. 0. 0.
 0. 0. 0. 0.
 0. 0. 0. 0.
 0. 0. 0. 0.
 0. 0. 0. 0.
 0. 0. 0. 0.
 0. 0. 0. 0.
 0. 0. 0. 0.
 0. 0. 0. 0.
 0. 0. 0. 0.
 0. 0. 0. 0.
 0. 0. 0. 0.
 0. 0. 0. 0.
 0. 0. 0. 0.
 0. 0. 0. 0.
 0. 0. 0. 0.
 0. 0. 0. 0.
 0. 0. 0. 0.
 0. 0. 0. 0.
 0. 0. 0. 0.
 0. 0. 0. 0.
 0. 0. 0. 0.
 0. 0. 0. 0.
 0. 0. 0. 0.
 0. 0. 0. 0.
 0. 0. 0. 0.
 0. 0. 0. 0.
 0. 0. 0. 0.
 0. 0. 0. 0.
 0. 0. 0. 0.
 0. 0. 0. 0.
 0. 0. 0. 0.
 0. 0. 0. 0.
 0. 0. 0. 0.
 0. 0. 0. 0.
 0. 0. 0. 0.
 0. 0. 0. 0.
 0. 0. 0. 0.
 0. 0. 0. 0.
 0. 0. 0. 0.
 0. 0. 0. 0.
 0. 0. 0. 0.
 0. 0. 0. 0.
 0. 0. 0. 0.
 0. 0. 0. 0.
 0. 0. 0. 0.
 0. 0. 0. 0.
 0. 0. 0. 0.
 0. 0. 0. 0.
 0. 0. 0. 0.
 0. 0. 0. 0.
 0. 0. 0. 0.
 0. 0. 0. 0.
 0. 0. 0. 0.
 0. 0. 0. 0.
 0. 0. 0. 0.
 0. 0. 0. 0.
 0. 0. 0. 0.
 0. 0. 0. 0.
 0. 0. 0. 0.
 0. 0. 0. 0.
 0. 0. 0. 0.
 0. 0. 0. 0.
 0. 0. 0. 0.
 0. 0. 0. 0.
 0. 0. 0. 0.
 0. 0. 0. 0.
 0. 0. 0. 0.
 0. 0. 0. 0.
 0. 0. 0. 0.
 0. 0. 0. 0.
 0. 0. 0. 0.
 0. 0. 0. 0.
 0. 0. 0. 0.
 0. 0. 0. 0.
 0. 0. 0. 0.
 0. 0. 0. 0.
 0. 0. 0. 0.
 0. 0. 0. 0.
 0. 0. 0. 0.
 0. 0. 0. 0.
 0. 0. 0. 0.
 0. 0. 0. 0.
 0. 0. 0. 0.
 0. 0. 0. 0.
 0. 0. 0. 0.
 0. 0. 0. 0.
 0. 0. 0. 0.
 0. 0. 0. 0.
 0. 0. 0. 0.
 0. 0. 0. 0.
 0. 0. 0. 0.
 0. 0. 0. 0.
 0. 0. 0. 0.
 0. 0. 0. 0.
 0. 0. 0. 0.
 0. 0. 0. 0.
 0. 0. 0. 0.
 0. 0. 0. 0.
 0. 0. 0. 0.
 0. 0. 0. 0.
 0. 0. 0. 0.
 0. 0. 0. 0.
 0. 0. 0. 0.
 0. 0. 0. 0.
 0. 0. 0. 0.
 0. 0. 0. 0.
 0. 0. 0. 0.
 0. 0. 0. 0.
 0. 0. 0. 0.
 0. 0. 0. 0.
 0. 0. 0. 0.
 0. 0. 0. 0.
 0. 0. 0. 0.
 0. 0. 0. 0.
 0. 0. 0. 0.
 0. 0. 0. 0.
 0. 0. 0. 0.
 0. 0. 0. 0.
   </PP_BETA.2>
   <PP_BETA.3
       type="real"
       size="1300"
       columns="4"
       index="3"
       angular_momentum="1"
       cutoff_radius_index=" 264"
       cutoff_radius="    2.6300000000E+00" >
   -2.2496719349E-09    2.4902183809E-04    1.0003226641E-03    2.2665289296E-03
    4.0684210536E-03    6.4345423783E-03    9.4006605489E-03    1.3009089996E-02
    1.7307886449E-02    2.2349926493E-02    2.8191887057E-02    3.4893141375E-02
    4.2514589360E-02    5.1117441443E-02    6.0761975730E-02    7.1506288874E-02
    8.3405061185E-02    9.6508356419E-02    1.1086047615E-01    1.2649888788E-01
    1.4345324495E-01    1.6174451476E-01    1.8138423045E-01    2.0237387876E-01
    2.2470443520E-01    2.4835605476E-01    2.7329792421E-01    2.9948827936E-01
    3.2687458780E-01    3.5539389487E-01    3.8497332825E-01    4.1553075322E-01
    4.4697556864E-01    4.7920963095E-01    5.1212829123E-01    5.4562152847E-01
    5.7957516026E-01    6.1387211071E-01    6.4839371430E-01    6.8302103342E-01
    7.1763616711E-01    7.5212352825E-01    7.8637106703E-01    8.2027141901E-01
    8.5372295744E-01    8.8663073082E-01    9.1890726866E-01    9.5047324042E-01
    9.8125795540E-01    1.0111996935E+00    1.0402458608E+00    1.0683529650E+00
    1.0954864123E+00    1.1216201269E+00    1.1467359998E+00    1.1708231773E+00
    1.1938772007E+00    1.2158990136E+00    1.2368938544E+00    1.2568700559E+00
    1.2758377746E+00    1.2938076737E+00    1.3107895879E+00    1.3267911946E+00
    1.3418167213E+00    1.3558657157E+00    1.3689319047E+00    1.3810021703E+00
    1.3920556640E+00    1.4020630853E+00    1.4109861404E+00    1.4187772021E+00
    1.4253791811E+00    1.4307256214E+00    1.4347410245E+00    1.4373414057E+00
    1.4384350801E+00    1.4379236715E+00    1.4357033361E+00    1.4316661827E+00
    1.4257018750E+00    1.4176993906E+00    1.4075489125E+00    1.3951438239E+00
    1.3803827758E+00    1.3631717929E+00    1.3434263825E+00    1.3210736132E+00
    1.2960541229E+00    1.2683240243E+00    1.2378566698E+00    1.2046442437E+00
    1.1686991502E+00    1.1300551692E+00    1.0887683530E+00    1.0449176456E+00
    9.9860520431E-01    9.4995641457E-01    8.9911958871E-01    8.4626534782E-01
    7.9158569004E-01    7.3529275430E-01    6.7761729415E-01    6.1880688139E-01
    5.5912386460E-01    4.9884311216E-01    4.3824957409E-01    3.7763570061E-01
    3.1729875906E-01    2.5753809330E-01    1.9865237246E-01    1.4093693094E-01
    8.4681611122E-02    3.0168953840E-02   -2.2327912559E-02   -7.2547664844E-02
   -1.2024342959E-01   -1.6518560016E-01   -2.0716471248E-01   -2.4599424971E-01
   -2.8151324721E-01   -3.1358858432E-01   -3.4211687357E-01   -3.6702588545E-01
   -3.8827547358E-01   -4.0585798840E-01   -4.1979818593E-01   -4.3015265156E-01
   -4.3700876811E-01   -4.4048326342E-01   -4.4072037625E-01   -4.3788968161E-01
   -4.3218361809E-01   -4.2381476075E-01   -4.1301288398E-01   -4.0002185961E-01
   -3.8509643602E-01   -3.6849894449E-01   -3.5049597901E-01   -3.3135509559E-01
   -3.1134157637E-01   -2.9071530233E-01   -2.6972777671E-01   -2.4861933899E-01
   -2.2761660587E-01   -2.0693017276E-01   -1.8675260469E-01   -1.6725674177E-01
   -1.4859433885E-01   -1.3089505451E-01   -1.1426579885E-01   -9.8790444089E-02
   -8.4529896579E-02   -7.1522523290E-02   -5.9784920340E-02   -4.9313006064E-02
   -4.0083416153E-02   -3.2055173841E-02   -2.5171604006E-02   -1.9362456386E-02
   -1.4546200074E-02   -1.0632448913E-02   -7.5244753546E-03   -5.1217714949E-03
   -3.3226052946E-03   -2.0272193747E-03   -1.1417390884E-03   -5.7539317168E-04
   -2.4490013945E-04   -7.6845251879E-05   -9.4978668378E-06    5.6409509897E-06
    2.5793190314E-06   -4.8676137677E-08   -4.0174396238E-08    2.2436684683E-08
   -4.6601313295E-09    1.6774955736E-10    0.0000000000E+00    0.0000000000E+00
    0.0000000000E+00    0.0000000000E+00    0.0000000000E+00    0.0000000000E+00
    0.0000000000E+00    0.0000000000E+00    0.0000000000E+00    0.0000000000E+00
    0.0000000000E+00    0.0000000000E+00    0.0000000000E+00    0.0000000000E+00
    0.0000000000E+00    0.0000000000E+00    0.0000000000E+00    0.0000000000E+00
    0.0000000000E+00    0.0000000000E+00    0.0000000000E+00    0.0000000000E+00
    0.0000000000E+00    0.0000000000E+00    0.0000000000E+00    0.0000000000E+00
    0.0000000000E+00    0.0000000000E+00    0.0000000000E+00    0.0000000000E+00
    0.0000000000E+00    0.0000000000E+00    0.0000000000E+00    0.0000000000E+00
    0.0000000000E+00    0.0000000000E+00    0.0000000000E+00    0.0000000000E+00
    0.0000000000E+00    0.0000000000E+00    0.0000000000E+00    0.0000000000E+00
    0.0000000000E+00    0.0000000000E+00    0.0000000000E+00    0.0000000000E+00
    0.0000000000E+00    0.0000000000E+00    0.0000000000E+00    0.0000000000E+00
    0.0000000000E+00    0.0000000000E+00    0.0000000000E+00    0.0000000000E+00
    0.0000000000E+00    0.0000000000E+00    0.0000000000E+00    0.0000000000E+00
    0.0000000000E+00    0.0000000000E+00    0.0000000000E+00    0.0000000000E+00
    0.0000000000E+00    0.0000000000E+00    0.0000000000E+00    0.0000000000E+00
    0.0000000000E+00    0.0000000000E+00    0.0000000000E+00    0.0000000000E+00
    0.0000000000E+00    0.0000000000E+00    0.0000000000E+00    0.0000000000E+00
    0.0000000000E+00    0.0000000000E+00    0.0000000000E+00    0.0000000000E+00
    0.0000000000E+00    0.0000000000E+00    0.0000000000E+00    0.0000000000E+00
    0.0000000000E+00    0.0000000000E+00    0.0000000000E+00    0.0000000000E+00
 0. 0. 0. 0.
 0. 0. 0. 0.
 0. 0. 0. 0.
 0. 0. 0. 0.
 0. 0. 0. 0.
 0. 0. 0. 0.
 0. 0. 0. 0.
 0. 0. 0. 0.
 0. 0. 0. 0.
 0. 0. 0. 0.
 0. 0. 0. 0.
 0. 0. 0. 0.
 0. 0. 0. 0.
 0. 0. 0. 0.
 0. 0. 0. 0.
 0. 0. 0. 0.
 0. 0. 0. 0.
 0. 0. 0. 0.
 0. 0. 0. 0.
 0. 0. 0. 0.
 0. 0. 0. 0.
 0. 0. 0. 0.
 0. 0. 0. 0.
 0. 0. 0. 0.
 0. 0. 0. 0.
 0. 0. 0. 0.
 0. 0. 0. 0.
 0. 0. 0. 0.
 0. 0. 0. 0.
 0. 0. 0. 0.
 0. 0. 0. 0.
 0. 0. 0. 0.
 0. 0. 0. 0.
 0. 0. 0. 0.
 0. 0. 0. 0.
 0. 0. 0. 0.
 0. 0. 0. 0.
 0. 0. 0. 0.
 0. 0. 0. 0.
 0. 0. 0. 0.
 0. 0. 0. 0.
 0. 0. 0. 0.
 0. 0. 0. 0.
 0. 0. 0. 0.
 0. 0. 0. 0.
 0. 0. 0. 0.
 0. 0. 0. 0.
 0. 0. 0. 0.
 0. 0. 0. 0.
 0. 0. 0. 0.
 0. 0. 0. 0.
 0. 0. 0. 0.
 0. 0. 0. 0.
 0. 0. 0. 0.
 0. 0. 0. 0.
 0. 0. 0. 0.
 0. 0. 0. 0.
 0. 0. 0. 0.
 0. 0. 0. 0.
 0. 0. 0. 0.
 0. 0. 0. 0.
 0. 0. 0. 0.
 0. 0. 0. 0.
 0. 0. 0. 0.
 0. 0. 0. 0.
 0. 0. 0. 0.
 0. 0. 0. 0.
 0. 0. 0. 0.
 0. 0. 0. 0.
 0. 0. 0. 0.
 0. 0. 0. 0.
 0. 0. 0. 0.
 0. 0. 0. 0.
 0. 0. 0. 0.
 0. 0. 0. 0.
 0. 0. 0. 0.
 0. 0. 0. 0.
 0. 0. 0. 0.
 0. 0. 0. 0.
 0. 0. 0. 0.
 0. 0. 0. 0.
 0. 0. 0. 0.
 0. 0. 0. 0.
 0. 0. 0. 0.
 0. 0. 0. 0.
 0. 0. 0. 0.
 0. 0. 0. 0.
 0. 0. 0. 0.
 0. 0. 0. 0.
 0. 0. 0. 0.
 0. 0. 0. 0.
 0. 0. 0. 0.
 0. 0. 0. 0.
 0. 0. 0. 0.
 0. 0. 0. 0.
 0. 0. 0. 0.
 0. 0. 0. 0.
 0. 0. 0. 0.
 0. 0. 0. 0.
 0. 0. 0. 0.
 0. 0. 0. 0.
 0. 0. 0. 0.
 0. 0. 0. 0.
 0. 0. 0. 0.
 0. 0. 0. 0.
 0. 0. 0. 0.
 0. 0. 0. 0.
 0. 0. 0. 0.
 0. 0. 0. 0.
 0. 0. 0. 0.
 0. 0. 0. 0.
 0. 0. 0. 0.
 0. 0. 0. 0.
 0. 0. 0. 0.
 0. 0. 0. 0.
 0. 0. 0. 0.
 0. 0. 0. 0.
 0. 0. 0. 0.
 0. 0. 0. 0.
 0. 0. 0. 0.
 0. 0. 0. 0.
 0. 0. 0. 0.
 0. 0. 0. 0.
 0. 0. 0. 0.
 0. 0. 0. 0.
 0. 0. 0. 0.
 0. 0. 0. 0.
 0. 0. 0. 0.
 0. 0. 0. 0.
 0. 0. 0. 0.
 0. 0. 0. 0.
 0. 0. 0. 0.
 0. 0. 0. 0.
 0. 0. 0. 0.
 0. 0. 0. 0.
 0. 0. 0. 0.
 0. 0. 0. 0.
 0. 0. 0. 0.
 0. 0. 0. 0.
 0. 0. 0. 0.
 0. 0. 0. 0.
 0. 0. 0. 0.
 0. 0. 0. 0.
 0. 0. 0. 0.
 0. 0. 0. 0.
 0. 0. 0. 0.
 0. 0. 0. 0.
 0. 0. 0. 0.
 0. 0. 0. 0.
 0. 0. 0. 0.
 0. 0. 0. 0.
 0. 0. 0. 0.
 0. 0. 0. 0.
 0. 0. 0. 0.
 0. 0. 0. 0.
 0. 0. 0. 0.
 0. 0. 0. 0.
 0. 0. 0. 0.
 0. 0. 0. 0.
 0. 0. 0. 0.
 0. 0. 0. 0.
 0. 0. 0. 0.
 0. 0. 0. 0.
 0. 0. 0. 0.
 0. 0. 0. 0.
 0. 0. 0. 0.
 0. 0. 0. 0.
 0. 0. 0. 0.
 0. 0. 0. 0.
 0. 0. 0. 0.
 0. 0. 0. 0.
 0. 0. 0. 0.
 0. 0. 0. 0.
 0. 0. 0. 0.
 0. 0. 0. 0.
 0. 0. 0. 0.
 0. 0. 0. 0.
 0. 0. 0. 0.
 0. 0. 0. 0.
 0. 0. 0. 0.
 0. 0. 0. 0.
 0. 0. 0. 0.
 0. 0. 0. 0.
 0. 0. 0. 0.
 0. 0. 0. 0.
 0. 0. 0. 0.
 0. 0. 0. 0.
 0. 0. 0. 0.
 0. 0. 0. 0.
 0. 0. 0. 0.
 0. 0. 0. 0.
 0. 0. 0. 0.
 0. 0. 0. 0.
 0. 0. 0. 0.
 0. 0. 0. 0.
 0. 0. 0. 0.
 0. 0. 0. 0.
 0. 0. 0. 0.
 0. 0. 0. 0.
 0. 0. 0. 0.
 0. 0. 0. 0.
 0. 0. 0. 0.
 0. 0. 0. 0.
 0. 0. 0. 0.
 0. 0. 0. 0.
 0. 0. 0. 0.
 0. 0. 0. 0.
 0. 0. 0. 0.
 0. 0. 0. 0.
 0. 0. 0. 0.
 0. 0. 0. 0.
 0. 0. 0. 0.
 0. 0. 0. 0.
 0. 0. 0. 0.
 0. 0. 0. 0.
 0. 0. 0. 0.
 0. 0. 0. 0.
 0. 0. 0. 0.
 0. 0. 0. 0.
 0. 0. 0. 0.
 0. 0. 0. 0.
 0. 0. 0. 0.
 0. 0. 0. 0.
 0. 0. 0. 0.
 0. 0. 0. 0.
 0. 0. 0. 0.
 0. 0. 0. 0.
 0. 0. 0. 0.
 0. 0. 0. 0.
 0. 0. 0. 0.
 0. 0. 0. 0.
 0. 0. 0. 0.
 0. 0. 0. 0.
 0. 0. 0. 0.
 0. 0. 0. 0.
 0. 0. 0. 0.
 0. 0. 0. 0.
 0. 0. 0. 0.
 0. 0. 0. 0.
 0. 0. 0. 0.
 0. 0. 0. 0.
 0. 0. 0. 0.
 0. 0. 0. 0.
 0. 0. 0. 0.
 0. 0. 0. 0.
 0. 0. 0. 0.
 0. 0. 0. 0.
 0. 0. 0. 0.
 0. 0. 0. 0.
 0. 0. 0. 0.
 0. 0. 0. 0.
 0. 0. 0. 0.
 0. 0. 0. 0.
 0. 0. 0. 0.
 0. 0. 0. 0.
 0. 0. 0. 0.
 0. 0. 0. 0.
 0. 0. 0. 0.
 0. 0. 0. 0.
   </PP_BETA.3>
   <PP_BETA.4
       type="real"
       size="1300"
       columns="4"
       index="4"
       angular_momentum="1"
       cutoff_radius_index=" 264"
       cutoff_radius="    2.6300000000E+00" >
    5.9682402215E-09    1.4401716591E-03    5.7450343463E-03    1.2867849968E-02
    2.2731447562E-02    3.5229300280E-02    5.0227009706E-02    6.7564174517E-02
    8.7056614482E-02    1.0849891531E-01    1.3166725481E-01    1.5632246657E-01
    1.8221329336E-01    2.0907977998E-01    2.3665675250E-01    2.6467733000E-01
    2.9287641408E-01    3.2099410197E-01    3.4877897004E-01    3.7599117702E-01
    4.0240533855E-01    4.2781312892E-01    4.5202557003E-01    4.7487497255E-01
    4.9621650041E-01    5.1592933535E-01    5.3391742560E-01    5.5010980897E-01
    5.6446050838E-01    5.7694800483E-01    5.8757430005E-01    5.9636358824E-01
    6.0336056307E-01    6.0862839272E-01    6.1224640138E-01    6.1430750145E-01
    6.1491542499E-01    6.1418180704E-01    6.1222317651E-01    6.0915791235E-01
    6.0510322390E-01    6.0017221451E-01    5.9447108644E-01    5.8809654347E-01
    5.8113344424E-01    5.7365275573E-01    5.6570985132E-01    5.5734319213E-01
    5.4857342374E-01    5.3940291316E-01    5.2981574340E-01    5.1977817417E-01
    5.0923956929E-01    4.9813378216E-01    4.8638098223E-01    4.7388989638E-01
    4.6056043122E-01    4.4628663401E-01    4.3095994277E-01    4.1447266949E-01
    3.9672165460E-01    3.7761202611E-01    3.5706099316E-01    3.3500160113E-01
    3.1138637425E-01    2.8619077179E-01    2.5941638493E-01    2.3109380445E-01
    2.0128509302E-01    1.7008580135E-01    1.3762647366E-01    1.0407359556E-01
    6.9629945909E-02    3.4534323671E-02   -9.3936936832E-04   -3.6483698246E-02
   -7.1759914252E-02   -1.0640081032E-01   -1.4001418740E-01   -1.7218689594E-01
   -2.0248940593E-01   -2.3048084931E-01   -2.5571446912E-01   -2.7774340179E-01
   -2.9612671202E-01   -3.1043559384E-01   -3.2025964725E-01   -3.2521313701E-01
   -3.2494113897E-01   -3.1912547987E-01   -3.0749037856E-01   -2.8980770051E-01
   -2.6590174277E-01   -2.3565347379E-01   -1.9900416056E-01   -1.5595832583E-01
   -1.0658598878E-01   -5.1024154725E-02    1.0522467719E-02    7.7781530099E-02
    1.5041388244E-01    2.2801516657E-01    3.1011813060E-01    3.9619561712E-01
    4.8566416442E-01    5.7788814795E-01    6.7218437763E-01    7.6782705682E-01
    8.6405299969E-01    9.6006699727E-01    1.0550472219E+00    1.1481511349E+00
    1.2385264420E+00    1.3253278767E+00    1.4077340664E+00    1.4849638559E+00
    1.5562912020E+00    1.6210579881E+00    1.6786843666E+00    1.7286765020E+00
    1.7706318047E+00    1.8042419015E+00    1.8292936647E+00    1.8456686413E+00
    1.8533411965E+00    1.8523756276E+00    1.8429224482E+00    1.8252139765E+00
    1.7995593212E+00    1.7663388195E+00    1.7259979682E+00    1.6790408767E+00
    1.6260232786E+00    1.5675451418E+00    1.5042429310E+00    1.4367815899E+00
    1.3658463184E+00    1.2921342375E+00    1.2163460343E+00    1.1391776933E+00
    1.0613124192E+00    9.8341285624E-01    9.0611371075E-01    8.3001487573E-01
    7.5567515210E-01    6.8360665193E-01    6.1426995972E-01    5.4807011581E-01
    4.8535347431E-01    4.2640547392E-01    3.7144934642E-01    3.2064577289E-01
    2.7409348341E-01    2.3183078109E-01    1.9383795728E-01    1.6004055113E-01
    1.3031339345E-01    1.0448536304E-01    8.2344772812E-02    6.3645293103E-02
    4.8112311953E-02    3.5449625190E-02    2.5346343643E-02    1.7483910059E-02
    1.1543080325E-02    7.2131993652E-03    4.2034156224E-03    2.2311892063E-03
    1.0371041649E-03    3.9158072722E-04    9.9755743135E-05    5.6353664247E-06
   -4.5276661920E-06    9.5032522965E-08    1.2565768509E-07   -6.0258326317E-08
    9.3062963331E-09   -4.2381995548E-10    0.0000000000E+00    0.0000000000E+00
    0.0000000000E+00    0.0000000000E+00    0.0000000000E+00    0.0000000000E+00
    0.0000000000E+00    0.0000000000E+00    0.0000000000E+00    0.0000000000E+00
    0.0000000000E+00    0.0000000000E+00    0.0000000000E+00    0.0000000000E+00
    0.0000000000E+00    0.0000000000E+00    0.0000000000E+00    0.0000000000E+00
    0.0000000000E+00    0.0000000000E+00    0.0000000000E+00    0.0000000000E+00
    0.0000000000E+00    0.0000000000E+00    0.0000000000E+00    0.0000000000E+00
    0.0000000000E+00    0.0000000000E+00    0.0000000000E+00    0.0000000000E+00
    0.0000000000E+00    0.0000000000E+00    0.0000000000E+00    0.0000000000E+00
    0.0000000000E+00    0.0000000000E+00    0.0000000000E+00    0.0000000000E+00
    0.0000000000E+00    0.0000000000E+00    0.0000000000E+00    0.0000000000E+00
    0.0000000000E+00    0.0000000000E+00    0.0000000000E+00    0.0000000000E+00
    0.0000000000E+00    0.0000000000E+00    0.0000000000E+00    0.0000000000E+00
    0.0000000000E+00    0.0000000000E+00    0.0000000000E+00    0.0000000000E+00
    0.0000000000E+00    0.0000000000E+00    0.0000000000E+00    0.0000000000E+00
    0.0000000000E+00    0.0000000000E+00    0.0000000000E+00    0.0000000000E+00
    0.0000000000E+00    0.0000000000E+00    0.0000000000E+00    0.0000000000E+00
    0.0000000000E+00    0.0000000000E+00    0.0000000000E+00    0.0000000000E+00
    0.0000000000E+00    0.0000000000E+00    0.0000000000E+00    0.0000000000E+00
    0.0000000000E+00    0.0000000000E+00    0.0000000000E+00    0.0000000000E+00
    0.0000000000E+00    0.0000000000E+00    0.0000000000E+00    0.0000000000E+00
    0.0000000000E+00    0.0000000000E+00    0.0000000000E+00    0.0000000000E+00
 0. 0. 0. 0.
 0. 0. 0. 0.
 0. 0. 0. 0.
 0. 0. 0. 0.
 0. 0. 0. 0.
 0. 0. 0. 0.
 0. 0. 0. 0.
 0. 0. 0. 0.
 0. 0. 0. 0.
 0. 0. 0. 0.
 0. 0. 0. 0.
 0. 0. 0. 0.
 0. 0. 0. 0.
 0. 0. 0. 0.
 0. 0. 0. 0.
 0. 0. 0. 0.
 0. 0. 0. 0.
 0. 0. 0. 0.
 0. 0. 0. 0.
 0. 0. 0. 0.
 0. 0. 0. 0.
 0. 0. 0. 0.
 0. 0. 0. 0.
 0. 0. 0. 0.
 0. 0. 0. 0.
 0. 0. 0. 0.
 0. 0. 0. 0.
 0. 0. 0. 0.
 0. 0. 0. 0.
 0. 0. 0. 0.
 0. 0. 0. 0.
 0. 0. 0. 0.
 0. 0. 0. 0.
 0. 0. 0. 0.
 0. 0. 0. 0.
 0. 0. 0. 0.
 0. 0. 0. 0.
 0. 0. 0. 0.
 0. 0. 0. 0.
 0. 0. 0. 0.
 0. 0. 0. 0.
 0. 0. 0. 0.
 0. 0. 0. 0.
 0. 0. 0. 0.
 0. 0. 0. 0.
 0. 0. 0. 0.
 0. 0. 0. 0.
 0. 0. 0. 0.
 0. 0. 0. 0.
 0. 0. 0. 0.
 0. 0. 0. 0.
 0. 0. 0. 0.
 0. 0. 0. 0.
 0. 0. 0. 0.
 0. 0. 0. 0.
 0. 0. 0. 0.
 0. 0. 0. 0.
 0. 0. 0. 0.
 0. 0. 0. 0.
 0. 0. 0. 0.
 0. 0. 0. 0.
 0. 0. 0. 0.
 0. 0. 0. 0.
 0. 0. 0. 0.
 0. 0. 0. 0.
 0. 0. 0. 0.
 0. 0. 0. 0.
 0. 0. 0. 0.
 0. 0. 0. 0.
 0. 0. 0. 0.
 0. 0. 0. 0.
 0. 0. 0. 0.
 0. 0. 0. 0.
 0. 0. 0. 0.
 0. 0. 0. 0.
 0. 0. 0. 0.
 0. 0. 0. 0.
 0. 0. 0. 0.
 0. 0. 0. 0.
 0. 0. 0. 0.
 0. 0. 0. 0.
 0. 0. 0. 0.
 0. 0. 0. 0.
 0. 0. 0. 0.
 0. 0. 0. 0.
 0. 0. 0. 0.
 0. 0. 0. 0.
 0. 0. 0. 0.
 0. 0. 0. 0.
 0. 0. 0. 0.
 0. 0. 0. 0.
 0. 0. 0. 0.
 0. 0. 0. 0.
 0. 0. 0. 0.
 0. 0. 0. 0.
 0. 0. 0. 0.
 0. 0. 0. 0.
 0. 0. 0. 0.
 0. 0. 0. 0.
 0. 0. 0. 0.
 0. 0. 0. 0.
 0. 0. 0. 0.
 0. 0. 0. 0.
 0. 0. 0. 0.
 0. 0. 0. 0.
 0. 0. 0. 0.
 0. 0. 0. 0.
 0. 0. 0. 0.
 0. 0. 0. 0.
 0. 0. 0. 0.
 0. 0. 0. 0.
 0. 0. 0. 0.
 0. 0. 0. 0.
 0. 0. 0. 0.
 0. 0. 0. 0.
 0. 0. 0. 0.
 0. 0. 0. 0.
 0. 0. 0. 0.
 0. 0. 0. 0.
 0. 0. 0. 0.
 0. 0. 0. 0.
 0. 0. 0. 0.
 0. 0. 0. 0.
 0. 0. 0. 0.
 0. 0. 0. 0.
 0. 0. 0. 0.
 0. 0. 0. 0.
 0. 0. 0. 0.
 0. 0. 0. 0.
 0. 0. 0. 0.
 0. 0. 0. 0.
 0. 0. 0. 0.
 0. 0. 0. 0.
 0. 0. 0. 0.
 0. 0. 0. 0.
 0. 0. 0. 0.
 0. 0. 0. 0.
 0. 0. 0. 0.
 0. 0. 0. 0.
 0. 0. 0. 0.
 0. 0. 0. 0.
 0. 0. 0. 0.
 0. 0. 0. 0.
 0. 0. 0. 0.
 0. 0. 0. 0.
 0. 0. 0. 0.
 0. 0. 0. 0.
 0. 0. 0. 0.
 0. 0. 0. 0.
 0. 0. 0. 0.
 0. 0. 0. 0.
 0. 0. 0. 0.
 0. 0. 0. 0.
 0. 0. 0. 0.
 0. 0. 0. 0.
 0. 0. 0. 0.
 0. 0. 0. 0.
 0. 0. 0. 0.
 0. 0. 0. 0.
 0. 0. 0. 0.
 0. 0. 0. 0.
 0. 0. 0. 0.
 0. 0. 0. 0.
 0. 0. 0. 0.
 0. 0. 0. 0.
 0. 0. 0. 0.
 0. 0. 0. 0.
 0. 0. 0. 0.
 0. 0. 0. 0.
 0. 0. 0. 0.
 0. 0. 0. 0.
 0. 0. 0. 0.
 0. 0. 0. 0.
 0. 0. 0. 0.
 0. 0. 0. 0.
 0. 0. 0. 0.
 0. 0. 0. 0.
 0. 0. 0. 0.
 0. 0. 0. 0.
 0. 0. 0. 0.
 0. 0. 0. 0.
 0. 0. 0. 0.
 0. 0. 0. 0.
 0. 0. 0. 0.
 0. 0. 0. 0.
 0. 0. 0. 0.
 0. 0. 0. 0.
 0. 0. 0. 0.
 0. 0. 0. 0.
 0. 0. 0. 0.
 0. 0. 0. 0.
 0. 0. 0. 0.
 0. 0. 0. 0.
 0. 0. 0. 0.
 0. 0. 0. 0.
 0. 0. 0. 0.
 0. 0. 0. 0.
 0. 0. 0. 0.
 0. 0. 0. 0.
 0. 0. 0. 0.
 0. 0. 0. 0.
 0. 0. 0. 0.
 0. 0. 0. 0.
 0. 0. 0. 0.
 0. 0. 0. 0.
 0. 0. 0. 0.
 0. 0. 0. 0.
 0. 0. 0. 0.
 0. 0. 0. 0.
 0. 0. 0. 0.
 0. 0. 0. 0.
 0. 0. 0. 0.
 0. 0. 0. 0.
 0. 0. 0. 0.
 0. 0. 0. 0.
 0. 0. 0. 0.
 0. 0. 0. 0.
 0. 0. 0. 0.
 0. 0. 0. 0.
 0. 0. 0. 0.
 0. 0. 0. 0.
 0. 0. 0. 0.
 0. 0. 0. 0.
 0. 0. 0. 0.
 0. 0. 0. 0.
 0. 0. 0. 0.
 0. 0. 0. 0.
 0. 0. 0. 0.
 0. 0. 0. 0.
 0. 0. 0. 0.
 0. 0. 0. 0.
 0. 0. 0. 0.
 0. 0. 0. 0.
 0. 0. 0. 0.
 0. 0. 0. 0.
 0. 0. 0. 0.
 0. 0. 0. 0.
 0. 0. 0. 0.
 0. 0. 0. 0.
 0. 0. 0. 0.
 0. 0. 0. 0.
 0. 0. 0. 0.
 0. 0. 0. 0.
 0. 0. 0. 0.
 0. 0. 0. 0.
 0. 0. 0. 0.
 0. 0. 0. 0.
 0. 0. 0. 0.
 0. 0. 0. 0.
 0. 0. 0. 0.
 0. 0. 0. 0.
 0. 0. 0. 0.
 0. 0. 0. 0.
 0. 0. 0. 0.
 0. 0. 0. 0.
 0. 0. 0. 0.
 0. 0. 0. 0.
 0. 0. 0. 0.
 0. 0. 0. 0.
   </PP_BETA.4>
   <PP_DIJ type="real"  size="  16" columns="4">
    1.6538041481E+01    0.0000000000E+00    0.0000000000E+00    0.0000000000E+00
    0.0000000000E+00    1.0611255651E+00    0.0000000000E+00    0.0000000000E+00
    0.0000000000E+00    0.0000000000E+00    1.0465740996E+01    0.0000000000E+00
    0.0000000000E+00    0.0000000000E+00    0.0000000000E+00    1.5901986742E+00
   </PP_DIJ>
 </PP_NONLOCAL>
 <PP_PSWFC>
   <PP_CHI.1
       type="real"
       size="1300"
       columns="4"
       index="1"
       occupation=" 2.000"
       pseudo_energy="   -0.1022896050E+01"
       label="3S"
       l="0" >
    1.1717016246E-13    6.4934599050E-04    1.3050924971E-03    1.9736297344E-03
    2.6613273324E-03    3.3745240908E-03    4.1195177884E-03    4.9025550673E-03
    5.7298214078E-03    6.6074312147E-03    7.5414180308E-03    8.5377248959E-03
    9.6021948686E-03    1.0740561728E-02    1.1958440871E-02    1.3261320420E-02
    1.4654552565E-02    1.6143345141E-02    1.7732753468E-02    1.9427672461E-02
    2.1232829031E-02    2.3152774778E-02    2.5191878998E-02    2.7354322018E-02
    2.9644088861E-02    3.2064963255E-02    3.4620522002E-02    3.7314129708E-02
    4.0148933886E-02    4.3127860439E-02    4.6253609531E-02    4.9528651850E-02
    5.2955225272E-02    5.6535331922E-02    6.0270735650E-02    6.4162959905E-02
    6.8213286036E-02    7.2422751986E-02    7.6792151419E-02    8.1322033240E-02
    8.6012701545E-02    9.0864215963E-02    9.5876392413E-02    1.0104880426E-01
    1.0638078389E-01    1.1187142461E-01    1.1751958305E-01    1.2332388179E-01
    1.2928271256E-01    1.3539423956E-01    1.4165640336E-01    1.4806692504E-01
    1.5462331060E-01    1.6132285588E-01    1.6816265158E-01    1.7513958875E-01
    1.8225036449E-01    1.8949148791E-01    1.9685928641E-01    2.0434991217E-01
    2.1195934886E-01    2.1968341865E-01    2.2751778930E-01    2.3545798156E-01
    2.4349937665E-01    2.5163722399E-01    2.5986664897E-01    2.6818266096E-01
    2.7658016131E-01    2.8505395156E-01    2.9359874165E-01    3.0220915823E-01
    3.1087975302E-01    3.1960501114E-01    3.2837935958E-01    3.3719717553E-01
    3.4605279480E-01    3.5494052014E-01    3.6385462956E-01    3.7278938457E-01
    3.8173903834E-01    3.9069784380E-01    3.9966006158E-01    4.0861996789E-01
    4.1757186228E-01    4.2651007518E-01    4.3542897536E-01    4.4432297721E-01
    4.5318654783E-01    4.6201421395E-01    4.7080056863E-01    4.7954027777E-01
    4.8822808644E-01    4.9685882489E-01    5.0542741447E-01    5.1392887318E-01
    5.2235832104E-01    5.3071098522E-01    5.3898220491E-01    5.4716743586E-01
    5.5526225478E-01    5.6326236337E-01    5.7116359214E-01    5.7896190389E-01
    5.8665339704E-01    5.9423430851E-01    6.0170101651E-01    6.0905004289E-01
    6.1627805536E-01    6.2338186929E-01    6.3035844938E-01    6.3720491096E-01
    6.4391852108E-01    6.5049669926E-01    6.5693701812E-01    6.6323720361E-01
    6.6939513504E-01    6.7540884494E-01    6.8127651858E-01    6.8699649330E-01
    6.9256725762E-01    6.9798745013E-01    7.0325585817E-01    7.0837141627E-01
    7.1333320449E-01    7.1814044640E-01    7.2279250711E-01    7.2728889088E-01
    7.3162923875E-01    7.3581332594E-01    7.3984105908E-01    7.4371247335E-01
    7.4742772948E-01    7.5098711057E-01    7.5439101889E-01    7.5763997247E-01
    7.6073460173E-01    7.6367564587E-01    7.6646394933E-01    7.6910045802E-01
    7.7158621568E-01    7.7392236003E-01    7.7611011895E-01    7.7815080663E-01
    7.8004581965E-01    7.8179663311E-01    7.8340479668E-01    7.8487193071E-01
    7.8619972227E-01    7.8738992133E-01    7.8844433681E-01    7.8936483274E-01
    7.9015332449E-01    7.9081177494E-01    7.9134219078E-01    7.9174661882E-01
    7.9202714235E-01    7.9218587765E-01    7.9222497041E-01    7.9214659237E-01
    7.9195293797E-01    7.9164622107E-01    7.9122867181E-01    7.9070253348E-01
    7.9007005954E-01    7.8933351073E-01    7.8849515222E-01    7.8755725096E-01
    7.8652207301E-01    7.8539188108E-01    7.8416893207E-01    7.8285547483E-01
    7.8145374792E-01    7.7996597752E-01    7.7839437546E-01    7.7674113733E-01
    7.7500844069E-01    7.7319844341E-01    7.7131328212E-01    7.6935507070E-01
    7.6732589893E-01    7.6522783125E-01    7.6306290558E-01    7.6083313221E-01
    7.5854049288E-01    7.5618693989E-01    7.5377439527E-01    7.5130475010E-01
    7.4877986391E-01    7.4620156411E-01    7.4357164555E-01    7.4089187017E-01
    7.3816396664E-01    7.3538963019E-01    7.3257052239E-01    7.2970827113E-01
    7.2680447050E-01    7.2386068090E-01    7.2087842906E-01    7.1785920821E-01
    7.1480447827E-01    7.1171566608E-01    7.0859416568E-01    7.0544133861E-01
    7.0225851432E-01    6.9904699053E-01    6.9580803365E-01    6.9254287926E-01
    6.8925273259E-01    6.8593876903E-01    6.8260213465E-01    6.7924394674E-01
    6.7586529441E-01    6.7246723913E-01    6.6905081534E-01    6.6561703104E-01
    6.6216686841E-01    6.5870128442E-01    6.5522121141E-01    6.5172755777E-01
    6.4822120847E-01    6.4470302576E-01    6.4117384972E-01    6.3763449888E-01
    6.3408577081E-01    6.3052844274E-01    6.2696327208E-01    6.2339099705E-01
    6.1981233719E-01    6.1622799392E-01    6.1263865110E-01    6.0904497549E-01
    6.0544761729E-01    6.0184721064E-01    5.9824437405E-01    5.9463971089E-01
    5.9103380980E-01    5.8742724515E-01    5.8382057739E-01    5.8021435349E-01
    5.7660910727E-01    5.7300535977E-01    5.6940361958E-01    5.6580438315E-01
    5.6220813508E-01    5.5861534843E-01    5.5502648493E-01    5.5144199527E-01
    5.4786231929E-01    5.4428788621E-01    5.4071911476E-01    5.3715641343E-01
    5.3360018054E-01    5.3005080448E-01    5.2650866377E-01    5.2297412719E-01
    5.1944755386E-01    5.1592929335E-01    5.1241968569E-01    5.0891906143E-01
    5.0542774165E-01    5.0194603803E-01    4.9847425282E-01    4.9501267898E-01
    4.9156160040E-01    4.8812129207E-01    4.8469202031E-01    4.8127404288E-01
    4.7786760919E-01    4.7447296049E-01    4.7109033001E-01    4.6771994314E-01
    4.6436201760E-01    4.6101676360E-01    4.5768438398E-01    4.5436507440E-01
    4.5105902347E-01    4.4776641291E-01    4.4448741770E-01    4.4122220622E-01
    4.3797094038E-01    4.3473377581E-01    4.3151086193E-01    4.2830234214E-01
    4.2510835392E-01    4.2192902899E-01    4.1876449340E-01    4.1561486769E-01
    4.1248026700E-01    4.0936080119E-01    4.0625657497E-01    4.0316768798E-01
    4.0009423495E-01    3.9703630580E-01    3.9399398574E-01    3.9096735537E-01
    3.8795649080E-01    3.8496146377E-01    3.8198234171E-01    3.7901918787E-01
    3.7607206142E-01    3.7314101752E-01    3.7022610745E-01    3.6732737867E-01
    3.6444487491E-01    3.6157863631E-01    3.5872869944E-01    3.5589509741E-01
    3.5307785998E-01    3.5027701359E-01    3.4749258150E-01    3.4472458381E-01
    3.4197303757E-01    3.3923795687E-01    3.3651935287E-01    3.3381723390E-01
    3.3113160553E-01    3.2846247063E-01    3.2580982946E-01    3.2317367970E-01
    3.2055401653E-01    3.1795083273E-01    3.1536411869E-01    3.1279386248E-01
    3.1024004996E-01    3.0770266476E-01    3.0518168840E-01    3.0267710034E-01
    3.0018887798E-01    2.9771699680E-01    2.9526143033E-01    2.9282215026E-01
    2.9039912646E-01    2.8799232705E-01    2.8560171843E-01    2.8322726534E-01
    2.8086893089E-01    2.7852667663E-01    2.7620046260E-01    2.7389024731E-01
    2.7159598788E-01    2.6931763999E-01    2.6705515800E-01    2.6480849493E-01
    2.6257760251E-01    2.6036243128E-01    2.5816293052E-01    2.5597904839E-01
    2.5381073189E-01    2.5165792697E-01    2.4952057847E-01    2.4739863025E-01
    2.4529202515E-01    2.4320070508E-01    2.4112461101E-01    2.3906368301E-01
    2.3701786031E-01    2.3498708127E-01    2.3297128348E-01    2.3097040375E-01
    2.2898437813E-01    2.2701314196E-01    2.2505662989E-01    2.2311477589E-01
    2.2118751333E-01    2.1927477492E-01    2.1737649280E-01    2.1549259856E-01
    2.1362302324E-01    2.1176769735E-01    2.0992655092E-01    2.0809951351E-01
    2.0628651423E-01    2.0448748175E-01    2.0270234435E-01    2.0093102992E-01
    1.9917346597E-01    1.9742957970E-01    1.9569929794E-01    1.9398254724E-01
    1.9227925385E-01    1.9058934376E-01    1.8891274271E-01    1.8724937618E-01
    1.8559916946E-01    1.8396204763E-01    1.8233793558E-01    1.8072675803E-01
    1.7912843956E-01    1.7754290460E-01    1.7597007746E-01    1.7440988234E-01
    1.7286224336E-01    1.7132708455E-01    1.6980432987E-01    1.6829390324E-01
    1.6679572852E-01    1.6530972957E-01    1.6383583021E-01    1.6237395429E-01
    1.6092402564E-01    1.5948596813E-01    1.5805970565E-01    1.5664516216E-01
    1.5524226165E-01    1.5385092819E-01    1.5247108591E-01    1.5110265906E-01
    1.4974557195E-01    1.4839974902E-01    1.4706511483E-01    1.4574159403E-01
    1.4442911146E-01    1.4312759204E-01    1.4183696090E-01    1.4055714329E-01
    1.3928806464E-01    1.3802965057E-01    1.3678182685E-01    1.3554451947E-01
    1.3431765462E-01    1.3310115866E-01    1.3189495821E-01    1.3069898007E-01
    1.2951315128E-01    1.2833739911E-01    1.2717165107E-01    1.2601583491E-01
    1.2486987863E-01    1.2373371048E-01    1.2260725898E-01    1.2149045291E-01
    1.2038322130E-01    1.1928549350E-01    1.1819719909E-01    1.1711826798E-01
    1.1604863032E-01    1.1498821660E-01    1.1393695758E-01    1.1289478432E-01
    1.1186162820E-01    1.1083742089E-01    1.0982209438E-01    1.0881558098E-01
    1.0781781332E-01    1.0682872434E-01    1.0584824731E-01    1.0487631582E-01
    1.0391286381E-01    1.0295782553E-01    1.0201113558E-01    1.0107272890E-01
    1.0014254074E-01    9.9220506729E-02    9.8306562821E-02    9.7400645319E-02
    9.6502690873E-02    9.5612636482E-02    9.4730419496E-02    9.3855977616E-02
    9.2989248900E-02    9.2130171757E-02    9.1278684954E-02    9.0434727615E-02
    8.9598239222E-02    8.8769159615E-02    8.7947428996E-02    8.7132987925E-02
    8.6325777327E-02    8.5525738485E-02    8.4732813046E-02    8.3946943022E-02
    8.3168070784E-02    8.2396139070E-02    8.1631090979E-02    8.0872869976E-02
    8.0121419889E-02    7.9376684909E-02    7.8638609592E-02    7.7907138858E-02
    7.7182217989E-02    7.6463792631E-02    7.5751808794E-02    7.5046212848E-02
    7.4346951527E-02    7.3653971927E-02    7.2967221503E-02    7.2286648074E-02
    7.1612199814E-02    7.0943825262E-02    7.0281473310E-02    6.9625093212E-02
    6.8974634576E-02    6.8330047368E-02    6.7691281907E-02    6.7058288869E-02
    6.6431019281E-02    6.5809424523E-02    6.5193456325E-02    6.4583066769E-02
    6.3978208285E-02    6.3378833651E-02    6.2784895989E-02    6.2196348770E-02
    6.1613145808E-02    6.1035241257E-02    6.0462589617E-02    5.9895145725E-02
    5.9332864757E-02    5.8775702227E-02    5.8223613984E-02    5.7676556214E-02
    5.7134485432E-02    5.6597358488E-02    5.6065132561E-02    5.5537765156E-02
    5.5015214110E-02    5.4497437580E-02    5.3984394051E-02    5.3476042327E-02
    5.2972341534E-02    5.2473251119E-02    5.1978730842E-02    5.1488740782E-02
    5.1003241330E-02    5.0522193191E-02    5.0045557379E-02    4.9573295218E-02
    4.9105368339E-02    4.8641738679E-02    4.8182368476E-02    4.7727220274E-02
    4.7276256914E-02    4.6829441537E-02    4.6386737580E-02    4.5948108776E-02
    4.5513519150E-02    4.5082933020E-02    4.4656314991E-02    4.4233629958E-02
    4.3814843102E-02    4.3399919886E-02    4.2988826059E-02    4.2581527647E-02
    4.2177990958E-02    4.1778182574E-02    4.1382069355E-02    4.0989618432E-02
    4.0600797209E-02    4.0215573361E-02    3.9833914829E-02    3.9455789820E-02
    3.9081166806E-02    3.8710014524E-02    3.8342301967E-02    3.7977998392E-02
    3.7617073309E-02    3.7259496487E-02    3.6905237946E-02    3.6554267959E-02
    3.6206557049E-02    3.5862075987E-02    3.5520795791E-02    3.5182687724E-02
    3.4847723291E-02    3.4515874239E-02    3.4187112554E-02    3.3861410460E-02
    3.3538740417E-02    3.3219075120E-02    3.2902387496E-02    3.2588650702E-02
    3.2277838125E-02    3.1969923378E-02    3.1664880303E-02    3.1362682963E-02
    3.1063305644E-02    3.0766722852E-02    3.0472909314E-02    3.0181839973E-02
    2.9893489986E-02    2.9607834727E-02    2.9324849781E-02    2.9044510942E-02
    2.8766794216E-02    2.8491675814E-02    2.8219132154E-02    2.7949139858E-02
    2.7681675751E-02    2.7416716858E-02    2.7154240405E-02    2.6894223813E-02
    2.6636644702E-02    2.6381480887E-02    2.6128710373E-02    2.5878311360E-02
    2.5630262237E-02    2.5384541580E-02    2.5141128155E-02    2.4900000912E-02
    2.4661138984E-02    2.4424521689E-02    2.4190128525E-02    2.3957939168E-02
    2.3727933476E-02    2.3500091480E-02    2.3274393389E-02    2.3050819584E-02
    2.2829350619E-02    2.2609967221E-02    2.2392650283E-02    2.2177380870E-02
    2.1964140212E-02    2.1752909703E-02    2.1543670905E-02    2.1336405539E-02
    2.1131095491E-02    2.0927722803E-02    2.0726269680E-02    2.0526718481E-02
    2.0329051724E-02    2.0133252079E-02    1.9939302373E-02    1.9747185582E-02
    1.9556884834E-02    1.9368383408E-02    1.9181664731E-02    1.8996712376E-02
    1.8813510063E-02    1.8632041657E-02    1.8452291166E-02    1.8274242741E-02
    1.8097880674E-02    1.7923189396E-02    1.7750153477E-02    1.7578757627E-02
    1.7408986690E-02    1.7240825645E-02    1.7074259606E-02    1.6909273821E-02
    1.6745853669E-02    1.6583984658E-02    1.6423652429E-02    1.6264842750E-02
    1.6107541515E-02    1.5951734746E-02    1.5797408591E-02    1.5644549319E-02
    1.5493143327E-02    1.5343177129E-02    1.5194637363E-02    1.5047510787E-02
    1.4901784278E-02    1.4757444828E-02    1.4614479550E-02    1.4472875671E-02
    1.4332620533E-02    1.4193701593E-02    1.4056106418E-02    1.3919822690E-02
    1.3784838202E-02    1.3651140855E-02    1.3518718661E-02    1.3387559739E-02
    1.3257652316E-02    1.3128984724E-02    1.3001545403E-02    1.2875322895E-02
    1.2750305846E-02    1.2626483006E-02    1.2503843226E-02    1.2382375457E-02
    1.2262068751E-02    1.2142912260E-02    1.2024895231E-02    1.1908007014E-02
    1.1792237050E-02    1.1677574878E-02    1.1564010133E-02    1.1451532543E-02
    1.1340131929E-02    1.1229798205E-02    1.1120521377E-02    1.1012291540E-02
    1.0905098881E-02    1.0798933676E-02    1.0693786289E-02    1.0589647171E-02
    1.0486506862E-02    1.0384355987E-02    1.0283185255E-02    1.0182985462E-02
    1.0083747488E-02    9.9854622930E-03    9.8881209231E-03    9.7917145045E-03
    9.6962342447E-03    9.6016714313E-03    9.5080174319E-03    9.4152636927E-03
    9.3234017381E-03    9.2324231704E-03    9.1423196683E-03    9.0530829869E-03
    8.9647049567E-03    8.8771774832E-03    8.7904925458E-03    8.7046421978E-03
    8.6196185649E-03    8.5354138453E-03    8.4520203089E-03    8.3694302962E-03
    8.2876362184E-03    8.2066305560E-03    8.1264058591E-03    8.0469547457E-03
    7.9682699021E-03    7.8903440817E-03    7.8131701045E-03    7.7367408568E-03
    7.6610492902E-03    7.5860884212E-03    7.5118513308E-03    7.4383311637E-03
    7.3655211276E-03    7.2934144931E-03    7.2220045927E-03    7.1512848206E-03
    7.0812486319E-03    7.0118895420E-03    6.9432011263E-03    6.8751770197E-03
    6.8078109158E-03    6.7410965664E-03    6.6750277812E-03    6.6095984273E-03
    6.5448024284E-03    6.4806337644E-03    6.4170864712E-03    6.3541546397E-03
    6.2918324157E-03    6.2301139991E-03    6.1689936440E-03    6.1084656573E-03
    6.0485243989E-03    5.9891642813E-03    5.9303797685E-03    5.8721653762E-03
    5.8145156709E-03    5.7574252697E-03    5.7008888397E-03    5.6449010975E-03
    5.5894568090E-03    5.5345507887E-03    5.4801778996E-03    5.4263330522E-03
    5.3730112046E-03    5.3202073619E-03    5.2679165756E-03    5.2161339435E-03
    5.1648546091E-03    5.1140737612E-03    5.0637866333E-03    5.0139885037E-03
    4.9646746946E-03    4.9158405720E-03    4.8674815452E-03    4.8195930663E-03
    4.7721706299E-03    4.7252097730E-03    4.6787060741E-03    4.6326551531E-03
    4.5870526710E-03    4.5418943294E-03    4.4971758702E-03    4.4528930751E-03
    4.4090417653E-03    4.3656178015E-03    4.3226170827E-03    4.2800355469E-03
    4.2378691698E-03    4.1961139652E-03    4.1547659841E-03    4.1138213146E-03
    4.0732760818E-03    4.0331264469E-03    3.9933686074E-03    3.9539987965E-03
    3.9150132827E-03    3.8764083699E-03    3.8381803964E-03    3.8003257354E-03
    3.7628407940E-03    3.7257220130E-03    3.6889658672E-03    3.6525688642E-03
    3.6165275446E-03    3.5808384819E-03    3.5454982817E-03    3.5105035815E-03
    3.4758510509E-03    3.4415373906E-03    3.4075593326E-03    3.3739136399E-03
    3.3405971059E-03    3.3076065544E-03    3.2749388392E-03    3.2425908438E-03
    3.2105594814E-03    3.1788416941E-03    3.1474344532E-03    3.1163347585E-03
    3.0855396384E-03    3.0550461492E-03    3.0248513754E-03    2.9949524289E-03
    2.9653464491E-03    2.9360306024E-03    2.9070020822E-03    2.8782581086E-03
    2.8497959278E-03    2.8216128125E-03    2.7937060610E-03    2.7660729975E-03
    2.7387109714E-03    2.7116173576E-03    2.6847895555E-03    2.6582249897E-03
    2.6319211089E-03    2.6058753865E-03    2.5800853195E-03    2.5545484290E-03
    2.5292622596E-03    2.5042243794E-03    2.4794323795E-03    2.4548838741E-03
    2.4305765001E-03    2.4065079168E-03    2.3826758059E-03    2.3590778714E-03
    2.3357118390E-03    2.3125754560E-03    2.2896664915E-03    2.2669827357E-03
    2.2445220000E-03    2.2222821165E-03    2.2002609384E-03    2.1784563390E-03
    2.1568662123E-03    2.1354884721E-03    2.1143210523E-03    2.0933619067E-03
    2.0726090085E-03    2.0520603504E-03    2.0317139442E-03    2.0115678208E-03
    1.9916200300E-03    1.9718686402E-03    1.9523117385E-03    1.9329474300E-03
    1.9137738383E-03    1.8947891048E-03    1.8759913887E-03    1.8573788671E-03
    1.8389497343E-03    1.8207022022E-03    1.8026344995E-03    1.7847448723E-03
    1.7670315833E-03    1.7494929120E-03    1.7321271544E-03    1.7149326229E-03
    1.6979076460E-03    1.6810505684E-03    1.6643597508E-03    1.6478335694E-03
    1.6314704162E-03    1.6152686987E-03    1.5992268397E-03    1.5833432771E-03
    1.5676164639E-03    1.5520448681E-03    1.5366269722E-03    1.5213612736E-03
    1.5062462841E-03    1.4912805297E-03    1.4764625507E-03    1.4617909016E-03
    1.4472641508E-03    1.4328808803E-03    1.4186396860E-03    1.4045391773E-03
    1.3905779770E-03    1.3767547212E-03    1.3630680591E-03    1.3495166532E-03
    1.3360991786E-03    1.3228143235E-03    1.3096607885E-03    1.2966372869E-03
    1.2837425445E-03    1.2709752993E-03    1.2583343016E-03    1.2458183137E-03
    1.2334261100E-03    1.2211564766E-03    1.2090082115E-03    1.1969801243E-03
    1.1850710360E-03    1.1732797793E-03    1.1616051978E-03    1.1500461468E-03
    1.1386014922E-03    1.1272701112E-03    1.1160508918E-03    1.1049427329E-03
    1.0939445438E-03    1.0830552446E-03    1.0722737659E-03    1.0615990485E-03
    1.0510300436E-03    1.0405657127E-03    1.0302050270E-03    1.0199469681E-03
    1.0097905273E-03    9.9973470565E-04    9.8977851404E-04    9.7992097289E-04
    9.7016111216E-04    9.6049797123E-04    9.5093059883E-04    9.4145805293E-04
    9.3207940067E-04    9.2279371825E-04    9.1360009088E-04    9.0449761265E-04
    8.9548538648E-04    8.8656252401E-04    8.7772814554E-04    8.6898137993E-04
    8.6032136452E-04    8.5174724505E-04    8.4325817559E-04    8.3485331844E-04
    8.2653184409E-04    8.1829293109E-04    8.1013576599E-04    8.0205954329E-04
    7.9406346534E-04    7.8614674226E-04    7.7830859188E-04    7.7054823967E-04
    7.6286491864E-04    7.5525786930E-04    7.4772633954E-04    7.4026958465E-04
    7.3288686712E-04    7.2557745671E-04    7.1834063025E-04    7.1117567168E-04
    7.0408187191E-04    6.9705852878E-04    6.9010494700E-04    6.8322043806E-04
    6.7640432020E-04    6.6965591832E-04    6.6297456389E-04    6.5635959497E-04
    6.4981035604E-04    6.4332619804E-04    6.3690647822E-04    6.3055056014E-04
    6.2425781358E-04    6.1802761449E-04    6.1185934494E-04    6.0575239302E-04
    5.9970615285E-04    5.9372002444E-04    5.8779341372E-04    5.8192573239E-04
    5.7611639797E-04    5.7036483363E-04    5.6467046823E-04    5.5903273622E-04
    5.5345107758E-04    5.4792493779E-04    5.4245376776E-04    5.3703702381E-04
    5.3167416754E-04    5.2636466588E-04    5.2110799097E-04    5.1590362012E-04
    5.1075103578E-04    5.0564972547E-04    5.0059918174E-04    4.9559890214E-04
    4.9064838913E-04    4.8574715006E-04    4.8089469712E-04    4.7609054728E-04
    4.7133422227E-04    4.6662524852E-04    4.6196315709E-04    4.5734748366E-04
    4.5277776848E-04    4.4825355631E-04    4.4377439637E-04    4.3933984234E-04
    4.3494945227E-04    4.3060278855E-04    4.2629941790E-04    4.2203891126E-04
    4.1782084382E-04    4.1364479494E-04    4.0951034812E-04    4.0541709095E-04
    4.0136461509E-04    3.9735251621E-04    3.9338039396E-04    3.8944785193E-04
    3.8555449762E-04    3.8169994238E-04    3.7788380141E-04    3.7410569366E-04
    3.7036524188E-04    3.6666207250E-04    3.6299581564E-04    3.5936610508E-04
    3.5577257818E-04    3.5221487589E-04    3.4869264270E-04    3.4520552659E-04
    3.4175317903E-04    3.3833525492E-04    3.3495141254E-04    3.3160131356E-04
    3.2828462299E-04    3.2500100913E-04    3.2175014356E-04    3.1853170109E-04
    3.1534535976E-04    3.1219080075E-04    3.0906770843E-04    3.0597577024E-04
    3.0291467673E-04    2.9988412151E-04    2.9688380119E-04    2.9391341540E-04
    2.9097266671E-04    2.8806126066E-04    2.8517890566E-04    2.8232531303E-04
    2.7950019692E-04    2.7670327431E-04    2.7393426499E-04    2.7119289149E-04
    2.6847887911E-04    2.6579195584E-04    2.6313185238E-04    2.6049830207E-04
    2.5789104090E-04    2.5530980747E-04    2.5275434296E-04    2.5022439109E-04
    2.4771969815E-04    2.4524001292E-04    2.4278508665E-04    2.4035467307E-04
    2.3794852835E-04    2.3556641106E-04    2.3320808215E-04    2.3087330495E-04
    2.2856184513E-04    2.2627347067E-04    2.2400795185E-04    2.2176506123E-04
    2.1954457361E-04    2.1734626603E-04    2.1516991773E-04    2.1301531013E-04
    2.1088222683E-04    2.0877045355E-04    2.0667977816E-04    2.0460999061E-04
    2.0256088293E-04    2.0053224922E-04    1.9852388562E-04    1.9653559028E-04
    1.9456716336E-04    1.9261840698E-04    1.9068912524E-04    1.8877912418E-04
    1.8688821176E-04    1.8501619784E-04    1.8316289416E-04    1.8132811433E-04
    1.7951167381E-04    1.7771338990E-04    1.7593308169E-04    1.7417057008E-04
    1.7242567772E-04    1.7069822907E-04    1.6898805027E-04    1.6729496923E-04
    1.6561881554E-04    1.6395942050E-04    1.6231661706E-04    1.6069023986E-04
    1.5908012515E-04    1.5748611081E-04    1.5590803635E-04    1.5434574285E-04
    1.5279907298E-04    1.5126787096E-04    1.4975198256E-04    1.4825125509E-04
    1.4676553736E-04    1.4529467971E-04    1.4383853392E-04    1.4239695329E-04
    1.4096979254E-04    1.3955690785E-04    1.3815815682E-04    1.3677339848E-04
    1.3540249325E-04    1.3404530293E-04    1.3270169069E-04    1.3137152108E-04
    1.3005465999E-04    1.2875097461E-04    1.2746033350E-04    1.2618260650E-04
    1.2491766473E-04    1.2366538061E-04    1.2242562784E-04    1.2119828134E-04
    1.1998321729E-04    1.1878031312E-04    1.1758944746E-04    1.1641050013E-04
    1.1524335218E-04    1.1408788581E-04    1.1294398443E-04    1.1181153256E-04
    1.1069041592E-04    1.0958052132E-04    1.0848173673E-04    1.0739395121E-04
    1.0631705494E-04    1.0525093919E-04    1.0419549631E-04    1.0315061971E-04
    1.0211620388E-04    1.0109214435E-04    1.0007833768E-04    9.9074681471E-05
    9.8081074345E-05    9.7097415926E-05    9.6123606840E-05    9.5159548701E-05
    9.4205144104E-05    9.3260296610E-05    9.2324910744E-05    9.1398891979E-05
    9.0482146730E-05    8.9574582343E-05    8.8676107088E-05    8.7786630147E-05
    8.6906061607E-05    8.6034312449E-05    8.5171294543E-05    8.4316920635E-05
    8.3471104340E-05    8.2633760133E-05    8.1804803343E-05    8.0984150140E-05
    8.0171717531E-05    7.9367423348E-05    7.8571186243E-05    7.7782925678E-05
    7.7002561918E-05    7.6230016021E-05    7.5465209833E-05    7.4708065979E-05
    7.3958507853E-05    7.3216459615E-05    7.2481846180E-05    7.1754593210E-05
    7.1034627110E-05    7.0321875018E-05    6.9616264798E-05    6.8917725032E-05
    6.8226185016E-05    6.7541574751E-05    6.6863824933E-05    6.6192866952E-05
    6.5528632881E-05    6.4871055471E-05    6.4220068141E-05    6.3575604979E-05
    6.2937600725E-05    6.2305990773E-05    6.1680711161E-05    6.1061698564E-05
    6.0448890289E-05    5.9842224269E-05    5.9241639056E-05    5.8647073814E-05
    5.8058468316E-05    5.7475762932E-05    5.6898898632E-05    5.6327816971E-05
    5.5762460089E-05    5.5202770704E-05    5.4648692102E-05    5.4100168141E-05
    5.3557143233E-05    5.3019562348E-05    5.2487371006E-05    5.1960515270E-05
    5.1438941739E-05    5.0922597548E-05    5.0411430359E-05    4.9905388356E-05
    4.9404420240E-05    4.8908475225E-05    4.8417503032E-05    4.7931453883E-05
    4.7450278497E-05    4.6973928087E-05    4.6502354351E-05    4.6035509471E-05
    4.5573346105E-05    4.5115817384E-05    4.4662876908E-05    4.4214478740E-05
    4.3770577402E-05    4.3331127869E-05    4.2896085568E-05    4.2465406368E-05
    4.2039046583E-05    4.1616962959E-05    4.1199112677E-05    4.0785453345E-05
    4.0375942995E-05    3.9970540077E-05    3.9569203457E-05    3.9171892412E-05
    3.8778566625E-05    3.8389186184E-05    3.8003711574E-05    3.7622103674E-05
    3.7244323757E-05    3.6870333481E-05    3.6500094886E-05    3.6133570395E-05
    3.5770722802E-05    3.5411515277E-05    3.5055911356E-05    3.4703874940E-05
    3.4355370290E-05    3.4010362025E-05    3.3668815118E-05    3.3330694893E-05
    3.2995967017E-05    3.2664597504E-05    3.2336552707E-05    3.2011799314E-05
    3.1690304347E-05    3.1372035159E-05    3.1056959426E-05    3.0745045151E-05
    3.0436260654E-05    3.0130574575E-05    2.9827955864E-05    2.9528373783E-05
    2.9231797904E-05    2.8938198098E-05    2.8647544542E-05    2.8359807710E-05
    2.8074958369E-05    2.7792967583E-05    2.7513806700E-05    2.7237447359E-05
    2.6963861480E-05    2.6693021266E-05    2.6424899196E-05    2.6159468026E-05
    2.5896700784E-05    2.5636570767E-05    2.5379051541E-05    2.5124116934E-05
    2.4871741039E-05    2.4621898205E-05    2.4374563039E-05    2.4129710404E-05
    2.3887315411E-05    2.3647353422E-05    2.3409800046E-05    2.3174631135E-05
   </PP_CHI.1>
   <PP_CHI.2
       type="real"
       size="1300"
       columns="4"
       index="2"
       occupation=" 3.000"
       pseudo_energy="   -0.4027538412E+00"
       label="3P"
       l="1" >
    2.0297266472E-12    6.0049673486E-05    2.4015051098E-04    5.4015814381E-04
    9.5983255859E-04    1.4988389952E-03    2.1567491968E-03    2.9330430040E-03
    3.8271102843E-03    4.8382531854E-03    5.9656886993E-03    7.2085515215E-03
    8.5658971898E-03    1.0036705484E-02    1.1619884064E-02    1.3314272335E-02
    1.5118645500E-02    1.7031718796E-02    1.9052151873E-02    2.1178553305E-02
    2.3409485199E-02    2.5743467867E-02    2.8178984565E-02    3.0714486235E-02
    3.3348396251E-02    3.6079115129E-02    3.8905025185E-02    4.1824495104E-02
    4.4835884406E-02    4.7937547780E-02    5.1127839266E-02    5.4405116259E-02
    5.7767743319E-02    6.1214095769E-02    6.4742563055E-02    6.8351551864E-02
    7.2039488972E-02    7.5804823828E-02    7.9646030834E-02    8.3561611349E-02
    8.7550095370E-02    9.1610042923E-02    9.5740045125E-02    9.9938724942E-02
    1.0420473763E-01    1.0853677085E-01    1.1293354451E-01    1.1739381026E-01
    1.2191635071E-01    1.2649997838E-01    1.3114353432E-01    1.3584588654E-01
    1.4060592808E-01    1.4542257499E-01    1.5029476391E-01    1.5522144963E-01
    1.6020160228E-01    1.6523420452E-01    1.7031824843E-01    1.7545273239E-01
    1.8063665777E-01    1.8586902559E-01    1.9114883304E-01    1.9647507003E-01
    2.0184671570E-01    2.0726273485E-01    2.1272207449E-01    2.1822366040E-01
    2.2376639369E-01    2.2934914752E-01    2.3497076387E-01    2.4063005044E-01
    2.4632577771E-01    2.5205667609E-01    2.5782143331E-01    2.6361869196E-01
    2.6944704723E-01    2.7530504487E-01    2.8119117935E-01    2.8710389234E-01
    2.9304157127E-01    2.9900254835E-01    3.0498509971E-01    3.1098744480E-01
    3.1700774621E-01    3.2304410958E-01    3.2909458393E-01    3.3515716219E-01
    3.4122978206E-01    3.4731032711E-01    3.5339662819E-01    3.5948646509E-01
    3.6557756849E-01    3.7166762214E-01    3.7775426532E-01    3.8383509554E-01
    3.8990767150E-01    3.9596951624E-01    4.0201812051E-01    4.0805094638E-01
    4.1406543100E-01    4.2005899057E-01    4.2602902447E-01    4.3197291950E-01
    4.3788805427E-01    4.4377180376E-01    4.4962154390E-01    4.5543465625E-01
    4.6120853281E-01    4.6694058074E-01    4.7262822725E-01    4.7826892441E-01
    4.8386015397E-01    4.8939943215E-01    4.9488431438E-01    5.0031239999E-01
    5.0568133678E-01    5.1098882550E-01    5.1623262422E-01    5.2141055259E-01
    5.2652049584E-01    5.3156040873E-01    5.3652831925E-01    5.4142233211E-01
    5.4624063204E-01    5.5098148685E-01    5.5564325025E-01    5.6022436440E-01
    5.6472336220E-01    5.6913886933E-01    5.7346960599E-01    5.7771438833E-01
    5.8187212959E-01    5.8594184100E-01    5.8992263232E-01    5.9381371204E-01
    5.9761438740E-01    6.0132406398E-01    6.0494224508E-01    6.0846853075E-01
    6.1190261658E-01    6.1524429215E-01    6.1849343928E-01    6.2165002996E-01
    6.2471412406E-01    6.2768586681E-01    6.3056548601E-01    6.3335328910E-01
    6.3604966000E-01    6.3865505577E-01    6.4117000313E-01    6.4359509486E-01
    6.4593098606E-01    6.4817839032E-01    6.5033807578E-01    6.5241086126E-01
    6.5439761220E-01    6.5629923667E-01    6.5811668143E-01    6.5985092792E-01
    6.6150298840E-01    6.6307390213E-01    6.6456473162E-01    6.6597655902E-01
    6.6731048266E-01    6.6856761374E-01    6.6974907316E-01    6.7085598866E-01
    6.7188949205E-01    6.7285071650E-01    6.7374079424E-01    6.7456085436E-01
    6.7531202096E-01    6.7599541155E-01    6.7661213567E-01    6.7716329401E-01
    6.7764997794E-01    6.7807326944E-01    6.7843424092E-01    6.7873395504E-01
    6.7897346458E-01    6.7915381233E-01    6.7927603095E-01    6.7934114284E-01
    6.7935016012E-01    6.7930408444E-01    6.7920390699E-01    6.7905060837E-01
    6.7884515855E-01    6.7858851683E-01    6.7828163175E-01    6.7792544112E-01
    6.7752087193E-01    6.7706884035E-01    6.7657025173E-01    6.7602600057E-01
    6.7543697053E-01    6.7480403442E-01    6.7412805422E-01    6.7340988113E-01
    6.7265035551E-01    6.7185030699E-01    6.7101055445E-01    6.7013190607E-01
    6.6921515940E-01    6.6826110136E-01    6.6727050831E-01    6.6624414611E-01
    6.6518277016E-01    6.6408712549E-01    6.6295794679E-01    6.6179595849E-01
    6.6060187484E-01    6.5937639996E-01    6.5812022795E-01    6.5683404294E-01
    6.5551851915E-01    6.5417432103E-01    6.5280210330E-01    6.5140251104E-01
    6.4997617979E-01    6.4852373563E-01    6.4704579527E-01    6.4554296614E-01
    6.4401584648E-01    6.4246502546E-01    6.4089108322E-01    6.3929459102E-01
    6.3767611131E-01    6.3603619781E-01    6.3437539564E-01    6.3269424140E-01
    6.3099326326E-01    6.2927298108E-01    6.2753390647E-01    6.2577654295E-01
    6.2400138598E-01    6.2220892309E-01    6.2039963399E-01    6.1857399064E-01
    6.1673245736E-01    6.1487549094E-01    6.1300354071E-01    6.1111704867E-01
    6.0921644955E-01    6.0730217092E-01    6.0537463331E-01    6.0343425026E-01
    6.0148142844E-01    5.9951656776E-01    5.9754006142E-01    5.9555229603E-01
    5.9355365170E-01    5.9154450214E-01    5.8952521471E-01    5.8749615057E-01
    5.8545766470E-01    5.8341010605E-01    5.8135381759E-01    5.7928913641E-01
    5.7721639381E-01    5.7513591534E-01    5.7304802097E-01    5.7095302509E-01
    5.6885123662E-01    5.6674295913E-01    5.6462849086E-01    5.6250812481E-01
    5.6038214887E-01    5.5825084583E-01    5.5611449350E-01    5.5397336477E-01
    5.5182772768E-01    5.4967784551E-01    5.4752397683E-01    5.4536637559E-01
    5.4320529120E-01    5.4104096855E-01    5.3887364814E-01    5.3670356611E-01
    5.3453095434E-01    5.3235604046E-01    5.3017904797E-01    5.2800019629E-01
    5.2581970079E-01    5.2363777291E-01    5.2145462018E-01    5.1927044628E-01
    5.1708545113E-01    5.1489983091E-01    5.1271377816E-01    5.1052748180E-01
    5.0834112719E-01    5.0615489623E-01    5.0396896735E-01    5.0178351562E-01
    4.9959871274E-01    4.9741472717E-01    4.9523172412E-01    4.9304986562E-01
    4.9086931056E-01    4.8869021478E-01    4.8651273105E-01    4.8433700917E-01
    4.8216319601E-01    4.7999143552E-01    4.7782186883E-01    4.7565463423E-01
    4.7348986727E-01    4.7132770078E-01    4.6916826489E-01    4.6701168713E-01
    4.6485809239E-01    4.6270760303E-01    4.6056033888E-01    4.5841641731E-01
    4.5627595322E-01    4.5413905912E-01    4.5200584515E-01    4.4987641911E-01
    4.4775088653E-01    4.4562935064E-01    4.4351191245E-01    4.4139867080E-01
    4.3928972235E-01    4.3718516161E-01    4.3508508104E-01    4.3298957098E-01
    4.3089871977E-01    4.2881261373E-01    4.2673133721E-01    4.2465497261E-01
    4.2258360040E-01    4.2051729918E-01    4.1845614567E-01    4.1640021477E-01
    4.1434957956E-01    4.1230431134E-01    4.1026447966E-01    4.0823015234E-01
    4.0620139548E-01    4.0417827353E-01    4.0216084924E-01    4.0014918378E-01
    3.9814333666E-01    3.9614336585E-01    3.9414932772E-01    3.9216127714E-01
    3.9017926743E-01    3.8820335043E-01    3.8623357650E-01    3.8426999455E-01
    3.8231265207E-01    3.8036159513E-01    3.7841686839E-01    3.7647851519E-01
    3.7454657746E-01    3.7262109586E-01    3.7070210968E-01    3.6878965697E-01
    3.6688377448E-01    3.6498449770E-01    3.6309186090E-01    3.6120589712E-01
    3.5932663823E-01    3.5745411487E-01    3.5558835654E-01    3.5372939162E-01
    3.5187724730E-01    3.5003194971E-01    3.4819352386E-01    3.4636199368E-01
    3.4453738204E-01    3.4271971077E-01    3.4090900065E-01    3.3910527147E-01
    3.3730854199E-01    3.3551883002E-01    3.3373615237E-01    3.3196052491E-01
    3.3019196258E-01    3.2843047938E-01    3.2667608841E-01    3.2492880188E-01
    3.2318863110E-01    3.2145558653E-01    3.1972967779E-01    3.1801091364E-01
    3.1629930203E-01    3.1459485009E-01    3.1289756416E-01    3.1120744979E-01
    3.0952451179E-01    3.0784875417E-01    3.0618018023E-01    3.0451879252E-01
    3.0286459288E-01    3.0121758246E-01    2.9957776169E-01    2.9794513035E-01
    2.9631968752E-01    2.9470143166E-01    2.9309036057E-01    2.9148647142E-01
    2.8988976075E-01    2.8830022452E-01    2.8671785808E-01    2.8514265619E-01
    2.8357461304E-01    2.8201372227E-01    2.8045997696E-01    2.7891336966E-01
    2.7737389238E-01    2.7584153662E-01    2.7431629337E-01    2.7279815314E-01
    2.7128710593E-01    2.6978314128E-01    2.6828624826E-01    2.6679641550E-01
    2.6531363116E-01    2.6383788299E-01    2.6236915829E-01    2.6090744397E-01
    2.5945272653E-01    2.5800499205E-01    2.5656422626E-01    2.5513041448E-01
    2.5370354168E-01    2.5228359246E-01    2.5087055108E-01    2.4946440145E-01
    2.4806512715E-01    2.4667271144E-01    2.4528713726E-01    2.4390838723E-01
    2.4253644369E-01    2.4117128868E-01    2.3981290395E-01    2.3846127099E-01
    2.3711637100E-01    2.3577818495E-01    2.3444669352E-01    2.3312187718E-01
    2.3180371613E-01    2.3049219037E-01    2.2918727966E-01    2.2788896354E-01
    2.2659722134E-01    2.2531203220E-01    2.2403337505E-01    2.2276122865E-01
    2.2149557154E-01    2.2023638212E-01    2.1898363861E-01    2.1773731905E-01
    2.1649740133E-01    2.1526386319E-01    2.1403668224E-01    2.1281583591E-01
    2.1160130153E-01    2.1039305629E-01    2.0919107724E-01    2.0799534133E-01
    2.0680582540E-01    2.0562250616E-01    2.0444536024E-01    2.0327436415E-01
    2.0210949433E-01    2.0095072711E-01    1.9979803875E-01    1.9865140543E-01
    1.9751080325E-01    1.9637620824E-01    1.9524759636E-01    1.9412494353E-01
    1.9300822559E-01    1.9189741833E-01    1.9079249750E-01    1.8969343880E-01
    1.8860021789E-01    1.8751281038E-01    1.8643119188E-01    1.8535533792E-01
    1.8428522406E-01    1.8322082578E-01    1.8216211858E-01    1.8110907794E-01
    1.8006167931E-01    1.7901989813E-01    1.7798370986E-01    1.7695308992E-01
    1.7592801376E-01    1.7490845681E-01    1.7389439451E-01    1.7288580233E-01
    1.7188265571E-01    1.7088493014E-01    1.6989260110E-01    1.6890564411E-01
    1.6792403469E-01    1.6694774839E-01    1.6597676079E-01    1.6501104750E-01
    1.6405058414E-01    1.6309534638E-01    1.6214530993E-01    1.6120045052E-01
    1.6026074392E-01    1.5932616595E-01    1.5839669245E-01    1.5747229934E-01
    1.5655296254E-01    1.5563865806E-01    1.5472936193E-01    1.5382505025E-01
    1.5292569914E-01    1.5203128481E-01    1.5114178352E-01    1.5025717155E-01
    1.4937742528E-01    1.4850252114E-01    1.4763243559E-01    1.4676714519E-01
    1.4590662655E-01    1.4505085634E-01    1.4419981128E-01    1.4335346820E-01
    1.4251180394E-01    1.4167479546E-01    1.4084241976E-01    1.4001465392E-01
    1.3919147509E-01    1.3837286049E-01    1.3755878740E-01    1.3674923321E-01
    1.3594417535E-01    1.3514359133E-01    1.3434745875E-01    1.3355575529E-01
    1.3276845868E-01    1.3198554675E-01    1.3120699741E-01    1.3043278863E-01
    1.2966289848E-01    1.2889730510E-01    1.2813598671E-01    1.2737892162E-01
    1.2662608820E-01    1.2587746494E-01    1.2513303037E-01    1.2439276313E-01
    1.2365664193E-01    1.2292464557E-01    1.2219675293E-01    1.2147294299E-01
    1.2075319478E-01    1.2003748744E-01    1.1932580020E-01    1.1861811235E-01
    1.1791440328E-01    1.1721465247E-01    1.1651883949E-01    1.1582694396E-01
    1.1513894563E-01    1.1445482430E-01    1.1377455989E-01    1.1309813237E-01
    1.1242552183E-01    1.1175670842E-01    1.1109167239E-01    1.1043039407E-01
    1.0977285387E-01    1.0911903231E-01    1.0846890997E-01    1.0782246752E-01
    1.0717968572E-01    1.0654054544E-01    1.0590502758E-01    1.0527311318E-01
    1.0464478334E-01    1.0402001925E-01    1.0339880218E-01    1.0278111349E-01
    1.0216693462E-01    1.0155624711E-01    1.0094903258E-01    1.0034527271E-01
    9.9744949290E-02    9.9148044194E-02    9.8554539369E-02    9.7964416853E-02
    9.7377658764E-02    9.6794247304E-02    9.6214164761E-02    9.5637393503E-02
    9.5063915982E-02    9.4493714734E-02    9.3926772375E-02    9.3363071605E-02
    9.2802595204E-02    9.2245326036E-02    9.1691247046E-02    9.1140341258E-02
    9.0592591779E-02    9.0047981796E-02    8.9506494578E-02    8.8968113471E-02
    8.8432821903E-02    8.7900603381E-02    8.7371441492E-02    8.6845319901E-02
    8.6322222352E-02    8.5802132669E-02    8.5285034752E-02    8.4770912579E-02
    8.4259750207E-02    8.3751531770E-02    8.3246241479E-02    8.2743863620E-02
    8.2244382558E-02    8.1747782732E-02    8.1254048658E-02    8.0763164927E-02
    8.0275116206E-02    7.9789887236E-02    7.9307462832E-02    7.8827827886E-02
    7.8350967360E-02    7.7876866292E-02    7.7405509795E-02    7.6936883051E-02
    7.6470971318E-02    7.6007759925E-02    7.5547234274E-02    7.5089379837E-02
    7.4634182159E-02    7.4181626857E-02    7.3731699617E-02    7.3284386197E-02
    7.2839672423E-02    7.2397544194E-02    7.1957987477E-02    7.1520988308E-02
    7.1086532793E-02    7.0654607106E-02    7.0225197490E-02    6.9798290255E-02
    6.9373871780E-02    6.8951928511E-02    6.8532446962E-02    6.8115413712E-02
    6.7700815408E-02    6.7288638763E-02    6.6878870555E-02    6.6471497631E-02
    6.6066506899E-02    6.5663885335E-02    6.5263619979E-02    6.4865697934E-02
    6.4470106370E-02    6.4076832519E-02    6.3685863677E-02    6.3297187203E-02
    6.2910790520E-02    6.2526661113E-02    6.2144786530E-02    6.1765154380E-02
    6.1387752335E-02    6.1012568128E-02    6.0639589553E-02    6.0268804467E-02
    5.9900200786E-02    5.9533766486E-02    5.9169489604E-02    5.8807358237E-02
    5.8447360542E-02    5.8089484735E-02    5.7733719090E-02    5.7380051941E-02
    5.7028471681E-02    5.6678966760E-02    5.6331525687E-02    5.5986137028E-02
    5.5642789408E-02    5.5301471506E-02    5.4962172061E-02    5.4624879868E-02
    5.4289583778E-02    5.3956272699E-02    5.3624935592E-02    5.3295561478E-02
    5.2968139430E-02    5.2642658578E-02    5.2319108107E-02    5.1997477254E-02
    5.1677755315E-02    5.1359931635E-02    5.1043995616E-02    5.0729936715E-02
    5.0417744438E-02    5.0107408348E-02    4.9798918059E-02    4.9492263238E-02
    4.9187433606E-02    4.8884418934E-02    4.8583209045E-02    4.8283793816E-02
    4.7986163174E-02    4.7690307096E-02    4.7396215613E-02    4.7103878805E-02
    4.6813286801E-02    4.6524429784E-02    4.6237297985E-02    4.5951881684E-02
    4.5668171213E-02    4.5386156951E-02    4.5105829328E-02    4.4827178823E-02
    4.4550195962E-02    4.4274871322E-02    4.4001195525E-02    4.3729159245E-02
    4.3458753201E-02    4.3189968162E-02    4.2922794942E-02    4.2657224403E-02
    4.2393247456E-02    4.2130855056E-02    4.1870038206E-02    4.1610787956E-02
    4.1353095401E-02    4.1096951682E-02    4.0842347987E-02    4.0589275549E-02
    4.0337725645E-02    4.0087689600E-02    3.9839158781E-02    3.9592124601E-02
    3.9346578519E-02    3.9102512035E-02    3.8859916697E-02    3.8618784094E-02
    3.8379105860E-02    3.8140873672E-02    3.7904079252E-02    3.7668714362E-02
    3.7434770811E-02    3.7202240448E-02    3.6971115164E-02    3.6741386895E-02
    3.6513047618E-02    3.6286089352E-02    3.6060504156E-02    3.5836284134E-02
    3.5613421429E-02    3.5391908227E-02    3.5171736754E-02    3.4952899276E-02
    3.4735388101E-02    3.4519195578E-02    3.4304314096E-02    3.4090736082E-02
    3.3878454006E-02    3.3667460376E-02    3.3457747740E-02    3.3249308687E-02
    3.3042135842E-02    3.2836221872E-02    3.2631559481E-02    3.2428141414E-02
    3.2225960451E-02    3.2025009414E-02    3.1825281160E-02    3.1626768588E-02
    3.1429464631E-02    3.1233362260E-02    3.1038454487E-02    3.0844734358E-02
    3.0652194957E-02    3.0460829406E-02    3.0270630861E-02    3.0081592518E-02
    2.9893707608E-02    2.9706969399E-02    2.9521371193E-02    2.9336906331E-02
    2.9153568188E-02    2.8971350174E-02    2.8790245736E-02    2.8610248357E-02
    2.8431351552E-02    2.8253548874E-02    2.8076833910E-02    2.7901200282E-02
    2.7726641644E-02    2.7553151688E-02    2.7380724138E-02    2.7209352752E-02
    2.7039031324E-02    2.6869753678E-02    2.6701513675E-02    2.6534305209E-02
    2.6368122204E-02    2.6202958621E-02    2.6038808452E-02    2.5875665722E-02
    2.5713524489E-02    2.5552378844E-02    2.5392222907E-02    2.5233050836E-02
    2.5074856815E-02    2.4917635065E-02    2.4761379834E-02    2.4606085405E-02
    2.4451746091E-02    2.4298356238E-02    2.4145910219E-02    2.3994402443E-02
    2.3843827346E-02    2.3694179396E-02    2.3545453093E-02    2.3397642965E-02
    2.3250743572E-02    2.3104749502E-02    2.2959655375E-02    2.2815455841E-02
    2.2672145577E-02    2.2529719293E-02    2.2388171725E-02    2.2247497641E-02
    2.2107691837E-02    2.1968749137E-02    2.1830664395E-02    2.1693432494E-02
    2.1557048344E-02    2.1421506885E-02    2.1286803084E-02    2.1152931938E-02
    2.1019888468E-02    2.0887667728E-02    2.0756264795E-02    2.0625674778E-02
    2.0495892810E-02    2.0366914052E-02    2.0238733693E-02    2.0111346949E-02
    1.9984749063E-02    1.9858935303E-02    1.9733900966E-02    1.9609641374E-02
    1.9486151875E-02    1.9363427846E-02    1.9241464687E-02    1.9120257825E-02
    1.8999802713E-02    1.8880094830E-02    1.8761129680E-02    1.8642902794E-02
    1.8525409725E-02    1.8408646054E-02    1.8292607388E-02    1.8177289355E-02
    1.8062687612E-02    1.7948797837E-02    1.7835615737E-02    1.7723137038E-02
    1.7611357496E-02    1.7500272886E-02    1.7389879011E-02    1.7280171697E-02
    1.7171146792E-02    1.7062800169E-02    1.6955127726E-02    1.6848125382E-02
    1.6741789081E-02    1.6636114789E-02    1.6531098498E-02    1.6426736218E-02
    1.6323023987E-02    1.6219957862E-02    1.6117533926E-02    1.6015748281E-02
    1.5914597053E-02    1.5814076392E-02    1.5714182468E-02    1.5614911473E-02
    1.5516259623E-02    1.5418223153E-02    1.5320798322E-02    1.5223981410E-02
    1.5127768718E-02    1.5032156570E-02    1.4937141308E-02    1.4842719298E-02
    1.4748886927E-02    1.4655640602E-02    1.4562976751E-02    1.4470891822E-02
    1.4379382285E-02    1.4288444631E-02    1.4198075368E-02    1.4108271029E-02
    1.4019028164E-02    1.3930343344E-02    1.3842213159E-02    1.3754634221E-02
    1.3667603161E-02    1.3581116627E-02    1.3495171291E-02    1.3409763842E-02
    1.3324890987E-02    1.3240549455E-02    1.3156735994E-02    1.3073447368E-02
    1.2990680363E-02    1.2908431784E-02    1.2826698451E-02    1.2745477208E-02
    1.2664764912E-02    1.2584558444E-02    1.2504854698E-02    1.2425650591E-02
    1.2346943055E-02    1.2268729040E-02    1.2191005517E-02    1.2113769471E-02
    1.2037017908E-02    1.1960747849E-02    1.1884956335E-02    1.1809640422E-02
    1.1734797185E-02    1.1660423717E-02    1.1586517126E-02    1.1513074538E-02
    1.1440093097E-02    1.1367569963E-02    1.1295502313E-02    1.1223887340E-02
    1.1152722255E-02    1.1082004285E-02    1.1011730673E-02    1.0941898678E-02
    1.0872505576E-02    1.0803548661E-02    1.0735025239E-02    1.0666932635E-02
    1.0599268190E-02    1.0532029258E-02    1.0465213213E-02    1.0398817441E-02
    1.0332839345E-02    1.0267276343E-02    1.0202125870E-02    1.0137385374E-02
    1.0073052321E-02    1.0009124188E-02    9.9455984721E-03    9.8824726812E-03
    9.8197443401E-03    9.7574109882E-03    9.6954701793E-03    9.6339194821E-03
    9.5727564798E-03    9.5119787698E-03    9.4515839644E-03    9.3915696899E-03
    9.3319335868E-03    9.2726733100E-03    9.2137865282E-03    9.1552709244E-03
    9.0971241952E-03    9.0393440513E-03    8.9819282171E-03    8.9248744306E-03
    8.8681804434E-03    8.8118440209E-03    8.7558629417E-03    8.7002349977E-03
    8.6449579944E-03    8.5900297504E-03    8.5354480974E-03    8.4812108801E-03
    8.4273159566E-03    8.3737611974E-03    8.3205444863E-03    8.2676637196E-03
    8.2151168065E-03    8.1629016688E-03    8.1110162407E-03    8.0594584691E-03
    8.0082263134E-03    7.9573177450E-03    7.9067307480E-03    7.8564633184E-03
    7.8065134644E-03    7.7568792066E-03    7.7075585771E-03    7.6585496203E-03
    7.6098503923E-03    7.5614589611E-03    7.5133734065E-03    7.4655918196E-03
    7.4181123036E-03    7.3709329729E-03    7.3240519534E-03    7.2774673826E-03
    7.2311774090E-03    7.1851801927E-03    7.1394739048E-03    7.0940567277E-03
    7.0489268546E-03    7.0040824901E-03    6.9595218493E-03    6.9152431586E-03
    6.8712446550E-03    6.8275245862E-03    6.7840812108E-03    6.7409127979E-03
    6.6980176272E-03    6.6553939889E-03    6.6130401836E-03    6.5709545224E-03
    6.5291353266E-03    6.4875809280E-03    6.4462896682E-03    6.4052598994E-03
    6.3644899836E-03    6.3239782929E-03    6.2837232094E-03    6.2437231250E-03
    6.2039764417E-03    6.1644815711E-03    6.1252369345E-03    6.0862409631E-03
    6.0474920975E-03    6.0089887879E-03    5.9707294943E-03    5.9327126857E-03
    5.8949368408E-03    5.8574004477E-03    5.8201020035E-03    5.7830400148E-03
    5.7462129973E-03    5.7096194758E-03    5.6732579842E-03    5.6371270654E-03
    5.6012252714E-03    5.5655511628E-03    5.5301033093E-03    5.4948802895E-03
    5.4598806905E-03    5.4251031083E-03    5.3905461475E-03    5.3562084212E-03
    5.3220885512E-03    5.2881851678E-03    5.2544969096E-03    5.2210224238E-03
    5.1877603657E-03    5.1547093992E-03    5.1218681962E-03    5.0892354369E-03
    5.0568098097E-03    5.0245900110E-03    4.9925747455E-03    4.9607627255E-03
    4.9291526716E-03    4.8977433122E-03    4.8665333836E-03    4.8355216299E-03
    4.8047068028E-03    4.7740876621E-03    4.7436629750E-03    4.7134315163E-03
    4.6833920687E-03    4.6535434221E-03    4.6238843740E-03    4.5944137295E-03
    4.5651303010E-03    4.5360329083E-03    4.5071203783E-03    4.4783915456E-03
    4.4498452516E-03    4.4214803452E-03    4.3932956823E-03    4.3652901259E-03
    4.3374625462E-03    4.3098118202E-03    4.2823368320E-03    4.2550364728E-03
    4.2279096403E-03    4.2009552393E-03    4.1741721815E-03    4.1475593852E-03
    4.1211157755E-03    4.0948402840E-03    4.0687318493E-03    4.0427894163E-03
    4.0170119366E-03    3.9913983683E-03    3.9659476761E-03    3.9406588309E-03
    3.9155308103E-03    3.8905625980E-03    3.8657531842E-03    3.8411015654E-03
    3.8166067442E-03    3.7922677296E-03    3.7680835367E-03    3.7440531867E-03
    3.7201757071E-03    3.6964501311E-03    3.6728754983E-03    3.6494508541E-03
    3.6261752499E-03    3.6030477430E-03    3.5800673967E-03    3.5572332800E-03
    3.5345444678E-03    3.5120000407E-03    3.4895990852E-03    3.4673406934E-03
    3.4452239630E-03    3.4232479975E-03    3.4014119059E-03    3.3797148028E-03
    3.3581558084E-03    3.3367340483E-03    3.3154486536E-03    3.2942987608E-03
    3.2732835120E-03    3.2524020544E-03    3.2316535408E-03    3.2110371290E-03
    3.1905519823E-03    3.1701972693E-03    3.1499721635E-03    3.1298758439E-03
    3.1099074945E-03    3.0900663043E-03    3.0703514677E-03    3.0507621838E-03
    3.0312976570E-03    3.0119570965E-03    2.9927397165E-03    2.9736447362E-03
    2.9546713796E-03    2.9358188757E-03    2.9170864583E-03    2.8984733658E-03
    2.8799788416E-03    2.8616021339E-03    2.8433424954E-03    2.8251991837E-03
    2.8071714608E-03    2.7892585937E-03    2.7714598537E-03    2.7537745169E-03
    2.7362018637E-03    2.7187411791E-03    2.7013917529E-03    2.6841528789E-03
    2.6670238556E-03    2.6500039859E-03    2.6330925769E-03    2.6162889405E-03
    2.5995923923E-03    2.5830022528E-03    2.5665178463E-03    2.5501385016E-03
    2.5338635518E-03    2.5176923340E-03    2.5016241896E-03    2.4856584640E-03
    2.4697945069E-03    2.4540316720E-03    2.4383693170E-03    2.4228068038E-03
    2.4073434982E-03    2.3919787701E-03    2.3767119933E-03    2.3615425455E-03
    2.3464698084E-03    2.3314931675E-03    2.3166120124E-03    2.3018257363E-03
    2.2871337363E-03    2.2725354133E-03    2.2580301720E-03    2.2436174209E-03
    2.2292965721E-03    2.2150670416E-03    2.2009282488E-03    2.1868796171E-03
    2.1729205732E-03    2.1590505477E-03    2.1452689747E-03    2.1315752917E-03
    2.1179689401E-03    2.1044493645E-03    2.0910160131E-03    2.0776683376E-03
    2.0644057933E-03    2.0512278388E-03    2.0381339360E-03    2.0251235505E-03
    2.0121961510E-03    1.9993512096E-03    1.9865882020E-03    1.9739066068E-03
    1.9613059063E-03    1.9487855857E-03    1.9363451337E-03    1.9239840422E-03
    1.9117018063E-03    1.8994979241E-03    1.8873718972E-03    1.8753232301E-03
    1.8633514306E-03    1.8514560095E-03    1.8396364807E-03    1.8278923612E-03
    1.8162231711E-03    1.8046284334E-03    1.7931076744E-03    1.7816604230E-03
    1.7702862114E-03    1.7589845747E-03    1.7477550508E-03    1.7365971806E-03
    1.7255105079E-03    1.7144945796E-03    1.7035489450E-03    1.6926731568E-03
    1.6818667701E-03    1.6711293430E-03    1.6604604364E-03    1.6498596140E-03
    1.6393264421E-03    1.6288604900E-03    1.6184613295E-03    1.6081285353E-03
    1.5978616847E-03    1.5876603576E-03    1.5775241367E-03    1.5674526072E-03
    1.5574453572E-03    1.5475019771E-03    1.5376220600E-03    1.5278052017E-03
    1.5180510004E-03    1.5083590570E-03    1.4987289747E-03    1.4891603594E-03
    1.4796528195E-03    1.4702059659E-03    1.4608194118E-03    1.4514927730E-03
    1.4422256677E-03    1.4330177165E-03    1.4238685425E-03    1.4147777710E-03
    1.4057450299E-03    1.3967699493E-03    1.3878521617E-03    1.3789913020E-03
    1.3701870073E-03    1.3614389170E-03    1.3527466730E-03    1.3441099191E-03
    1.3355283018E-03    1.3270014694E-03    1.3185290729E-03    1.3101107651E-03
    1.3017462012E-03    1.2934350385E-03    1.2851769367E-03    1.2769715574E-03
    1.2688185645E-03    1.2607176239E-03    1.2526684037E-03    1.2446705742E-03
    1.2367238077E-03    1.2288277786E-03    1.2209821633E-03    1.2131866403E-03
    1.2054408902E-03    1.1977445955E-03    1.1900974410E-03    1.1824991131E-03
    1.1749493005E-03    1.1674476938E-03    1.1599939855E-03    1.1525878700E-03
    1.1452290440E-03    1.1379172056E-03    1.1306520552E-03    1.1234332950E-03
   </PP_CHI.2>
 </PP_PSWFC>
 <PP_RHOATOM type="real"  size="1300" columns="4">
    0.0000000000E+00    8.5411832062E-07    3.5795496560E-06    8.6657411183E-06
    1.6929161962E-05    2.9514380679E-05    4.7895554913E-05    7.3878316166E-05
    1.0960202612E-04    1.5754237617E-04    2.2051429680E-04    3.0167513791E-04
    4.0452807659E-04    5.3292570337E-04    6.9107373312E-04    8.8353478202E-04
    1.1152321471E-03    1.3914535201E-03    1.7178545640E-03    2.1004622749E-03
    2.5456780491E-03    3.0602803733E-03    3.6514270483E-03    4.3266568603E-03
    5.0938906063E-03    5.9614313826E-03    6.9379640414E-03    8.0325537239E-03
    9.2546433758E-03    1.0614050154E-02    1.2120960633E-02    1.3785924734E-02
    1.5619848272E-02    1.7633984074E-02    1.9839921564E-02    2.2249574774E-02
    2.4875168698E-02    2.7729223957E-02    3.0824539722E-02    3.4174174854E-02
    3.7791427252E-02    4.1689811378E-02    4.5883033966E-02    5.0384967915E-02
    5.5209624393E-02    6.0371123168E-02    6.5883661223E-02    7.1761479701E-02
    7.8018829242E-02    8.4669933799E-02    9.1728953012E-02    9.9209943247E-02
    1.0712681740E-01    1.1549330360E-01    1.2432290295E-01    1.3362884637E-01
    1.4342405084E-01    1.5372107501E-01    1.6453207454E-01    1.7586875711E-01
    1.8774233753E-01    2.0016349288E-01    2.1314231801E-01    2.2668828159E-01
    2.4081018278E-01    2.5551610876E-01    2.7081339343E-01    2.8670857715E-01
    3.0320736810E-01    3.2031460500E-01    3.3803422182E-01    3.5636921417E-01
    3.7532160796E-01    3.9489243017E-01    4.1508168201E-01    4.3588831462E-01
    4.5731020736E-01    4.7934414886E-01    5.0198582094E-01    5.2522978547E-01
    5.4906947426E-01    5.7349718206E-01    5.9850406276E-01    6.2408012880E-01
    6.5021425381E-01    6.7689417867E-01    7.0410652068E-01    7.3183678626E-01
    7.6006938676E-01    7.8878765774E-01    8.1797388129E-01    8.4760931177E-01
    8.7767420453E-01    9.0814784779E-01    9.3900859749E-01    9.7023391507E-01
    1.0018004080E+00    1.0336838731E+00    1.0658593421E+00    1.0983011302E+00
    1.1309828866E+00    1.1638776467E+00    1.1969578870E+00    1.2301955818E+00
    1.2635622607E+00    1.2970290683E+00    1.3305668247E+00    1.3641460878E+00
    1.3977372152E+00    1.4313104277E+00    1.4648358730E+00    1.4982836893E+00
    1.5316240694E+00    1.5648273241E+00    1.5978639454E+00    1.6307046693E+00
    1.6633205367E+00    1.6956829550E+00    1.7277637565E+00    1.7595352567E+00
    1.7909703103E+00    1.8220423655E+00    1.8527255162E+00    1.8829945519E+00
    1.9128250055E+00    1.9421931981E+00    1.9710762813E+00    1.9994522770E+00
    2.0273001134E+00    2.0545996590E+00    2.0813317524E+00    2.1074782295E+00
    2.1330219472E+00    2.1579468036E+00    2.1822377551E+00    2.2058808296E+00
    2.2288631366E+00    2.2511728740E+00    2.2727993309E+00    2.2937328878E+00
    2.3139650130E+00    2.3334882558E+00    2.3522962368E+00    2.3703836350E+00
    2.3877461719E+00    2.4043805933E+00    2.4202846474E+00    2.4354570617E+00
    2.4498975166E+00    2.4636066172E+00    2.4765858632E+00    2.4888376167E+00
    2.5003650687E+00    2.5111722038E+00    2.5212637643E+00    2.5306452125E+00
    2.5393226930E+00    2.5473029937E+00    2.5545935066E+00    2.5612021888E+00
    2.5671375229E+00    2.5724084777E+00    2.5770244697E+00    2.5809953244E+00
    2.5843312388E+00    2.5870427447E+00    2.5891406731E+00    2.5906361196E+00
    2.5915404112E+00    2.5918650738E+00    2.5916218015E+00    2.5908224277E+00
    2.5894788972E+00    2.5876032415E+00    2.5852075539E+00    2.5823039691E+00
    2.5789046441E+00    2.5750217420E+00    2.5706674161E+00    2.5658537948E+00
    2.5605929672E+00    2.5548969699E+00    2.5487777744E+00    2.5422472752E+00
    2.5353172788E+00    2.5279994935E+00    2.5203055197E+00    2.5122468412E+00
    2.5038348171E+00    2.4950806741E+00    2.4859955001E+00    2.4765902377E+00
    2.4668756790E+00    2.4568624601E+00    2.4465610571E+00    2.4359817822E+00
    2.4251347801E+00    2.4140300253E+00    2.4026773194E+00    2.3910862896E+00
    2.3792663866E+00    2.3672268837E+00    2.3549768758E+00    2.3425252791E+00
    2.3298808306E+00    2.3170520887E+00    2.3040474332E+00    2.2908750659E+00
    2.2775430119E+00    2.2640591205E+00    2.2504310661E+00    2.2366663504E+00
    2.2227723035E+00    2.2087560859E+00    2.1946246903E+00    2.1803849439E+00
    2.1660435101E+00    2.1516068911E+00    2.1370814300E+00    2.1224733133E+00
    2.1077885731E+00    2.0930330899E+00    2.0782125947E+00    2.0633326717E+00
    2.0483987611E+00    2.0334161610E+00    2.0183900307E+00    2.0033253927E+00
    1.9882271355E+00    1.9731000158E+00    1.9579486614E+00    1.9427775736E+00
    1.9275911294E+00    1.9123935840E+00    1.8971890735E+00    1.8819816167E+00
    1.8667751178E+00    1.8515733686E+00    1.8363800507E+00    1.8211987377E+00
    1.8060328970E+00    1.7908858927E+00    1.7757609868E+00    1.7606613415E+00
    1.7455900215E+00    1.7305499954E+00    1.7155441379E+00    1.7005752315E+00
    1.6856459681E+00    1.6707589512E+00    1.6559166971E+00    1.6411216369E+00
    1.6263761177E+00    1.6116824047E+00    1.5970426824E+00    1.5824590562E+00
    1.5679335539E+00    1.5534681270E+00    1.5390646523E+00    1.5247249329E+00
    1.5104506999E+00    1.4962436135E+00    1.4821052645E+00    1.4680371753E+00
    1.4540408022E+00    1.4401175367E+00    1.4262687072E+00    1.4124955801E+00
    1.3987993622E+00    1.3851812011E+00    1.3716421877E+00    1.3581833571E+00
    1.3448056899E+00    1.3315101142E+00    1.3182975063E+00    1.3051686926E+00
    1.2921244505E+00    1.2791655100E+00    1.2662925550E+00    1.2535062242E+00
    1.2408071127E+00    1.2281957731E+00    1.2156727166E+00    1.2032384144E+00
    1.1908932984E+00    1.1786377627E+00    1.1664721646E+00    1.1543968256E+00
    1.1424120326E+00    1.1305180387E+00    1.1187150644E+00    1.1070032983E+00
    1.0953828985E+00    1.0838539932E+00    1.0724166818E+00    1.0610710356E+00
    1.0498170988E+00    1.0386548896E+00    1.0275844005E+00    1.0166055995E+00
    1.0057184309E+00    9.9492281597E-01    9.8421865368E-01    9.7360582159E-01
    9.6308417645E-01    9.5265355500E-01    9.4231377459E-01    9.3206463391E-01
    9.2190591363E-01    9.1183737706E-01    9.0185877074E-01    8.9196982510E-01
    8.8217025502E-01    8.7245976046E-01    8.6283802697E-01    8.5330472627E-01
    8.4385951681E-01    8.3450204428E-01    8.2523194209E-01    8.1604883192E-01
    8.0695232419E-01    7.9794201852E-01    7.8901750418E-01    7.8017836058E-01
    7.7142415768E-01    7.6275445641E-01    7.5416880910E-01    7.4566675987E-01
    7.3724784503E-01    7.2891159346E-01    7.2065752696E-01    7.1248516065E-01
    7.0439400329E-01    6.9638355761E-01    6.8845332069E-01    6.8060278424E-01
    6.7283143492E-01    6.6513875464E-01    6.5752422089E-01    6.4998730698E-01
    6.4252748234E-01    6.3514421280E-01    6.2783696082E-01    6.2060518580E-01
    6.1344834426E-01    6.0636589015E-01    5.9935727502E-01    5.9242194829E-01
    5.8555935745E-01    5.7876894826E-01    5.7205016500E-01    5.6540245064E-01
    5.5882524701E-01    5.5231799505E-01    5.4588013493E-01    5.3951110626E-01
    5.3321034828E-01    5.2697729996E-01    5.2081140023E-01    5.1471208808E-01
    5.0867880277E-01    5.0271098392E-01    4.9680807166E-01    4.9096950680E-01
    4.8519473092E-01    4.7948318653E-01    4.7383431718E-01    4.6824756755E-01
    4.6272238362E-01    4.5725821274E-01    4.5185450373E-01    4.4651070704E-01
    4.4122627477E-01    4.3600066083E-01    4.3083332098E-01    4.2572371298E-01
    4.2067129660E-01    4.1567553377E-01    4.1073588862E-01    4.0585182756E-01
    4.0102281938E-01    3.9624833527E-01    3.9152784893E-01    3.8686083663E-01
    3.8224677722E-01    3.7768515228E-01    3.7317544609E-01    3.6871714572E-01
    3.6430974111E-01    3.5995272505E-01    3.5564559329E-01    3.5138784454E-01
    3.4717898056E-01    3.4301850613E-01    3.3890592918E-01    3.3484076072E-01
    3.3082251496E-01    3.2685070932E-01    3.2292486442E-01    3.1904450415E-01
    3.1520915569E-01    3.1141834953E-01    3.0767161948E-01    3.0396850272E-01
    3.0030853977E-01    2.9669127459E-01    2.9311625450E-01    2.8958303028E-01
    2.8609115612E-01    2.8264018966E-01    2.7922969203E-01    2.7585922778E-01
    2.7252836499E-01    2.6923667517E-01    2.6598373338E-01    2.6276911812E-01
    2.5959241143E-01    2.5645319882E-01    2.5335106933E-01    2.5028561548E-01
    2.4725643332E-01    2.4426312237E-01    2.4130528567E-01    2.3838252975E-01
    2.3549446462E-01    2.3264070380E-01    2.2982086426E-01    2.2703456647E-01
    2.2428143436E-01    2.2156109529E-01    2.1887318010E-01    2.1621732306E-01
    2.1359316187E-01    2.1100033763E-01    2.0843849486E-01    2.0590728147E-01
    2.0340634875E-01    2.0093535136E-01    1.9849394731E-01    1.9608179793E-01
    1.9369856792E-01    1.9134392523E-01    1.8901754113E-01    1.8671909018E-01
    1.8444825018E-01    1.8220470216E-01    1.7998813039E-01    1.7779822235E-01
    1.7563466869E-01    1.7349716324E-01    1.7138540298E-01    1.6929908802E-01
    1.6723792157E-01    1.6520160994E-01    1.6318986252E-01    1.6120239173E-01
    1.5923891304E-01    1.5729914490E-01    1.5538280879E-01    1.5348962911E-01
    1.5161933325E-01    1.4977165150E-01    1.4794631704E-01    1.4614306596E-01
    1.4436163720E-01    1.4260177251E-01    1.4086321650E-01    1.3914571653E-01
    1.3744902275E-01    1.3577288806E-01    1.3411706808E-01    1.3248132113E-01
    1.3086540820E-01    1.2926909295E-01    1.2769214169E-01    1.2613432330E-01
    1.2459540929E-01    1.2307517370E-01    1.2157339314E-01    1.2008984674E-01
    1.1862431611E-01    1.1717658534E-01    1.1574644098E-01    1.1433367202E-01
    1.1293806982E-01    1.1155942816E-01    1.1019754317E-01    1.0885221332E-01
    1.0752323939E-01    1.0621042447E-01    1.0491357391E-01    1.0363249531E-01
    1.0236699850E-01    1.0111689553E-01    9.9882000621E-02    9.8662130151E-02
    9.7457102649E-02    9.6266738759E-02    9.5090861225E-02    9.3929294863E-02
    9.2781866549E-02    9.1648405186E-02    9.0528741696E-02    8.9422708987E-02
    8.8330141941E-02    8.7250877388E-02    8.6184754088E-02    8.5131612709E-02
    8.4091295809E-02    8.3063647812E-02    8.2048514992E-02    8.1045745449E-02
    8.0055189095E-02    7.9076697626E-02    7.8110124511E-02    7.7155324966E-02
    7.6212155940E-02    7.5280476093E-02    7.4360145775E-02    7.3451027013E-02
    7.2552983488E-02    7.1665880517E-02    7.0789585036E-02    6.9923965580E-02
    6.9068892268E-02    6.8224236781E-02    6.7389872349E-02    6.6565673729E-02
    6.5751517189E-02    6.4947280492E-02    6.4152842880E-02    6.3368085051E-02
    6.2592889150E-02    6.1827138747E-02    6.1070718822E-02    6.0323515750E-02
    5.9585417282E-02    5.8856312531E-02    5.8136091958E-02    5.7424647350E-02
    5.6721871811E-02    5.6027659745E-02    5.5341906837E-02    5.4664510041E-02
    5.3995367568E-02    5.3334378863E-02    5.2681444598E-02    5.2036466655E-02
    5.1399348109E-02    5.0769993219E-02    5.0148307408E-02    4.9534197255E-02
    4.8927570476E-02    4.8328335914E-02    4.7736403523E-02    4.7151684357E-02
    4.6574090556E-02    4.6003535331E-02    4.5439932953E-02    4.4883198742E-02
    4.4333249051E-02    4.3790001253E-02    4.3253373733E-02    4.2723285872E-02
    4.2199658036E-02    4.1682411566E-02    4.1171468763E-02    4.0666752876E-02
    4.0168188095E-02    3.9675699536E-02    3.9189213230E-02    3.8708656112E-02
    3.8233956011E-02    3.7765041639E-02    3.7301842577E-02    3.6844289270E-02
    3.6392313011E-02    3.5945845935E-02    3.5504821006E-02    3.5069172006E-02
    3.4638833530E-02    3.4213740968E-02    3.3793830504E-02    3.3379039100E-02
    3.2969304489E-02    3.2564565165E-02    3.2164760373E-02    3.1769830101E-02
    3.1379715071E-02    3.0994356729E-02    3.0613697235E-02    3.0237679457E-02
    2.9866246961E-02    2.9499344001E-02    2.9136915513E-02    2.8778907106E-02
    2.8425265050E-02    2.8075936275E-02    2.7730868356E-02    2.7390009509E-02
    2.7053308582E-02    2.6720715046E-02    2.6392178990E-02    2.6067651112E-02
    2.5747082710E-02    2.5430425676E-02    2.5117632490E-02    2.4808656211E-02
    2.4503450468E-02    2.4201969460E-02    2.3904167938E-02    2.3610001211E-02
    2.3319425126E-02    2.3032396073E-02    2.2748870970E-02    2.2468807261E-02
    2.2192162908E-02    2.1918896385E-02    2.1648966671E-02    2.1382333244E-02
    2.1118956075E-02    2.0858795623E-02    2.0601812828E-02    2.0347969104E-02
    2.0097226335E-02    1.9849546867E-02    1.9604893506E-02    1.9363229510E-02
    1.9124518580E-02    1.8888724863E-02    1.8655812938E-02    1.8425747816E-02
    1.8198494933E-02    1.7974020143E-02    1.7752289716E-02    1.7533270332E-02
    1.7316929075E-02    1.7103233427E-02    1.6892151268E-02    1.6683650863E-02
    1.6477700866E-02    1.6274270310E-02    1.6073328604E-02    1.5874845525E-02
    1.5678791221E-02    1.5485136199E-02    1.5293851324E-02    1.5104907814E-02
    1.4918277238E-02    1.4733931505E-02    1.4551842869E-02    1.4371983917E-02
    1.4194327570E-02    1.4018847075E-02    1.3845516005E-02    1.3674308252E-02
    1.3505198024E-02    1.3338159842E-02    1.3173168533E-02    1.3010199233E-02
    1.2849227375E-02    1.2690228690E-02    1.2533179205E-02    1.2378055235E-02
    1.2224833381E-02    1.2073490530E-02    1.1924003844E-02    1.1776350766E-02
    1.1630509008E-02    1.1486456555E-02    1.1344171654E-02    1.1203632820E-02
    1.1064818823E-02    1.0927708692E-02    1.0792281711E-02    1.0658517411E-02
    1.0526395572E-02    1.0395896220E-02    1.0266999621E-02    1.0139686277E-02
    1.0013936931E-02    9.8897325545E-03    9.7670543501E-03    9.6458837480E-03
    9.5262024024E-03    9.4079921893E-03    9.2912352035E-03    9.1759137563E-03
    9.0620103728E-03    8.9495077891E-03    8.8383889497E-03    8.7286370056E-03
    8.6202353108E-03    8.5131674210E-03    8.4074170900E-03    8.3029682683E-03
    8.1998051001E-03    8.0979119211E-03    7.9972732564E-03    7.8978738180E-03
    7.7996985026E-03    7.7027323892E-03    7.6069607373E-03    7.5123689845E-03
    7.4189427441E-03    7.3266678036E-03    7.2355301218E-03    7.1455158274E-03
    7.0566112169E-03    6.9688027519E-03    6.8820770580E-03    6.7964209223E-03
    6.7118212916E-03    6.6282652705E-03    6.5457401193E-03    6.4642332523E-03
    6.3837322363E-03    6.3042247879E-03    6.2256987724E-03    6.1481422019E-03
    6.0715432333E-03    5.9958901667E-03    5.9211714437E-03    5.8473756458E-03
    5.7744914924E-03    5.7025078394E-03    5.6314136775E-03    5.5611981305E-03
    5.4918504539E-03    5.4233600330E-03    5.3557163818E-03    5.2889091410E-03
    5.2229280766E-03    5.1577630785E-03    5.0934041591E-03    5.0298414515E-03
    4.9670652084E-03    4.9050658004E-03    4.8438337147E-03    4.7833595537E-03
    4.7236340337E-03    4.6646479833E-03    4.6063923422E-03    4.5488581600E-03
    4.4920365946E-03    4.4359189110E-03    4.3804964801E-03    4.3257607776E-03
    4.2717033820E-03    4.2183159745E-03    4.1655903366E-03    4.1135183498E-03
    4.0620919940E-03    4.0113033462E-03    3.9611445796E-03    3.9116079624E-03
    3.8626858566E-03    3.8143707167E-03    3.7666550889E-03    3.7195316100E-03
    3.6729930059E-03    3.6270320910E-03    3.5816417668E-03    3.5368150212E-03
    3.4925449271E-03    3.4488246415E-03    3.4056474048E-03    3.3630065391E-03
    3.3208954481E-03    3.2793076153E-03    3.2382366036E-03    3.1976760542E-03
    3.1576196854E-03    3.1180612920E-03    3.0789947444E-03    3.0404139874E-03
    3.0023130395E-03    2.9646859919E-03    2.9275270078E-03    2.8908303215E-03
    2.8545902373E-03    2.8188011290E-03    2.7834574389E-03    2.7485536769E-03
    2.7140844198E-03    2.6800443105E-03    2.6464280571E-03    2.6132304322E-03
    2.5804462722E-03    2.5480704764E-03    2.5160980062E-03    2.4845238845E-03
    2.4533431949E-03    2.4225510810E-03    2.3921427456E-03    2.3621134501E-03
    2.3324585135E-03    2.3031733123E-03    2.2742532791E-03    2.2456939024E-03
    2.2174907258E-03    2.1896393474E-03    2.1621354189E-03    2.1349746452E-03
    2.1081527837E-03    2.0816656437E-03    2.0555090856E-03    2.0296790205E-03
    2.0041714093E-03    1.9789822627E-03    1.9541076398E-03    1.9295436481E-03
    1.9052864426E-03    1.8813322256E-03    1.8576772455E-03    1.8343177970E-03
    1.8112502199E-03    1.7884708989E-03    1.7659762631E-03    1.7437627852E-03
    1.7218269811E-03    1.7001654095E-03    1.6787746712E-03    1.6576514086E-03
    1.6367923055E-03    1.6161940860E-03    1.5958535148E-03    1.5757673958E-03
    1.5559325727E-03    1.5363459273E-03    1.5170043801E-03    1.4979048892E-03
    1.4790444502E-03    1.4604200954E-03    1.4420288937E-03    1.4238679498E-03
    1.4059344042E-03    1.3882254324E-03    1.3707382447E-03    1.3534700855E-03
    1.3364182332E-03    1.3195799998E-03    1.3029527301E-03    1.2865338016E-03
    1.2703206242E-03    1.2543106396E-03    1.2385013209E-03    1.2228901724E-03
    1.2074747290E-03    1.1922525562E-03    1.1772212490E-03    1.1623784326E-03
    1.1477217609E-03    1.1332489172E-03    1.1189576130E-03    1.1048455881E-03
    1.0909106101E-03    1.0771504742E-03    1.0635630029E-03    1.0501460452E-03
    1.0368974770E-03    1.0238152002E-03    1.0108971425E-03    9.9814125741E-04
    9.8554552353E-04    9.7310794445E-04    9.6082654840E-04    9.4869938796E-04
    9.3672453976E-04    9.2490010417E-04    9.1322420505E-04    9.0169498940E-04
    8.9031062716E-04    8.7906931084E-04    8.6796925534E-04    8.5700869758E-04
    8.4618589631E-04    8.3549913179E-04    8.2494670557E-04    8.1452694020E-04
    8.0423817898E-04    7.9407878571E-04    7.8404714444E-04    7.7414165922E-04
    7.6436075385E-04    7.5470287166E-04    7.4516647525E-04    7.3575004624E-04
    7.2645208509E-04    7.1727111083E-04    7.0820566081E-04    6.9925429054E-04
    6.9041557342E-04    6.8168810053E-04    6.7307048042E-04    6.6456133890E-04
    6.5615931881E-04    6.4786307983E-04    6.3967129827E-04    6.3158266686E-04
    6.2359589455E-04    6.1570970630E-04    6.0792284292E-04    6.0023406084E-04
    5.9264213193E-04    5.8514584330E-04    5.7774399714E-04    5.7043541052E-04
    5.6321891519E-04    5.5609335741E-04    5.4905759780E-04    5.4211051114E-04
    5.3525098616E-04    5.2847792545E-04    5.2179024521E-04    5.1518687514E-04
    5.0866675824E-04    5.0222885066E-04    4.9587212154E-04    4.8959555283E-04
    4.8339813916E-04    4.7727888768E-04    4.7123681789E-04    4.6527096148E-04
    4.5938036222E-04    4.5356407577E-04    4.4782116956E-04    4.4215072264E-04
    4.3655182552E-04    4.3102358004E-04    4.2556509924E-04    4.2017550720E-04
    4.1485393895E-04    4.0959954025E-04    4.0441146755E-04    3.9928888781E-04
    3.9423097836E-04    3.8923692681E-04    3.8430593089E-04    3.7943719835E-04
    3.7462994681E-04    3.6988340365E-04    3.6519680591E-04    3.6056940014E-04
    3.5600044231E-04    3.5148919764E-04    3.4703494056E-04    3.4263695456E-04
    3.3829453205E-04    3.3400697430E-04    3.2977359130E-04    3.2559370167E-04
    3.2146663253E-04    3.1739171941E-04    3.1336830616E-04    3.0939574481E-04
    3.0547339549E-04    3.0160062635E-04    2.9777681343E-04    2.9400134055E-04
    2.9027359928E-04    2.8659298876E-04    2.8295891567E-04    2.7937079410E-04
    2.7582804547E-04    2.7233009845E-04    2.6887638885E-04    2.6546635956E-04
    2.6209946040E-04    2.5877514814E-04    2.5549288629E-04    2.5225214511E-04
    2.4905240150E-04    2.4589313890E-04    2.4277384721E-04    2.3969402273E-04
    2.3665316807E-04    2.3365079208E-04    2.3068640975E-04    2.2775954216E-04
    2.2486971638E-04    2.2201646542E-04    2.1919932814E-04    2.1641784918E-04
    2.1367157888E-04    2.1096007325E-04    2.0828289382E-04    2.0563960767E-04
    2.0302978727E-04    2.0045301048E-04    1.9790886045E-04    1.9539692554E-04
    1.9291679930E-04    1.9046808038E-04    1.8805037244E-04    1.8566328416E-04
    1.8330642909E-04    1.8097942566E-04    1.7868189708E-04    1.7641347128E-04
    1.7417378088E-04    1.7196246311E-04    1.6977915975E-04    1.6762351709E-04
    1.6549518586E-04    1.6339382117E-04    1.6131908248E-04    1.5927063351E-04
    1.5724814221E-04    1.5525128073E-04    1.5327972530E-04    1.5133315625E-04
    1.4941125792E-04    1.4751371861E-04    1.4564023056E-04    1.4379048986E-04
    1.4196419643E-04    1.4016105397E-04    1.3838076989E-04    1.3662305531E-04
    1.3488762494E-04    1.3317419713E-04    1.3148249374E-04    1.2981224015E-04
    1.2816316517E-04    1.2653500104E-04    1.2492748338E-04    1.2334035113E-04
    1.2177334651E-04    1.2022621498E-04    1.1869870523E-04    1.1719056910E-04
    1.1570156154E-04    1.1423144061E-04    1.1277996741E-04    1.1134690604E-04
    1.0993202359E-04    1.0853509007E-04    1.0715587839E-04    1.0579416432E-04
    1.0444972646E-04    1.0312234621E-04    1.0181180769E-04    1.0051789778E-04
    9.9240406034E-05    9.7979124648E-05    9.6733848449E-05    9.5504374847E-05
    9.4290503807E-05    9.3092037815E-05    9.1908781850E-05    9.0740543351E-05
    8.9587132183E-05    8.8448360611E-05    8.7324043267E-05    8.6213997122E-05
    8.5118041458E-05    8.4035997834E-05    8.2967690062E-05    8.1912944179E-05
    8.0871588414E-05    7.9843453165E-05    7.8828370972E-05    7.7826176487E-05
    7.6836706451E-05    7.5859799665E-05    7.4895296964E-05    7.3943041194E-05
    7.3002877184E-05    7.2074651725E-05    7.1158213540E-05    7.0253413264E-05
    6.9360103417E-05    6.8478138383E-05    6.7607374385E-05    6.6747669461E-05
    6.5898883446E-05    6.5060877941E-05    6.4233516299E-05    6.3416663599E-05
    6.2610186623E-05    6.1813953839E-05    6.1027835375E-05    6.0251703002E-05
    5.9485430111E-05    5.8728891694E-05    5.7981964322E-05    5.7244526126E-05
    5.6516456780E-05    5.5797637477E-05    5.5087950914E-05    5.4387281269E-05
    5.3695514186E-05    5.3012536756E-05    5.2338237495E-05    5.1672506332E-05
    5.1015234586E-05    5.0366314952E-05    4.9725641482E-05    4.9093109568E-05
    4.8468615924E-05    4.7852058575E-05    4.7243336831E-05    4.6642351279E-05
    4.6049003763E-05    4.5463197370E-05    4.4884836412E-05    4.4313826413E-05
    4.3750074092E-05    4.3193487349E-05    4.2643975250E-05    4.2101448012E-05
    4.1565816988E-05    4.1036994652E-05    4.0514894590E-05    3.9999431478E-05
    3.9490521074E-05    3.8988080203E-05    3.8492026742E-05    3.8002279610E-05
    3.7518758749E-05    3.7041385119E-05    3.6570080679E-05    3.6104768377E-05
    3.5645372136E-05    3.5191816844E-05    3.4744028339E-05    3.4301933399E-05
    3.3865459730E-05    3.3434535954E-05    3.3009091596E-05    3.2589057077E-05
    3.2174363696E-05    3.1764943624E-05    3.1360729891E-05    3.0961656378E-05
    3.0567657800E-05    3.0178669703E-05    2.9794628449E-05    2.9415471204E-05
    2.9041135933E-05    2.8671561386E-05    2.8306687092E-05    2.7946453344E-05
    2.7590801192E-05    2.7239672434E-05    2.6893009606E-05    2.6550755973E-05
    2.6212855517E-05    2.5879252934E-05    2.5549893618E-05    2.5224723657E-05
    2.4903689823E-05    2.4586739561E-05    2.4273820986E-05    2.3964882867E-05
    2.3659874625E-05    2.3358746324E-05    2.3061448658E-05    2.2767932949E-05
    2.2478151135E-05    2.2192055763E-05    2.1909599986E-05    2.1630737546E-05
    2.1355422776E-05    2.1083610587E-05    2.0815256460E-05    2.0550316445E-05
    2.0288747145E-05    2.0030505719E-05    1.9775549864E-05    1.9523837819E-05
    1.9275328348E-05    1.9029980743E-05    1.8787754810E-05    1.8548610864E-05
    1.8312509727E-05    1.8079412716E-05    1.7849281640E-05    1.7622078792E-05
    1.7397766944E-05    1.7176309341E-05    1.6957669693E-05    1.6741812172E-05
    1.6528701406E-05    1.6318302471E-05    1.6110580884E-05    1.5905502604E-05
    1.5703034019E-05    1.5503141946E-05    1.5305793621E-05    1.5110956699E-05
    1.4918599244E-05    1.4728689724E-05    1.4541197011E-05    1.4356090370E-05
    1.4173339456E-05    1.3992914310E-05    1.3814785355E-05    1.3638923388E-05
    1.3465299577E-05    1.3293885456E-05    1.3124652921E-05    1.2957574226E-05
    1.2792621975E-05    1.2629769123E-05    1.2468988967E-05    1.2310255143E-05
    1.2153541621E-05    1.1998822705E-05    1.1846073022E-05    1.1695267523E-05
    1.1546381478E-05    1.1399390469E-05    1.1254270390E-05    1.1110997440E-05
    1.0969548123E-05    1.0829899239E-05    1.0692027883E-05    1.0555911443E-05
    1.0421527591E-05    1.0288854287E-05    1.0157869768E-05    1.0028552548E-05
    9.9008814149E-06    9.7748354261E-06    9.6503939048E-06    9.5275364372E-06
    9.4062428689E-06    9.2864933016E-06    9.1682680901E-06    9.0515478388E-06
    8.9363133985E-06    8.8225458638E-06    8.7102265693E-06    8.5993370871E-06
    8.4898592235E-06    8.3817750161E-06    8.2750667307E-06    8.1697168587E-06
    8.0657081141E-06    7.9630234306E-06    7.8616459592E-06    7.7615590646E-06
    7.6627463236E-06    7.5651915212E-06    7.4688786491E-06    7.3737919022E-06
    7.2799156765E-06    7.1872345665E-06    7.0957333626E-06    7.0053970485E-06
    6.9162107989E-06    6.8281599771E-06    6.7412301324E-06    6.6554069979E-06
    6.5706764883E-06    6.4870246972E-06    6.4044378954E-06    6.3229025280E-06
    6.2424052126E-06    6.1629327371E-06    6.0844720571E-06    6.0070102945E-06
    5.9305347349E-06    5.8550328257E-06    5.7804921737E-06    5.7069005436E-06
    5.6342458556E-06    5.5625161836E-06    5.4916997531E-06    5.4217849396E-06
    5.3527602663E-06    5.2846144027E-06    5.2173361619E-06    5.1509144999E-06
    5.0853385127E-06    5.0205974352E-06    4.9566806394E-06    4.8935776324E-06
    4.8312780549E-06    4.7697716793E-06    4.7090484080E-06    4.6490982721E-06
    4.5899114294E-06    4.5314781629E-06    4.4737888795E-06    4.4168341078E-06
    4.3606044971E-06    4.3050908158E-06    4.2502839495E-06    4.1961749000E-06
    4.1427547834E-06    4.0900148290E-06    4.0379463776E-06    3.9865408803E-06
    3.9357898970E-06    3.8856850949E-06    3.8362182472E-06    3.7873812320E-06
 </PP_RHOATOM>
</UPF>

END_PSP
