Begin PSP_UPF
<UPF version="2.0.1">
  <PP_INFO>

 This pseudopotential file has been produced using the code
 ONCVPSP  (Optimized Norm-Conservinng Vanderbilt PSeudopotential)
 scalar-relativistic version 4.0.1 06/04/2019 by D. R. Hamann
 The code is available through a link at URL www.mat-simresearch.com.
 Documentation with the package provides a full discription of the
 input data below.


 While it is not required under the terms of the GNU GPL, it is
 suggested that you cite D. R. Hamann, Phys. Rev. B 88, 085117 (2013)
 in any publication using these pseudopotentials.

    <PP_INPUTFILE>
# ATOM AND REFERENCE CONFIGURATION
# atsym  z   nc   nv     iexc    psfile
  Sb 51.00    8    3 -116133      upf
#
#   n    l    f        energy (Ha)
    1    0    2.00
    2    0    2.00
    2    1    6.00
    3    0    2.00
    3    1    6.00
    3    2   10.00
    4    0    2.00
    4    1    6.00
    4    2   10.00
    5    0    2.00
    5    1    3.00
#
# PSEUDOPOTENTIAL AND OPTIMIZATION
# lmax
    2
#
#   l,   rc,      ep,       ncon, nbas, qcut
    0   2.48127  -0.47153    5    8   3.02802
    1   3.00305  -0.17743    5    8   4.18686
    2   3.54887  -1.23138    5    8   7.04986
#
# LOCAL POTENTIAL
# lloc, lpopt,  rc(5),   dvloc0
    4    5   1.84146      0.00000
#
# VANDERBILT-KLEINMAN-BYLANDER PROJECTORs
# l, nproj, debl
    0    2   1.64815
    1    2   0.33483
    2    2   1.25296
#
# MODEL CORE CHARGE
# icmod, fcfact, rcfact
    0   0.00000   0.00000
#
# LOG DERIVATIVE ANALYSIS
# epsh1, epsh2, depsh
   -5.00    3.00    0.02
#
# OUTPUT GRID
# rlmax, drl
    6.00    0.01
#
# TEST CONFIGURATIONS
# ncnf
    0
# nvcnf
#   n    l    f
    </PP_INPUTFILE>
  </PP_INFO>
  <!--                               -->
  <!-- END OF HUMAN READABLE SECTION -->
  <!--                               -->
    <PP_HEADER
       generated="Generated using ONCVPSP code by D. R. Hamann"
       author="anonymous"
       date="251029"
       comment=""
       element="Sb"
       pseudo_type="NC"
       relativistic="scalar"
       is_ultrasoft="F"
       is_paw="F"
       is_coulomb="F"
       has_so="F"
       has_wfc="F"
       has_gipaw="F"
       core_correction="F"
       functional="PBESOL"
       z_valence="   15.00"
       total_psenergy="  -1.40732761218E+02"
       rho_cutoff="   1.42500000000E+01"
       l_max="2"
       l_local="-1"
       mesh_size="  1426"
       number_of_wfc="3"
       number_of_proj="6"/>
 <PP_MESH>
   <PP_R type="real"  size="1426" columns="8">
    0.0000    0.0100    0.0200    0.0300    0.0400    0.0500    0.0600    0.0700
    0.0800    0.0900    0.1000    0.1100    0.1200    0.1300    0.1400    0.1500
    0.1600    0.1700    0.1800    0.1900    0.2000    0.2100    0.2200    0.2300
    0.2400    0.2500    0.2600    0.2700    0.2800    0.2900    0.3000    0.3100
    0.3200    0.3300    0.3400    0.3500    0.3600    0.3700    0.3800    0.3900
    0.4000    0.4100    0.4200    0.4300    0.4400    0.4500    0.4600    0.4700
    0.4800    0.4900    0.5000    0.5100    0.5200    0.5300    0.5400    0.5500
    0.5600    0.5700    0.5800    0.5900    0.6000    0.6100    0.6200    0.6300
    0.6400    0.6500    0.6600    0.6700    0.6800    0.6900    0.7000    0.7100
    0.7200    0.7300    0.7400    0.7500    0.7600    0.7700    0.7800    0.7900
    0.8000    0.8100    0.8200    0.8300    0.8400    0.8500    0.8600    0.8700
    0.8800    0.8900    0.9000    0.9100    0.9200    0.9300    0.9400    0.9500
    0.9600    0.9700    0.9800    0.9900    1.0000    1.0100    1.0200    1.0300
    1.0400    1.0500    1.0600    1.0700    1.0800    1.0900    1.1000    1.1100
    1.1200    1.1300    1.1400    1.1500    1.1600    1.1700    1.1800    1.1900
    1.2000    1.2100    1.2200    1.2300    1.2400    1.2500    1.2600    1.2700
    1.2800    1.2900    1.3000    1.3100    1.3200    1.3300    1.3400    1.3500
    1.3600    1.3700    1.3800    1.3900    1.4000    1.4100    1.4200    1.4300
    1.4400    1.4500    1.4600    1.4700    1.4800    1.4900    1.5000    1.5100
    1.5200    1.5300    1.5400    1.5500    1.5600    1.5700    1.5800    1.5900
    1.6000    1.6100    1.6200    1.6300    1.6400    1.6500    1.6600    1.6700
    1.6800    1.6900    1.7000    1.7100    1.7200    1.7300    1.7400    1.7500
    1.7600    1.7700    1.7800    1.7900    1.8000    1.8100    1.8200    1.8300
    1.8400    1.8500    1.8600    1.8700    1.8800    1.8900    1.9000    1.9100
    1.9200    1.9300    1.9400    1.9500    1.9600    1.9700    1.9800    1.9900
    2.0000    2.0100    2.0200    2.0300    2.0400    2.0500    2.0600    2.0700
    2.0800    2.0900    2.1000    2.1100    2.1200    2.1300    2.1400    2.1500
    2.1600    2.1700    2.1800    2.1900    2.2000    2.2100    2.2200    2.2300
    2.2400    2.2500    2.2600    2.2700    2.2800    2.2900    2.3000    2.3100
    2.3200    2.3300    2.3400    2.3500    2.3600    2.3700    2.3800    2.3900
    2.4000    2.4100    2.4200    2.4300    2.4400    2.4500    2.4600    2.4700
    2.4800    2.4900    2.5000    2.5100    2.5200    2.5300    2.5400    2.5500
    2.5600    2.5700    2.5800    2.5900    2.6000    2.6100    2.6200    2.6300
    2.6400    2.6500    2.6600    2.6700    2.6800    2.6900    2.7000    2.7100
    2.7200    2.7300    2.7400    2.7500    2.7600    2.7700    2.7800    2.7900
    2.8000    2.8100    2.8200    2.8300    2.8400    2.8500    2.8600    2.8700
    2.8800    2.8900    2.9000    2.9100    2.9200    2.9300    2.9400    2.9500
    2.9600    2.9700    2.9800    2.9900    3.0000    3.0100    3.0200    3.0300
    3.0400    3.0500    3.0600    3.0700    3.0800    3.0900    3.1000    3.1100
    3.1200    3.1300    3.1400    3.1500    3.1600    3.1700    3.1800    3.1900
    3.2000    3.2100    3.2200    3.2300    3.2400    3.2500    3.2600    3.2700
    3.2800    3.2900    3.3000    3.3100    3.3200    3.3300    3.3400    3.3500
    3.3600    3.3700    3.3800    3.3900    3.4000    3.4100    3.4200    3.4300
    3.4400    3.4500    3.4600    3.4700    3.4800    3.4900    3.5000    3.5100
    3.5200    3.5300    3.5400    3.5500    3.5600    3.5700    3.5800    3.5900
    3.6000    3.6100    3.6200    3.6300    3.6400    3.6500    3.6600    3.6700
    3.6800    3.6900    3.7000    3.7100    3.7200    3.7300    3.7400    3.7500
    3.7600    3.7700    3.7800    3.7900    3.8000    3.8100    3.8200    3.8300
    3.8400    3.8500    3.8600    3.8700    3.8800    3.8900    3.9000    3.9100
    3.9200    3.9300    3.9400    3.9500    3.9600    3.9700    3.9800    3.9900
    4.0000    4.0100    4.0200    4.0300    4.0400    4.0500    4.0600    4.0700
    4.0800    4.0900    4.1000    4.1100    4.1200    4.1300    4.1400    4.1500
    4.1600    4.1700    4.1800    4.1900    4.2000    4.2100    4.2200    4.2300
    4.2400    4.2500    4.2600    4.2700    4.2800    4.2900    4.3000    4.3100
    4.3200    4.3300    4.3400    4.3500    4.3600    4.3700    4.3800    4.3900
    4.4000    4.4100    4.4200    4.4300    4.4400    4.4500    4.4600    4.4700
    4.4800    4.4900    4.5000    4.5100    4.5200    4.5300    4.5400    4.5500
    4.5600    4.5700    4.5800    4.5900    4.6000    4.6100    4.6200    4.6300
    4.6400    4.6500    4.6600    4.6700    4.6800    4.6900    4.7000    4.7100
    4.7200    4.7300    4.7400    4.7500    4.7600    4.7700    4.7800    4.7900
    4.8000    4.8100    4.8200    4.8300    4.8400    4.8500    4.8600    4.8700
    4.8800    4.8900    4.9000    4.9100    4.9200    4.9300    4.9400    4.9500
    4.9600    4.9700    4.9800    4.9900    5.0000    5.0100    5.0200    5.0300
    5.0400    5.0500    5.0600    5.0700    5.0800    5.0900    5.1000    5.1100
    5.1200    5.1300    5.1400    5.1500    5.1600    5.1700    5.1800    5.1900
    5.2000    5.2100    5.2200    5.2300    5.2400    5.2500    5.2600    5.2700
    5.2800    5.2900    5.3000    5.3100    5.3200    5.3300    5.3400    5.3500
    5.3600    5.3700    5.3800    5.3900    5.4000    5.4100    5.4200    5.4300
    5.4400    5.4500    5.4600    5.4700    5.4800    5.4900    5.5000    5.5100
    5.5200    5.5300    5.5400    5.5500    5.5600    5.5700    5.5800    5.5900
    5.6000    5.6100    5.6200    5.6300    5.6400    5.6500    5.6600    5.6700
    5.6800    5.6900    5.7000    5.7100    5.7200    5.7300    5.7400    5.7500
    5.7600    5.7700    5.7800    5.7900    5.8000    5.8100    5.8200    5.8300
    5.8400    5.8500    5.8600    5.8700    5.8800    5.8900    5.9000    5.9100
    5.9200    5.9300    5.9400    5.9500    5.9600    5.9700    5.9800    5.9900
    6.0000    6.0100    6.0200    6.0300    6.0400    6.0500    6.0600    6.0700
    6.0800    6.0900    6.1000    6.1100    6.1200    6.1300    6.1400    6.1500
    6.1600    6.1700    6.1800    6.1900    6.2000    6.2100    6.2200    6.2300
    6.2400    6.2500    6.2600    6.2700    6.2800    6.2900    6.3000    6.3100
    6.3200    6.3300    6.3400    6.3500    6.3600    6.3700    6.3800    6.3900
    6.4000    6.4100    6.4200    6.4300    6.4400    6.4500    6.4600    6.4700
    6.4800    6.4900    6.5000    6.5100    6.5200    6.5300    6.5400    6.5500
    6.5600    6.5700    6.5800    6.5900    6.6000    6.6100    6.6200    6.6300
    6.6400    6.6500    6.6600    6.6700    6.6800    6.6900    6.7000    6.7100
    6.7200    6.7300    6.7400    6.7500    6.7600    6.7700    6.7800    6.7900
    6.8000    6.8100    6.8200    6.8300    6.8400    6.8500    6.8600    6.8700
    6.8800    6.8900    6.9000    6.9100    6.9200    6.9300    6.9400    6.9500
    6.9600    6.9700    6.9800    6.9900    7.0000    7.0100    7.0200    7.0300
    7.0400    7.0500    7.0600    7.0700    7.0800    7.0900    7.1000    7.1100
    7.1200    7.1300    7.1400    7.1500    7.1600    7.1700    7.1800    7.1900
    7.2000    7.2100    7.2200    7.2300    7.2400    7.2500    7.2600    7.2700
    7.2800    7.2900    7.3000    7.3100    7.3200    7.3300    7.3400    7.3500
    7.3600    7.3700    7.3800    7.3900    7.4000    7.4100    7.4200    7.4300
    7.4400    7.4500    7.4600    7.4700    7.4800    7.4900    7.5000    7.5100
    7.5200    7.5300    7.5400    7.5500    7.5600    7.5700    7.5800    7.5900
    7.6000    7.6100    7.6200    7.6300    7.6400    7.6500    7.6600    7.6700
    7.6800    7.6900    7.7000    7.7100    7.7200    7.7300    7.7400    7.7500
    7.7600    7.7700    7.7800    7.7900    7.8000    7.8100    7.8200    7.8300
    7.8400    7.8500    7.8600    7.8700    7.8800    7.8900    7.9000    7.9100
    7.9200    7.9300    7.9400    7.9500    7.9600    7.9700    7.9800    7.9900
    8.0000    8.0100    8.0200    8.0300    8.0400    8.0500    8.0600    8.0700
    8.0800    8.0900    8.1000    8.1100    8.1200    8.1300    8.1400    8.1500
    8.1600    8.1700    8.1800    8.1900    8.2000    8.2100    8.2200    8.2300
    8.2400    8.2500    8.2600    8.2700    8.2800    8.2900    8.3000    8.3100
    8.3200    8.3300    8.3400    8.3500    8.3600    8.3700    8.3800    8.3900
    8.4000    8.4100    8.4200    8.4300    8.4400    8.4500    8.4600    8.4700
    8.4800    8.4900    8.5000    8.5100    8.5200    8.5300    8.5400    8.5500
    8.5600    8.5700    8.5800    8.5900    8.6000    8.6100    8.6200    8.6300
    8.6400    8.6500    8.6600    8.6700    8.6800    8.6900    8.7000    8.7100
    8.7200    8.7300    8.7400    8.7500    8.7600    8.7700    8.7800    8.7900
    8.8000    8.8100    8.8200    8.8300    8.8400    8.8500    8.8600    8.8700
    8.8800    8.8900    8.9000    8.9100    8.9200    8.9300    8.9400    8.9500
    8.9600    8.9700    8.9800    8.9900    9.0000    9.0100    9.0200    9.0300
    9.0400    9.0500    9.0600    9.0700    9.0800    9.0900    9.1000    9.1100
    9.1200    9.1300    9.1400    9.1500    9.1600    9.1700    9.1800    9.1900
    9.2000    9.2100    9.2200    9.2300    9.2400    9.2500    9.2600    9.2700
    9.2800    9.2900    9.3000    9.3100    9.3200    9.3300    9.3400    9.3500
    9.3600    9.3700    9.3800    9.3900    9.4000    9.4100    9.4200    9.4300
    9.4400    9.4500    9.4600    9.4700    9.4800    9.4900    9.5000    9.5100
    9.5200    9.5300    9.5400    9.5500    9.5600    9.5700    9.5800    9.5900
    9.6000    9.6100    9.6200    9.6300    9.6400    9.6500    9.6600    9.6700
    9.6800    9.6900    9.7000    9.7100    9.7200    9.7300    9.7400    9.7500
    9.7600    9.7700    9.7800    9.7900    9.8000    9.8100    9.8200    9.8300
    9.8400    9.8500    9.8600    9.8700    9.8800    9.8900    9.9000    9.9100
    9.9200    9.9300    9.9400    9.9500    9.9600    9.9700    9.9800    9.9900
   10.0000   10.0100   10.0200   10.0300   10.0400   10.0500   10.0600   10.0700
   10.0800   10.0900   10.1000   10.1100   10.1200   10.1300   10.1400   10.1500
   10.1600   10.1700   10.1800   10.1900   10.2000   10.2100   10.2200   10.2300
   10.2400   10.2500   10.2600   10.2700   10.2800   10.2900   10.3000   10.3100
   10.3200   10.3300   10.3400   10.3500   10.3600   10.3700   10.3800   10.3900
   10.4000   10.4100   10.4200   10.4300   10.4400   10.4500   10.4600   10.4700
   10.4800   10.4900   10.5000   10.5100   10.5200   10.5300   10.5400   10.5500
   10.5600   10.5700   10.5800   10.5900   10.6000   10.6100   10.6200   10.6300
   10.6400   10.6500   10.6600   10.6700   10.6800   10.6900   10.7000   10.7100
   10.7200   10.7300   10.7400   10.7500   10.7600   10.7700   10.7800   10.7900
   10.8000   10.8100   10.8200   10.8300   10.8400   10.8500   10.8600   10.8700
   10.8800   10.8900   10.9000   10.9100   10.9200   10.9300   10.9400   10.9500
   10.9600   10.9700   10.9800   10.9900   11.0000   11.0100   11.0200   11.0300
   11.0400   11.0500   11.0600   11.0700   11.0800   11.0900   11.1000   11.1100
   11.1200   11.1300   11.1400   11.1500   11.1600   11.1700   11.1800   11.1900
   11.2000   11.2100   11.2200   11.2300   11.2400   11.2500   11.2600   11.2700
   11.2800   11.2900   11.3000   11.3100   11.3200   11.3300   11.3400   11.3500
   11.3600   11.3700   11.3800   11.3900   11.4000   11.4100   11.4200   11.4300
   11.4400   11.4500   11.4600   11.4700   11.4800   11.4900   11.5000   11.5100
   11.5200   11.5300   11.5400   11.5500   11.5600   11.5700   11.5800   11.5900
   11.6000   11.6100   11.6200   11.6300   11.6400   11.6500   11.6600   11.6700
   11.6800   11.6900   11.7000   11.7100   11.7200   11.7300   11.7400   11.7500
   11.7600   11.7700   11.7800   11.7900   11.8000   11.8100   11.8200   11.8300
   11.8400   11.8500   11.8600   11.8700   11.8800   11.8900   11.9000   11.9100
   11.9200   11.9300   11.9400   11.9500   11.9600   11.9700   11.9800   11.9900
   12.0000   12.0100   12.0200   12.0300   12.0400   12.0500   12.0600   12.0700
   12.0800   12.0900   12.1000   12.1100   12.1200   12.1300   12.1400   12.1500
   12.1600   12.1700   12.1800   12.1900   12.2000   12.2100   12.2200   12.2300
   12.2400   12.2500   12.2600   12.2700   12.2800   12.2900   12.3000   12.3100
   12.3200   12.3300   12.3400   12.3500   12.3600   12.3700   12.3800   12.3900
   12.4000   12.4100   12.4200   12.4300   12.4400   12.4500   12.4600   12.4700
   12.4800   12.4900   12.5000   12.5100   12.5200   12.5300   12.5400   12.5500
   12.5600   12.5700   12.5800   12.5900   12.6000   12.6100   12.6200   12.6300
   12.6400   12.6500   12.6600   12.6700   12.6800   12.6900   12.7000   12.7100
   12.7200   12.7300   12.7400   12.7500   12.7600   12.7700   12.7800   12.7900
   12.8000   12.8100   12.8200   12.8300   12.8400   12.8500   12.8600   12.8700
   12.8800   12.8900   12.9000   12.9100   12.9200   12.9300   12.9400   12.9500
   12.9600   12.9700   12.9800   12.9900   13.0000   13.0100   13.0200   13.0300
   13.0400   13.0500   13.0600   13.0700   13.0800   13.0900   13.1000   13.1100
   13.1200   13.1300   13.1400   13.1500   13.1600   13.1700   13.1800   13.1900
   13.2000   13.2100   13.2200   13.2300   13.2400   13.2500   13.2600   13.2700
   13.2800   13.2900   13.3000   13.3100   13.3200   13.3300   13.3400   13.3500
   13.3600   13.3700   13.3800   13.3900   13.4000   13.4100   13.4200   13.4300
   13.4400   13.4500   13.4600   13.4700   13.4800   13.4900   13.5000   13.5100
   13.5200   13.5300   13.5400   13.5500   13.5600   13.5700   13.5800   13.5900
   13.6000   13.6100   13.6200   13.6300   13.6400   13.6500   13.6600   13.6700
   13.6800   13.6900   13.7000   13.7100   13.7200   13.7300   13.7400   13.7500
   13.7600   13.7700   13.7800   13.7900   13.8000   13.8100   13.8200   13.8300
   13.8400   13.8500   13.8600   13.8700   13.8800   13.8900   13.9000   13.9100
   13.9200   13.9300   13.9400   13.9500   13.9600   13.9700   13.9800   13.9900
   14.0000   14.0100   14.0200   14.0300   14.0400   14.0500   14.0600   14.0700
   14.0800   14.0900   14.1000   14.1100   14.1200   14.1300   14.1400   14.1500
   14.1600   14.1700   14.1800   14.1900   14.2000   14.2100   14.2200   14.2300
   14.2400   14.2500
   </PP_R>
   <PP_RAB type="real"  size="1426" columns="8">
    0.0100    0.0100    0.0100    0.0100    0.0100    0.0100    0.0100    0.0100
    0.0100    0.0100    0.0100    0.0100    0.0100    0.0100    0.0100    0.0100
    0.0100    0.0100    0.0100    0.0100    0.0100    0.0100    0.0100    0.0100
    0.0100    0.0100    0.0100    0.0100    0.0100    0.0100    0.0100    0.0100
    0.0100    0.0100    0.0100    0.0100    0.0100    0.0100    0.0100    0.0100
    0.0100    0.0100    0.0100    0.0100    0.0100    0.0100    0.0100    0.0100
    0.0100    0.0100    0.0100    0.0100    0.0100    0.0100    0.0100    0.0100
    0.0100    0.0100    0.0100    0.0100    0.0100    0.0100    0.0100    0.0100
    0.0100    0.0100    0.0100    0.0100    0.0100    0.0100    0.0100    0.0100
    0.0100    0.0100    0.0100    0.0100    0.0100    0.0100    0.0100    0.0100
    0.0100    0.0100    0.0100    0.0100    0.0100    0.0100    0.0100    0.0100
    0.0100    0.0100    0.0100    0.0100    0.0100    0.0100    0.0100    0.0100
    0.0100    0.0100    0.0100    0.0100    0.0100    0.0100    0.0100    0.0100
    0.0100    0.0100    0.0100    0.0100    0.0100    0.0100    0.0100    0.0100
    0.0100    0.0100    0.0100    0.0100    0.0100    0.0100    0.0100    0.0100
    0.0100    0.0100    0.0100    0.0100    0.0100    0.0100    0.0100    0.0100
    0.0100    0.0100    0.0100    0.0100    0.0100    0.0100    0.0100    0.0100
    0.0100    0.0100    0.0100    0.0100    0.0100    0.0100    0.0100    0.0100
    0.0100    0.0100    0.0100    0.0100    0.0100    0.0100    0.0100    0.0100
    0.0100    0.0100    0.0100    0.0100    0.0100    0.0100    0.0100    0.0100
    0.0100    0.0100    0.0100    0.0100    0.0100    0.0100    0.0100    0.0100
    0.0100    0.0100    0.0100    0.0100    0.0100    0.0100    0.0100    0.0100
    0.0100    0.0100    0.0100    0.0100    0.0100    0.0100    0.0100    0.0100
    0.0100    0.0100    0.0100    0.0100    0.0100    0.0100    0.0100    0.0100
    0.0100    0.0100    0.0100    0.0100    0.0100    0.0100    0.0100    0.0100
    0.0100    0.0100    0.0100    0.0100    0.0100    0.0100    0.0100    0.0100
    0.0100    0.0100    0.0100    0.0100    0.0100    0.0100    0.0100    0.0100
    0.0100    0.0100    0.0100    0.0100    0.0100    0.0100    0.0100    0.0100
    0.0100    0.0100    0.0100    0.0100    0.0100    0.0100    0.0100    0.0100
    0.0100    0.0100    0.0100    0.0100    0.0100    0.0100    0.0100    0.0100
    0.0100    0.0100    0.0100    0.0100    0.0100    0.0100    0.0100    0.0100
    0.0100    0.0100    0.0100    0.0100    0.0100    0.0100    0.0100    0.0100
    0.0100    0.0100    0.0100    0.0100    0.0100    0.0100    0.0100    0.0100
    0.0100    0.0100    0.0100    0.0100    0.0100    0.0100    0.0100    0.0100
    0.0100    0.0100    0.0100    0.0100    0.0100    0.0100    0.0100    0.0100
    0.0100    0.0100    0.0100    0.0100    0.0100    0.0100    0.0100    0.0100
    0.0100    0.0100    0.0100    0.0100    0.0100    0.0100    0.0100    0.0100
    0.0100    0.0100    0.0100    0.0100    0.0100    0.0100    0.0100    0.0100
    0.0100    0.0100    0.0100    0.0100    0.0100    0.0100    0.0100    0.0100
    0.0100    0.0100    0.0100    0.0100    0.0100    0.0100    0.0100    0.0100
    0.0100    0.0100    0.0100    0.0100    0.0100    0.0100    0.0100    0.0100
    0.0100    0.0100    0.0100    0.0100    0.0100    0.0100    0.0100    0.0100
    0.0100    0.0100    0.0100    0.0100    0.0100    0.0100    0.0100    0.0100
    0.0100    0.0100    0.0100    0.0100    0.0100    0.0100    0.0100    0.0100
    0.0100    0.0100    0.0100    0.0100    0.0100    0.0100    0.0100    0.0100
    0.0100    0.0100    0.0100    0.0100    0.0100    0.0100    0.0100    0.0100
    0.0100    0.0100    0.0100    0.0100    0.0100    0.0100    0.0100    0.0100
    0.0100    0.0100    0.0100    0.0100    0.0100    0.0100    0.0100    0.0100
    0.0100    0.0100    0.0100    0.0100    0.0100    0.0100    0.0100    0.0100
    0.0100    0.0100    0.0100    0.0100    0.0100    0.0100    0.0100    0.0100
    0.0100    0.0100    0.0100    0.0100    0.0100    0.0100    0.0100    0.0100
    0.0100    0.0100    0.0100    0.0100    0.0100    0.0100    0.0100    0.0100
    0.0100    0.0100    0.0100    0.0100    0.0100    0.0100    0.0100    0.0100
    0.0100    0.0100    0.0100    0.0100    0.0100    0.0100    0.0100    0.0100
    0.0100    0.0100    0.0100    0.0100    0.0100    0.0100    0.0100    0.0100
    0.0100    0.0100    0.0100    0.0100    0.0100    0.0100    0.0100    0.0100
    0.0100    0.0100    0.0100    0.0100    0.0100    0.0100    0.0100    0.0100
    0.0100    0.0100    0.0100    0.0100    0.0100    0.0100    0.0100    0.0100
    0.0100    0.0100    0.0100    0.0100    0.0100    0.0100    0.0100    0.0100
    0.0100    0.0100    0.0100    0.0100    0.0100    0.0100    0.0100    0.0100
    0.0100    0.0100    0.0100    0.0100    0.0100    0.0100    0.0100    0.0100
    0.0100    0.0100    0.0100    0.0100    0.0100    0.0100    0.0100    0.0100
    0.0100    0.0100    0.0100    0.0100    0.0100    0.0100    0.0100    0.0100
    0.0100    0.0100    0.0100    0.0100    0.0100    0.0100    0.0100    0.0100
    0.0100    0.0100    0.0100    0.0100    0.0100    0.0100    0.0100    0.0100
    0.0100    0.0100    0.0100    0.0100    0.0100    0.0100    0.0100    0.0100
    0.0100    0.0100    0.0100    0.0100    0.0100    0.0100    0.0100    0.0100
    0.0100    0.0100    0.0100    0.0100    0.0100    0.0100    0.0100    0.0100
    0.0100    0.0100    0.0100    0.0100    0.0100    0.0100    0.0100    0.0100
    0.0100    0.0100    0.0100    0.0100    0.0100    0.0100    0.0100    0.0100
    0.0100    0.0100    0.0100    0.0100    0.0100    0.0100    0.0100    0.0100
    0.0100    0.0100    0.0100    0.0100    0.0100    0.0100    0.0100    0.0100
    0.0100    0.0100    0.0100    0.0100    0.0100    0.0100    0.0100    0.0100
    0.0100    0.0100    0.0100    0.0100    0.0100    0.0100    0.0100    0.0100
    0.0100    0.0100    0.0100    0.0100    0.0100    0.0100    0.0100    0.0100
    0.0100    0.0100    0.0100    0.0100    0.0100    0.0100    0.0100    0.0100
    0.0100    0.0100    0.0100    0.0100    0.0100    0.0100    0.0100    0.0100
    0.0100    0.0100    0.0100    0.0100    0.0100    0.0100    0.0100    0.0100
    0.0100    0.0100    0.0100    0.0100    0.0100    0.0100    0.0100    0.0100
    0.0100    0.0100    0.0100    0.0100    0.0100    0.0100    0.0100    0.0100
    0.0100    0.0100    0.0100    0.0100    0.0100    0.0100    0.0100    0.0100
    0.0100    0.0100    0.0100    0.0100    0.0100    0.0100    0.0100    0.0100
    0.0100    0.0100    0.0100    0.0100    0.0100    0.0100    0.0100    0.0100
    0.0100    0.0100    0.0100    0.0100    0.0100    0.0100    0.0100    0.0100
    0.0100    0.0100    0.0100    0.0100    0.0100    0.0100    0.0100    0.0100
    0.0100    0.0100    0.0100    0.0100    0.0100    0.0100    0.0100    0.0100
    0.0100    0.0100    0.0100    0.0100    0.0100    0.0100    0.0100    0.0100
    0.0100    0.0100    0.0100    0.0100    0.0100    0.0100    0.0100    0.0100
    0.0100    0.0100    0.0100    0.0100    0.0100    0.0100    0.0100    0.0100
    0.0100    0.0100    0.0100    0.0100    0.0100    0.0100    0.0100    0.0100
    0.0100    0.0100    0.0100    0.0100    0.0100    0.0100    0.0100    0.0100
    0.0100    0.0100    0.0100    0.0100    0.0100    0.0100    0.0100    0.0100
    0.0100    0.0100    0.0100    0.0100    0.0100    0.0100    0.0100    0.0100
    0.0100    0.0100    0.0100    0.0100    0.0100    0.0100    0.0100    0.0100
    0.0100    0.0100    0.0100    0.0100    0.0100    0.0100    0.0100    0.0100
    0.0100    0.0100    0.0100    0.0100    0.0100    0.0100    0.0100    0.0100
    0.0100    0.0100    0.0100    0.0100    0.0100    0.0100    0.0100    0.0100
    0.0100    0.0100    0.0100    0.0100    0.0100    0.0100    0.0100    0.0100
    0.0100    0.0100    0.0100    0.0100    0.0100    0.0100    0.0100    0.0100
    0.0100    0.0100    0.0100    0.0100    0.0100    0.0100    0.0100    0.0100
    0.0100    0.0100    0.0100    0.0100    0.0100    0.0100    0.0100    0.0100
    0.0100    0.0100    0.0100    0.0100    0.0100    0.0100    0.0100    0.0100
    0.0100    0.0100    0.0100    0.0100    0.0100    0.0100    0.0100    0.0100
    0.0100    0.0100    0.0100    0.0100    0.0100    0.0100    0.0100    0.0100
    0.0100    0.0100    0.0100    0.0100    0.0100    0.0100    0.0100    0.0100
    0.0100    0.0100    0.0100    0.0100    0.0100    0.0100    0.0100    0.0100
    0.0100    0.0100    0.0100    0.0100    0.0100    0.0100    0.0100    0.0100
    0.0100    0.0100    0.0100    0.0100    0.0100    0.0100    0.0100    0.0100
    0.0100    0.0100    0.0100    0.0100    0.0100    0.0100    0.0100    0.0100
    0.0100    0.0100    0.0100    0.0100    0.0100    0.0100    0.0100    0.0100
    0.0100    0.0100    0.0100    0.0100    0.0100    0.0100    0.0100    0.0100
    0.0100    0.0100    0.0100    0.0100    0.0100    0.0100    0.0100    0.0100
    0.0100    0.0100    0.0100    0.0100    0.0100    0.0100    0.0100    0.0100
    0.0100    0.0100    0.0100    0.0100    0.0100    0.0100    0.0100    0.0100
    0.0100    0.0100    0.0100    0.0100    0.0100    0.0100    0.0100    0.0100
    0.0100    0.0100    0.0100    0.0100    0.0100    0.0100    0.0100    0.0100
    0.0100    0.0100    0.0100    0.0100    0.0100    0.0100    0.0100    0.0100
    0.0100    0.0100    0.0100    0.0100    0.0100    0.0100    0.0100    0.0100
    0.0100    0.0100    0.0100    0.0100    0.0100    0.0100    0.0100    0.0100
    0.0100    0.0100    0.0100    0.0100    0.0100    0.0100    0.0100    0.0100
    0.0100    0.0100    0.0100    0.0100    0.0100    0.0100    0.0100    0.0100
    0.0100    0.0100    0.0100    0.0100    0.0100    0.0100    0.0100    0.0100
    0.0100    0.0100    0.0100    0.0100    0.0100    0.0100    0.0100    0.0100
    0.0100    0.0100    0.0100    0.0100    0.0100    0.0100    0.0100    0.0100
    0.0100    0.0100    0.0100    0.0100    0.0100    0.0100    0.0100    0.0100
    0.0100    0.0100    0.0100    0.0100    0.0100    0.0100    0.0100    0.0100
    0.0100    0.0100    0.0100    0.0100    0.0100    0.0100    0.0100    0.0100
    0.0100    0.0100    0.0100    0.0100    0.0100    0.0100    0.0100    0.0100
    0.0100    0.0100    0.0100    0.0100    0.0100    0.0100    0.0100    0.0100
    0.0100    0.0100    0.0100    0.0100    0.0100    0.0100    0.0100    0.0100
    0.0100    0.0100    0.0100    0.0100    0.0100    0.0100    0.0100    0.0100
    0.0100    0.0100    0.0100    0.0100    0.0100    0.0100    0.0100    0.0100
    0.0100    0.0100    0.0100    0.0100    0.0100    0.0100    0.0100    0.0100
    0.0100    0.0100    0.0100    0.0100    0.0100    0.0100    0.0100    0.0100
    0.0100    0.0100    0.0100    0.0100    0.0100    0.0100    0.0100    0.0100
    0.0100    0.0100    0.0100    0.0100    0.0100    0.0100    0.0100    0.0100
    0.0100    0.0100    0.0100    0.0100    0.0100    0.0100    0.0100    0.0100
    0.0100    0.0100    0.0100    0.0100    0.0100    0.0100    0.0100    0.0100
    0.0100    0.0100    0.0100    0.0100    0.0100    0.0100    0.0100    0.0100
    0.0100    0.0100    0.0100    0.0100    0.0100    0.0100    0.0100    0.0100
    0.0100    0.0100    0.0100    0.0100    0.0100    0.0100    0.0100    0.0100
    0.0100    0.0100    0.0100    0.0100    0.0100    0.0100    0.0100    0.0100
    0.0100    0.0100    0.0100    0.0100    0.0100    0.0100    0.0100    0.0100
    0.0100    0.0100    0.0100    0.0100    0.0100    0.0100    0.0100    0.0100
    0.0100    0.0100    0.0100    0.0100    0.0100    0.0100    0.0100    0.0100
    0.0100    0.0100    0.0100    0.0100    0.0100    0.0100    0.0100    0.0100
    0.0100    0.0100    0.0100    0.0100    0.0100    0.0100    0.0100    0.0100
    0.0100    0.0100    0.0100    0.0100    0.0100    0.0100    0.0100    0.0100
    0.0100    0.0100    0.0100    0.0100    0.0100    0.0100    0.0100    0.0100
    0.0100    0.0100    0.0100    0.0100    0.0100    0.0100    0.0100    0.0100
    0.0100    0.0100    0.0100    0.0100    0.0100    0.0100    0.0100    0.0100
    0.0100    0.0100    0.0100    0.0100    0.0100    0.0100    0.0100    0.0100
    0.0100    0.0100    0.0100    0.0100    0.0100    0.0100    0.0100    0.0100
    0.0100    0.0100    0.0100    0.0100    0.0100    0.0100    0.0100    0.0100
    0.0100    0.0100    0.0100    0.0100    0.0100    0.0100    0.0100    0.0100
    0.0100    0.0100    0.0100    0.0100    0.0100    0.0100    0.0100    0.0100
    0.0100    0.0100    0.0100    0.0100    0.0100    0.0100    0.0100    0.0100
    0.0100    0.0100    0.0100    0.0100    0.0100    0.0100    0.0100    0.0100
    0.0100    0.0100    0.0100    0.0100    0.0100    0.0100    0.0100    0.0100
    0.0100    0.0100    0.0100    0.0100    0.0100    0.0100    0.0100    0.0100
    0.0100    0.0100    0.0100    0.0100    0.0100    0.0100    0.0100    0.0100
    0.0100    0.0100    0.0100    0.0100    0.0100    0.0100    0.0100    0.0100
    0.0100    0.0100    0.0100    0.0100    0.0100    0.0100    0.0100    0.0100
    0.0100    0.0100    0.0100    0.0100    0.0100    0.0100    0.0100    0.0100
    0.0100    0.0100    0.0100    0.0100    0.0100    0.0100    0.0100    0.0100
    0.0100    0.0100    0.0100    0.0100    0.0100    0.0100    0.0100    0.0100
    0.0100    0.0100    0.0100    0.0100    0.0100    0.0100    0.0100    0.0100
    0.0100    0.0100    0.0100    0.0100    0.0100    0.0100    0.0100    0.0100
    0.0100    0.0100    0.0100    0.0100    0.0100    0.0100    0.0100    0.0100
    0.0100    0.0100    0.0100    0.0100    0.0100    0.0100    0.0100    0.0100
    0.0100    0.0100    0.0100    0.0100    0.0100    0.0100    0.0100    0.0100
    0.0100    0.0100    0.0100    0.0100    0.0100    0.0100    0.0100    0.0100
    0.0100    0.0100    0.0100    0.0100    0.0100    0.0100    0.0100    0.0100
    0.0100    0.0100    0.0100    0.0100    0.0100    0.0100    0.0100    0.0100
    0.0100    0.0100    0.0100    0.0100    0.0100    0.0100    0.0100    0.0100
    0.0100    0.0100    0.0100    0.0100    0.0100    0.0100    0.0100    0.0100
    0.0100    0.0100    0.0100    0.0100    0.0100    0.0100    0.0100    0.0100
    0.0100    0.0100    0.0100    0.0100    0.0100    0.0100    0.0100    0.0100
    0.0100    0.0100
   </PP_RAB>
 </PP_MESH>
  <PP_LOCAL type="real"  size="1426" columns="4">
   -2.4082360369E+01   -3.1986133307E+01   -3.2293038632E+01   -3.3108988295E+01
   -3.4352938142E+01   -3.4913107778E+01   -3.4165710992E+01   -3.3148942430E+01
   -3.2600983404E+01   -3.2432912198E+01   -3.2414701331E+01   -3.2427288758E+01
   -3.2433101264E+01   -3.2426087313E+01   -3.2408465582E+01   -3.2383346923E+01
   -3.2353123346E+01   -3.2319436191E+01   -3.2283421132E+01   -3.2245915207E+01
   -3.2207586110E+01   -3.2169002311E+01   -3.2130665673E+01   -3.2093021611E+01
   -3.2056455887E+01   -3.2021283517E+01   -3.1987733278E+01   -3.1955930404E+01
   -3.1925879761E+01   -3.1897451654E+01   -3.1870372402E+01   -3.1844221606E+01
   -3.1818437654E+01   -3.1792332407E+01   -3.1765115168E+01   -3.1735925122E+01
   -3.1703870454E+01   -3.1668071580E+01   -3.1627705339E+01   -3.1582046820E+01
   -3.1530505675E+01   -3.1472654273E+01   -3.1408245861E+01   -3.1337221779E+01
   -3.1259707718E+01   -3.1175999847E+01   -3.1086542306E+01   -3.0991898125E+01
   -3.0892715892E+01   -3.0789694684E+01   -3.0683549721E+01   -3.0574980943E+01
   -3.0464646348E+01   -3.0353141319E+01   -3.0240984579E+01   -3.0128610714E+01
   -3.0016368684E+01   -2.9904525278E+01   -2.9793272234E+01   -2.9682735725E+01
   -2.9572986963E+01   -2.9464052924E+01   -2.9355926431E+01   -2.9248575121E+01
   -2.9141949030E+01   -2.9035986745E+01   -2.8930620180E+01   -2.8825778123E+01
   -2.8721388753E+01   -2.8617381310E+01   -2.8513687113E+01   -2.8410240088E+01
   -2.8306976955E+01   -2.8203837173E+01   -2.8100762741E+01   -2.7997697926E+01
   -2.7894588962E+01   -2.7791383757E+01   -2.7688031636E+01   -2.7584483142E+01
   -2.7480689889E+01   -2.7376604492E+01   -2.7272180562E+01   -2.7167372772E+01
   -2.7062136976E+01   -2.6956430401E+01   -2.6850211873E+01   -2.6743442088E+01
   -2.6636083912E+01   -2.6528102698E+01   -2.6419466610E+01   -2.6310146938E+01
   -2.6200118403E+01   -2.6089359431E+01   -2.5977852394E+01   -2.5865583809E+01
   -2.5752544488E+01   -2.5638729631E+01   -2.5524138875E+01   -2.5408776270E+01
   -2.5292650219E+01   -2.5175773355E+01   -2.5058162371E+01   -2.4939837818E+01
   -2.4820823852E+01   -2.4701147965E+01   -2.4580840690E+01   -2.4459935291E+01
   -2.4338467443E+01   -2.4216474913E+01   -2.4093997247E+01   -2.3971075463E+01
   -2.3847751754E+01   -2.3724069218E+01   -2.3600071598E+01   -2.3475803045E+01
   -2.3351307907E+01   -2.3226630535E+01   -2.3101815115E+01   -2.2976905518E+01
   -2.2851945176E+01   -2.2726976973E+01   -2.2602043152E+01   -2.2477185244E+01
   -2.2352444007E+01   -2.2227859377E+01   -2.2103470435E+01   -2.1979315376E+01
   -2.1855431492E+01   -2.1731855160E+01   -2.1608621832E+01   -2.1485766033E+01
   -2.1363321358E+01   -2.1241320477E+01   -2.1119795134E+01   -2.0998776154E+01
   -2.0878293444E+01   -2.0758375998E+01   -2.0639051899E+01   -2.0520348321E+01
   -2.0402291531E+01   -2.0284906887E+01   -2.0168218840E+01   -2.0052250927E+01
   -1.9937025768E+01   -1.9822565065E+01   -1.9708889588E+01   -1.9596019171E+01
   -1.9483972704E+01   -1.9372768121E+01   -1.9262422389E+01   -1.9152951498E+01
   -1.9044370444E+01   -1.8936693223E+01   -1.8829932810E+01   -1.8724101152E+01
   -1.8619209149E+01   -1.8515266644E+01   -1.8412282410E+01   -1.8310264131E+01
   -1.8209218400E+01   -1.8109150699E+01   -1.8010065392E+01   -1.7911965717E+01
   -1.7814853779E+01   -1.7718730541E+01   -1.7623595822E+01   -1.7529448295E+01
   -1.7436285487E+01   -1.7344103780E+01   -1.7252898417E+01   -1.7162663508E+01
   -1.7073392040E+01   -1.6985075885E+01   -1.6897705818E+01   -1.6811271527E+01
   -1.6725761636E+01   -1.6641163717E+01   -1.6557464316E+01   -1.6474648966E+01
   -1.6392702214E+01   -1.6311607637E+01   -1.6231347864E+01   -1.6151904596E+01
   -1.6073258623E+01   -1.5995389845E+01   -1.5918277856E+01   -1.5841902675E+01
   -1.5766244957E+01   -1.5691285963E+01   -1.5617007572E+01   -1.5543392274E+01
   -1.5470423167E+01   -1.5398083947E+01   -1.5326358891E+01   -1.5255232843E+01
   -1.5184691195E+01   -1.5114719867E+01   -1.5045305283E+01   -1.4976434352E+01
   -1.4908094444E+01   -1.4840273372E+01   -1.4772959374E+01   -1.4706141096E+01
   -1.4639807582E+01   -1.4573948266E+01   -1.4508552966E+01   -1.4443611889E+01
   -1.4379115633E+01   -1.4315055196E+01   -1.4251421994E+01   -1.4188207871E+01
   -1.4125405125E+01   -1.4063006527E+01   -1.4001005342E+01   -1.3939395350E+01
   -1.3878170871E+01   -1.3817326779E+01   -1.3756858517E+01   -1.3696762107E+01
   -1.3637034152E+01   -1.3577671837E+01   -1.3518672917E+01   -1.3460035703E+01
   -1.3401759035E+01   -1.3343842260E+01   -1.3286285187E+01   -1.3229088050E+01
   -1.3172251461E+01   -1.3115776357E+01   -1.3059663950E+01   -1.3003915668E+01
   -1.2948533100E+01   -1.2893517942E+01   -1.2838871940E+01   -1.2784596842E+01
   -1.2730694343E+01   -1.2677166046E+01   -1.2624013419E+01   -1.2571237761E+01
   -1.2518840174E+01   -1.2466821534E+01   -1.2415182469E+01   -1.2363923345E+01
   -1.2313044253E+01   -1.2262545004E+01   -1.2212425123E+01   -1.2162683853E+01
   -1.2113320155E+01   -1.2064332733E+01   -1.2015720062E+01   -1.1967480416E+01
   -1.1919611888E+01   -1.1872112390E+01   -1.1824979662E+01   -1.1778211282E+01
   -1.1731804690E+01   -1.1685757199E+01   -1.1640066010E+01   -1.1594728223E+01
   -1.1549740851E+01   -1.1505100832E+01   -1.1460805043E+01   -1.1416850306E+01
   -1.1373233401E+01   -1.1329951076E+01   -1.1287000052E+01   -1.1244377036E+01
   -1.1202078722E+01   -1.1160101801E+01   -1.1118442969E+01   -1.1077098925E+01
   -1.1036066381E+01   -1.0995342067E+01   -1.0954922730E+01   -1.0914805139E+01
   -1.0874986088E+01   -1.0835462398E+01   -1.0796230918E+01   -1.0757288528E+01
   -1.0718632138E+01   -1.0680258689E+01   -1.0642165156E+01   -1.0604348545E+01
   -1.0566805896E+01   -1.0529534279E+01   -1.0492530798E+01   -1.0455792586E+01
   -1.0419316809E+01   -1.0383100662E+01   -1.0347141370E+01   -1.0311436186E+01
   -1.0275982391E+01   -1.0240777291E+01   -1.0205818217E+01   -1.0171102524E+01
   -1.0136627589E+01   -1.0102390812E+01   -1.0068389609E+01   -1.0034621417E+01
   -1.0001083690E+01   -9.9677739097E+00   -9.9346895924E+00   -9.9018283035E+00
   -9.8691876558E+00   -9.8367653076E+00   -9.8045589496E+00   -9.7725663011E+00
   -9.7407851112E+00   -9.7092131593E+00   -9.6778482581E+00   -9.6466882522E+00
   -9.6157310162E+00   -9.5849744552E+00   -9.5544165044E+00   -9.5240551289E+00
   -9.4938883230E+00   -9.4639141105E+00   -9.4341305437E+00   -9.4045357034E+00
   -9.3751276983E+00   -9.3459046650E+00   -9.3168647672E+00   -9.2880061955E+00
   -9.2593271672E+00   -9.2308259254E+00   -9.2025007392E+00   -9.1743499029E+00
   -9.1463717356E+00   -9.1185645811E+00   -9.0909268071E+00   -9.0634568051E+00
   -9.0361529899E+00   -9.0090137990E+00   -8.9820376924E+00   -8.9552231521E+00
   -8.9285686819E+00   -8.9020728067E+00   -8.8757340723E+00   -8.8495510448E+00
   -8.8235223106E+00   -8.7976464755E+00   -8.7719221643E+00   -8.7463480209E+00
   -8.7209227075E+00   -8.6956449045E+00   -8.6705133099E+00   -8.6455266395E+00
   -8.6206836259E+00   -8.5959830184E+00   -8.5714235828E+00   -8.5470041008E+00
   -8.5227233700E+00   -8.4985802034E+00   -8.4745734290E+00   -8.4507018898E+00
   -8.4269644437E+00   -8.4033599624E+00   -8.3798873318E+00   -8.3565454506E+00
   -8.3333332301E+00   -8.3102495936E+00   -8.2872934760E+00   -8.2644638237E+00
   -8.2417595951E+00   -8.2191797594E+00   -8.1967232977E+00   -8.1743892018E+00
   -8.1521764746E+00   -8.1300841298E+00   -8.1081111917E+00   -8.0862566951E+00
   -8.0645196852E+00   -8.0428992174E+00   -8.0213943573E+00   -8.0000041803E+00
   -7.9787277717E+00   -7.9575642265E+00   -7.9365126493E+00   -7.9155721540E+00
   -7.8947418640E+00   -7.8740209118E+00   -7.8534084389E+00   -7.8329035960E+00
   -7.8125055424E+00   -7.7922134462E+00   -7.7720264841E+00   -7.7519438414E+00
   -7.7319647117E+00   -7.7120882968E+00   -7.6923138070E+00   -7.6726404603E+00
   -7.6530674828E+00   -7.6335941086E+00   -7.6142195794E+00   -7.5949431447E+00
   -7.5757640615E+00   -7.5566815943E+00   -7.5376950150E+00   -7.5188036027E+00
   -7.5000066439E+00   -7.4813034320E+00   -7.4626932676E+00   -7.4441754581E+00
   -7.4257493178E+00   -7.4074141679E+00   -7.3891693361E+00   -7.3710141568E+00
   -7.3529479708E+00   -7.3349701255E+00   -7.3170799746E+00   -7.2992768781E+00
   -7.2815602022E+00   -7.2639293191E+00   -7.2463836074E+00   -7.2289224514E+00
   -7.2115452413E+00   -7.1942513734E+00   -7.1770402495E+00   -7.1599112773E+00
   -7.1428638700E+00   -7.1258974465E+00   -7.1090114311E+00   -7.0922052537E+00
   -7.0754783493E+00   -7.0588301585E+00   -7.0422601269E+00   -7.0257677056E+00
   -7.0093523505E+00   -6.9930135228E+00   -6.9767506886E+00   -6.9605633189E+00
   -6.9444508899E+00   -6.9284128822E+00   -6.9124487816E+00   -6.8965580782E+00
   -6.8807402672E+00   -6.8649948482E+00   -6.8493213254E+00   -6.8337192073E+00
   -6.8181880072E+00   -6.8027272428E+00   -6.7873364362E+00   -6.7720151136E+00
   -6.7567628055E+00   -6.7415790467E+00   -6.7264633757E+00   -6.7114153356E+00
   -6.6964344734E+00   -6.6815203406E+00   -6.6666724926E+00   -6.6518904883E+00
   -6.6371738910E+00   -6.6225222674E+00   -6.6079351881E+00   -6.5934122274E+00
   -6.5789529636E+00   -6.5645569785E+00   -6.5502238577E+00   -6.5359531904E+00
   -6.5217445691E+00   -6.5075975903E+00   -6.4935118535E+00   -6.4794869621E+00
   -6.4655225226E+00   -6.4516181450E+00   -6.4377734427E+00   -6.4239880323E+00
   -6.4102615338E+00   -6.3965935703E+00   -6.3829837682E+00   -6.3694317571E+00
   -6.3559371697E+00   -6.3424996417E+00   -6.3291188121E+00   -6.3157943227E+00
   -6.3025258185E+00   -6.2893129474E+00   -6.2761553602E+00   -6.2630527108E+00
   -6.2500046556E+00   -6.2370108543E+00   -6.2240709691E+00   -6.2111846652E+00
   -6.1983516105E+00   -6.1855714756E+00   -6.1728439339E+00   -6.1601686613E+00
   -6.1475453366E+00   -6.1349736410E+00   -6.1224532586E+00   -6.1099838756E+00
   -6.0975651813E+00   -6.0851968671E+00   -6.0728786271E+00   -6.0606101578E+00
   -6.0483911582E+00   -6.0362213297E+00   -6.0241003761E+00   -6.0120280035E+00
   -6.0000039205E+00   -5.9880278379E+00   -5.9760994689E+00   -5.9642185289E+00
   -5.9523847355E+00   -5.9405978088E+00   -5.9288574708E+00   -5.9171634458E+00
   -5.9055154605E+00   -5.8939132434E+00   -5.8823565252E+00   -5.8708450390E+00
   -5.8593785197E+00   -5.8479567042E+00   -5.8365793318E+00   -5.8252461434E+00
   -5.8139568823E+00   -5.8027112935E+00   -5.7915091241E+00   -5.7803501231E+00
   -5.7692340415E+00   -5.7581606322E+00   -5.7471296498E+00   -5.7361408511E+00
   -5.7251939946E+00   -5.7142888405E+00   -5.7034251510E+00   -5.6926026901E+00
   -5.6818212235E+00   -5.6710805188E+00   -5.6603803453E+00   -5.6497204738E+00
   -5.6391006773E+00   -5.6285207300E+00   -5.6179804082E+00   -5.6074794897E+00
   -5.5970177538E+00   -5.5865949818E+00   -5.5762109563E+00   -5.5658654617E+00
   -5.5555582839E+00   -5.5452892105E+00   -5.5350580305E+00   -5.5248645346E+00
   -5.5147085150E+00   -5.5045897653E+00   -5.4945080809E+00   -5.4844632584E+00
   -5.4744550960E+00   -5.4644833933E+00   -5.4545479517E+00   -5.4446485735E+00
   -5.4347850628E+00   -5.4249572250E+00   -5.4151648670E+00   -5.4054077970E+00
   -5.3956858245E+00   -5.3859987605E+00   -5.3763464174E+00   -5.3667286088E+00
   -5.3571451497E+00   -5.3475958564E+00   -5.3380805466E+00   -5.3285990391E+00
   -5.3191511541E+00   -5.3097367132E+00   -5.3003555391E+00   -5.2910074557E+00
   -5.2816922882E+00   -5.2724098632E+00   -5.2631600083E+00   -5.2539425524E+00
   -5.2447573255E+00   -5.2356041589E+00   -5.2264828851E+00   -5.2173933376E+00
   -5.2083353513E+00   -5.1993087619E+00   -5.1903134066E+00   -5.1813491235E+00
   -5.1724157519E+00   -5.1635131322E+00   -5.1546411058E+00   -5.1457995154E+00
   -5.1369882046E+00   -5.1282070181E+00   -5.1194558017E+00   -5.1107344022E+00
   -5.1020426675E+00   -5.0933804465E+00   -5.0847475891E+00   -5.0761439463E+00
   -5.0675693700E+00   -5.0590237132E+00   -5.0505068297E+00   -5.0420185747E+00
   -5.0335588038E+00   -5.0251273741E+00   -5.0167241432E+00   -5.0083489701E+00
   -5.0000017143E+00   -4.9916822366E+00   -4.9833903985E+00   -4.9751260625E+00
   -4.9668890920E+00   -4.9586793512E+00   -4.9504967055E+00   -4.9423410209E+00
   -4.9342121642E+00   -4.9261100035E+00   -4.9180344074E+00   -4.9099852454E+00
   -4.9019623881E+00   -4.8939657065E+00   -4.8859950729E+00   -4.8780503602E+00
   -4.8701314422E+00   -4.8622381933E+00   -4.8543704891E+00   -4.8465282057E+00
   -4.8387112201E+00   -4.8309194101E+00   -4.8231526543E+00   -4.8154108319E+00
   -4.8076938232E+00   -4.8000015091E+00   -4.7923337711E+00   -4.7846904918E+00
   -4.7770715542E+00   -4.7694768422E+00   -4.7619062406E+00   -4.7543596346E+00
   -4.7468369104E+00   -4.7393379547E+00   -4.7318626552E+00   -4.7244109000E+00
   -4.7169825781E+00   -4.7095775791E+00   -4.7021957933E+00   -4.6948371119E+00
   -4.6875014263E+00   -4.6801886292E+00   -4.6728986133E+00   -4.6656312726E+00
   -4.6583865014E+00   -4.6511641946E+00   -4.6439642480E+00   -4.6367865578E+00
   -4.6296310211E+00   -4.6224975355E+00   -4.6153859990E+00   -4.6082963107E+00
   -4.6012283700E+00   -4.5941820769E+00   -4.5871573322E+00   -4.5801540371E+00
   -4.5731720936E+00   -4.5662114042E+00   -4.5592718719E+00   -4.5523534005E+00
   -4.5454558942E+00   -4.5385792579E+00   -4.5317233970E+00   -4.5248882174E+00
   -4.5180736258E+00   -4.5112795292E+00   -4.5045058354E+00   -4.4977524525E+00
   -4.4910192894E+00   -4.4843062554E+00   -4.4776132603E+00   -4.4709402146E+00
   -4.4642870291E+00   -4.4576536155E+00   -4.4510398855E+00   -4.4444457519E+00
   -4.4378711275E+00   -4.4313159261E+00   -4.4247800615E+00   -4.4182634483E+00
   -4.4117660018E+00   -4.4052876373E+00   -4.3988282710E+00   -4.3923878194E+00
   -4.3859661995E+00   -4.3795633290E+00   -4.3731791257E+00   -4.3668135081E+00
   -4.3604663953E+00   -4.3541377067E+00   -4.3478273621E+00   -4.3415352819E+00
   -4.3352613869E+00   -4.3290055984E+00   -4.3227678381E+00   -4.3165480283E+00
   -4.3103460914E+00   -4.3041619507E+00   -4.2979955295E+00   -4.2918467520E+00
   -4.2857155424E+00   -4.2796018255E+00   -4.2735055266E+00   -4.2674265715E+00
   -4.2613648860E+00   -4.2553203969E+00   -4.2492930310E+00   -4.2432827156E+00
   -4.2372893785E+00   -4.2313129478E+00   -4.2253533522E+00   -4.2194105206E+00
   -4.2134843823E+00   -4.2075748671E+00   -4.2016819052E+00   -4.1958054271E+00
   -4.1899453637E+00   -4.1841016464E+00   -4.1782742068E+00   -4.1724629771E+00
   -4.1666678897E+00   -4.1608888775E+00   -4.1551258735E+00   -4.1493788115E+00
   -4.1436476254E+00   -4.1379322494E+00   -4.1322326182E+00   -4.1265486669E+00
   -4.1208803309E+00   -4.1152275458E+00   -4.1095902478E+00   -4.1039683733E+00
   -4.0983618591E+00   -4.0927706424E+00   -4.0871946605E+00   -4.0816338514E+00
   -4.0760881532E+00   -4.0705575044E+00   -4.0650418437E+00   -4.0595411105E+00
   -4.0540552440E+00   -4.0485841842E+00   -4.0431278712E+00   -4.0376862454E+00
   -4.0322592476E+00   -4.0268468189E+00   -4.0214489008E+00   -4.0160654349E+00
   -4.0106963633E+00   -4.0053416283E+00   -4.0000011726E+00   -3.9946749391E+00
   -3.9893628711E+00   -3.9840649122E+00   -3.9787810062E+00   -3.9735110974E+00
   -3.9682551300E+00   -3.9630130490E+00   -3.9577847992E+00   -3.9525703262E+00
   -3.9473695754E+00   -3.9421824928E+00   -3.9370090246E+00   -3.9318491172E+00
   -3.9267027175E+00   -3.9215697723E+00   -3.9164502291E+00   -3.9113440354E+00
   -3.9062511391E+00   -3.9011714882E+00   -3.8961050313E+00   -3.8910517168E+00
   -3.8860114939E+00   -3.8809843116E+00   -3.8759701194E+00   -3.8709688671E+00
   -3.8659805046E+00   -3.8610049821E+00   -3.8560422502E+00   -3.8510922595E+00
   -3.8461549611E+00   -3.8412303062E+00   -3.8363182463E+00   -3.8314187332E+00
   -3.8265317188E+00   -3.8216571554E+00   -3.8167949955E+00   -3.8119451917E+00
   -3.8071076970E+00   -3.8022824647E+00   -3.7974694482E+00   -3.7926686010E+00
   -3.7878798773E+00   -3.7831032309E+00   -3.7783386165E+00   -3.7735859884E+00
   -3.7688453017E+00   -3.7641165112E+00   -3.7593995723E+00   -3.7546944405E+00
   -3.7500010716E+00   -3.7453194214E+00   -3.7406494461E+00   -3.7359911021E+00
   -3.7313443460E+00   -3.7267091347E+00   -3.7220854251E+00   -3.7174731745E+00
   -3.7128723403E+00   -3.7082828803E+00   -3.7037047522E+00   -3.6991379142E+00
   -3.6945823246E+00   -3.6900379418E+00   -3.6855047246E+00   -3.6809826318E+00
   -3.6764716225E+00   -3.6719716561E+00   -3.6674826921E+00   -3.6630046901E+00
   -3.6585376101E+00   -3.6540814120E+00   -3.6496360563E+00   -3.6452015034E+00
   -3.6407777140E+00   -3.6363646489E+00   -3.6319622691E+00   -3.6275705360E+00
   -3.6231894109E+00   -3.6188188555E+00   -3.6144588315E+00   -3.6101093010E+00
   -3.6057702260E+00   -3.6014415690E+00   -3.5971232924E+00   -3.5928153590E+00
   -3.5885177316E+00   -3.5842303734E+00   -3.5799532475E+00   -3.5756863174E+00
   -3.5714295466E+00   -3.5671828989E+00   -3.5629463383E+00   -3.5587198288E+00
   -3.5545033347E+00   -3.5502968205E+00   -3.5461002507E+00   -3.5419135902E+00
   -3.5377368039E+00   -3.5335698568E+00   -3.5294127144E+00   -3.5252653420E+00
   -3.5211277051E+00   -3.5169997697E+00   -3.5128815015E+00   -3.5087728667E+00
   -3.5046738315E+00   -3.5005843622E+00   -3.4965044256E+00   -3.4924339882E+00
   -3.4883730169E+00   -3.4843214788E+00   -3.4802793410E+00   -3.4762465708E+00
   -3.4722231358E+00   -3.4682090034E+00   -3.4642041416E+00   -3.4602085182E+00
   -3.4562221013E+00   -3.4522448591E+00   -3.4482767600E+00   -3.4443177725E+00
   -3.4403678652E+00   -3.4364270070E+00   -3.4324951667E+00   -3.4285723135E+00
   -3.4246584166E+00   -3.4207534453E+00   -3.4168573692E+00   -3.4129701578E+00
   -3.4090917810E+00   -3.4052222087E+00   -3.4013614109E+00   -3.3975093579E+00
   -3.3936660199E+00   -3.3898313674E+00   -3.3860053710E+00   -3.3821880014E+00
   -3.3783792295E+00   -3.3745790262E+00   -3.3707873628E+00   -3.3670042103E+00
   -3.3632295403E+00   -3.3594633241E+00   -3.3557055335E+00   -3.3519561402E+00
   -3.3482151161E+00   -3.3444824331E+00   -3.3407580635E+00   -3.3370419794E+00
   -3.3333341534E+00   -3.3296345577E+00   -3.3259431652E+00   -3.3222599485E+00
   -3.3185848805E+00   -3.3149179342E+00   -3.3112590827E+00   -3.3076082993E+00
   -3.3039655572E+00   -3.3003308299E+00   -3.2967040910E+00   -3.2930853143E+00
   -3.2894744734E+00   -3.2858715424E+00   -3.2822764953E+00   -3.2786893062E+00
   -3.2751099493E+00   -3.2715383992E+00   -3.2679746302E+00   -3.2644186169E+00
   -3.2608703341E+00   -3.2573297566E+00   -3.2537968593E+00   -3.2502716172E+00
   -3.2467540056E+00   -3.2432439996E+00   -3.2397415745E+00   -3.2362467060E+00
   -3.2327593695E+00   -3.2292795407E+00   -3.2258071954E+00   -3.2223423095E+00
   -3.2188848590E+00   -3.2154348200E+00   -3.2119921686E+00   -3.2085568811E+00
   -3.2051289341E+00   -3.2017083039E+00   -3.1982949671E+00   -3.1948889005E+00
   -3.1914900808E+00   -3.1880984850E+00   -3.1847140900E+00   -3.1813368730E+00
   -3.1779668111E+00   -3.1746038815E+00   -3.1712480618E+00   -3.1678993293E+00
   -3.1645576617E+00   -3.1612230366E+00   -3.1578954317E+00   -3.1545748250E+00
   -3.1512611943E+00   -3.1479545177E+00   -3.1446547733E+00   -3.1413619395E+00
   -3.1380759943E+00   -3.1347969164E+00   -3.1315246842E+00   -3.1282592762E+00
   -3.1250006711E+00   -3.1217488477E+00   -3.1185037849E+00   -3.1152654616E+00
   -3.1120338567E+00   -3.1088089496E+00   -3.1055907192E+00   -3.1023791449E+00
   -3.0991742062E+00   -3.0959758823E+00   -3.0927841530E+00   -3.0895989978E+00
   -3.0864203963E+00   -3.0832483285E+00   -3.0800827742E+00   -3.0769237133E+00
   -3.0737711259E+00   -3.0706249922E+00   -3.0674852922E+00   -3.0643520063E+00
   -3.0612251149E+00   -3.0581045984E+00   -3.0549904374E+00   -3.0518826123E+00
   -3.0487811040E+00   -3.0456858932E+00   -3.0425969607E+00   -3.0395142874E+00
   -3.0364378543E+00   -3.0333676426E+00   -3.0303036333E+00   -3.0272458077E+00
   -3.0241941470E+00   -3.0211486327E+00   -3.0181092462E+00   -3.0150759690E+00
   -3.0120487827E+00   -3.0090276691E+00   -3.0060126097E+00   -3.0030035866E+00
   -3.0000005814E+00   -2.9970035763E+00   -2.9940125532E+00   -2.9910274943E+00
   -2.9880483817E+00   -2.9850751977E+00   -2.9821079246E+00   -2.9791465448E+00
   -2.9761910408E+00   -2.9732413950E+00   -2.9702975901E+00   -2.9673596088E+00
   -2.9644274338E+00   -2.9615010479E+00   -2.9585804339E+00   -2.9556655748E+00
   -2.9527564537E+00   -2.9498530535E+00   -2.9469553575E+00   -2.9440633488E+00
   -2.9411770107E+00   -2.9382963265E+00   -2.9354212797E+00   -2.9325518537E+00
   -2.9296880321E+00   -2.9268297984E+00   -2.9239771363E+00   -2.9211300296E+00
   -2.9182884619E+00   -2.9154524173E+00   -2.9126218795E+00   -2.9097968326E+00
   -2.9069772606E+00   -2.9041631476E+00   -2.9013544777E+00   -2.8985512353E+00
   -2.8957534045E+00   -2.8929609697E+00   -2.8901739153E+00   -2.8873922258E+00
   -2.8846158857E+00   -2.8818448796E+00   -2.8790791922E+00   -2.8763188080E+00
   -2.8735637120E+00   -2.8708138889E+00   -2.8680693236E+00   -2.8653300010E+00
   -2.8625959061E+00   -2.8598670239E+00   -2.8571433397E+00   -2.8544248385E+00
   -2.8517115055E+00   -2.8490033261E+00   -2.8463002855E+00   -2.8436023692E+00
   -2.8409095626E+00   -2.8382218512E+00   -2.8355392205E+00   -2.8328616561E+00
   -2.8301891438E+00   -2.8275216692E+00   -2.8248592181E+00   -2.8222017763E+00
   -2.8195493297E+00   -2.8169018643E+00   -2.8142593659E+00   -2.8116218207E+00
   -2.8089892147E+00   -2.8063615340E+00   -2.8037387649E+00   -2.8011208937E+00
   -2.7985079065E+00   -2.7958997897E+00   -2.7932965298E+00   -2.7906981131E+00
   -2.7881045262E+00   -2.7855157557E+00   -2.7829317881E+00   -2.7803526100E+00
   -2.7777782082E+00   -2.7752085693E+00   -2.7726436803E+00   -2.7700835279E+00
   -2.7675280991E+00   -2.7649773807E+00   -2.7624313598E+00   -2.7598900234E+00
   -2.7573533585E+00   -2.7548213524E+00   -2.7522939921E+00   -2.7497712650E+00
   -2.7472531582E+00   -2.7447396591E+00   -2.7422307551E+00   -2.7397264336E+00
   -2.7372266820E+00   -2.7347314879E+00   -2.7322408387E+00   -2.7297547221E+00
   -2.7272731257E+00   -2.7247960372E+00   -2.7223234444E+00   -2.7198553349E+00
   -2.7173916967E+00   -2.7149325175E+00   -2.7124777853E+00   -2.7100274881E+00
   -2.7075816137E+00   -2.7051401504E+00   -2.7027030860E+00   -2.7002704088E+00
   -2.6978421070E+00   -2.6954181686E+00   -2.6929985821E+00   -2.6905833356E+00
   -2.6881724175E+00   -2.6857658162E+00   -2.6833635201E+00   -2.6809655176E+00
   -2.6785717973E+00   -2.6761823477E+00   -2.6737971573E+00   -2.6714162148E+00
   -2.6690395089E+00   -2.6666670283E+00   -2.6642987616E+00   -2.6619346978E+00
   -2.6595748255E+00   -2.6572191337E+00   -2.6548676113E+00   -2.6525202472E+00
   -2.6501770303E+00   -2.6478379498E+00   -2.6455029947E+00   -2.6431721540E+00
   -2.6408454169E+00   -2.6385227725E+00   -2.6362042102E+00   -2.6338897191E+00
   -2.6315792884E+00   -2.6292729077E+00   -2.6269705661E+00   -2.6246722531E+00
   -2.6223779582E+00   -2.6200876707E+00   -2.6178013803E+00   -2.6155190764E+00
   -2.6132407487E+00   -2.6109663867E+00   -2.6086959802E+00   -2.6064295187E+00
   -2.6041669921E+00   -2.6019083901E+00   -2.5996537024E+00   -2.5974029190E+00
   -2.5951560297E+00   -2.5929130244E+00   -2.5906738930E+00   -2.5884386255E+00
   -2.5862072119E+00   -2.5839796423E+00   -2.5817559067E+00   -2.5795359953E+00
   -2.5773198981E+00   -2.5751076054E+00   -2.5728991074E+00   -2.5706943943E+00
   -2.5684934563E+00   -2.5662962839E+00   -2.5641028674E+00   -2.5619131970E+00
   -2.5597272633E+00   -2.5575450567E+00   -2.5553665677E+00   -2.5531917867E+00
   -2.5510207044E+00   -2.5488533112E+00   -2.5466895978E+00   -2.5445295548E+00
   -2.5423731729E+00   -2.5402204428E+00   -2.5380713553E+00   -2.5359259010E+00
   -2.5337840708E+00   -2.5316458555E+00   -2.5295112460E+00   -2.5273802331E+00
   -2.5252528078E+00   -2.5231289610E+00   -2.5210086837E+00   -2.5188919669E+00
   -2.5167788016E+00   -2.5146691790E+00   -2.5125630900E+00   -2.5104605259E+00
   -2.5083614778E+00   -2.5062659369E+00   -2.5041738943E+00   -2.5020853414E+00
   -2.5000002695E+00   -2.4979186698E+00   -2.4958405336E+00   -2.4937658524E+00
   -2.4916946174E+00   -2.4896268202E+00   -2.4875624522E+00   -2.4855015049E+00
   -2.4834439697E+00   -2.4813898383E+00   -2.4793391020E+00   -2.4772917527E+00
   -2.4752477818E+00   -2.4732071810E+00   -2.4711699420E+00   -2.4691360565E+00
   -2.4671055162E+00   -2.4650783128E+00   -2.4630544382E+00   -2.4610338842E+00
   -2.4590166425E+00   -2.4570027051E+00   -2.4549920638E+00   -2.4529847105E+00
   -2.4509806373E+00   -2.4489798360E+00   -2.4469822987E+00   -2.4449880173E+00
   -2.4429969840E+00   -2.4410091907E+00   -2.4390246296E+00   -2.4370432929E+00
   -2.4350651726E+00   -2.4330902609E+00   -2.4311185501E+00   -2.4291500323E+00
   -2.4271846998E+00   -2.4252225449E+00   -2.4232635599E+00   -2.4213077371E+00
   -2.4193550688E+00   -2.4174055475E+00   -2.4154591655E+00   -2.4135159153E+00
   -2.4115757892E+00   -2.4096387798E+00   -2.4077048796E+00   -2.4057740811E+00
   -2.4038463768E+00   -2.4019217593E+00   -2.4000002212E+00   -2.3980817551E+00
   -2.3961663536E+00   -2.3942540095E+00   -2.3923447153E+00   -2.3904384639E+00
   -2.3885352478E+00   -2.3866350600E+00   -2.3847378931E+00   -2.3828437401E+00
   -2.3809525936E+00   -2.3790644465E+00   -2.3771792918E+00   -2.3752971222E+00
   -2.3734179308E+00   -2.3715417104E+00   -2.3696684541E+00   -2.3677981547E+00
   -2.3659308053E+00   -2.3640663990E+00   -2.3622049288E+00   -2.3603463876E+00
   -2.3584907688E+00   -2.3566380653E+00   -2.3547882702E+00   -2.3529413768E+00
   -2.3510973782E+00   -2.3492562677E+00   -2.3474180384E+00   -2.3455826835E+00
   -2.3437501964E+00   -2.3419205703E+00   -2.3400937986E+00   -2.3382698745E+00
   -2.3364487915E+00   -2.3346305428E+00   -2.3328151218E+00   -2.3310025220E+00
   -2.3291927369E+00   -2.3273857597E+00   -2.3255815841E+00   -2.3237802035E+00
   -2.3219816114E+00   -2.3201858014E+00   -2.3183927670E+00   -2.3166025017E+00
   -2.3148149992E+00   -2.3130302530E+00   -2.3112482568E+00   -2.3094690043E+00
   -2.3076924891E+00   -2.3059187049E+00   -2.3041476454E+00   -2.3023793044E+00
   -2.3006136755E+00   -2.2988507526E+00   -2.2970905294E+00   -2.2953329997E+00
   -2.2935781574E+00   -2.2918259963E+00   -2.2900765103E+00   -2.2883296932E+00
   -2.2865855389E+00   -2.2848440413E+00   -2.2831051945E+00   -2.2813689923E+00
   -2.2796354286E+00   -2.2779044976E+00   -2.2761761932E+00   -2.2744505094E+00
   -2.2727274403E+00   -2.2710069800E+00   -2.2692891224E+00   -2.2675738618E+00
   -2.2658611922E+00   -2.2641511077E+00   -2.2624436026E+00   -2.2607386709E+00
   -2.2590363070E+00   -2.2573365048E+00   -2.2556392588E+00   -2.2539445632E+00
   -2.2522524121E+00   -2.2505627998E+00   -2.2488757208E+00   -2.2471911692E+00
   -2.2455091393E+00   -2.2438296256E+00   -2.2421526224E+00   -2.2404781241E+00
   -2.2388061250E+00   -2.2371366195E+00   -2.2354696022E+00   -2.2338050674E+00
   -2.2321430095E+00   -2.2304834232E+00   -2.2288263027E+00   -2.2271716428E+00
   -2.2255194378E+00   -2.2238696824E+00   -2.2222223710E+00   -2.2205774983E+00
   -2.2189350589E+00   -2.2172950473E+00   -2.2156574581E+00   -2.2140222861E+00
   -2.2123895258E+00   -2.2107591720E+00   -2.2091312193E+00   -2.2075056623E+00
   -2.2058824960E+00   -2.2042617148E+00   -2.2026433137E+00   -2.2010272873E+00
   -2.1994136305E+00   -2.1978023380E+00   -2.1961934047E+00   -2.1945868253E+00
   -2.1929825947E+00   -2.1913807078E+00   -2.1897811593E+00   -2.1881839443E+00
   -2.1865890576E+00   -2.1849964942E+00   -2.1834062488E+00   -2.1818183166E+00
   -2.1802326924E+00   -2.1786493712E+00   -2.1770683480E+00   -2.1754896178E+00
   -2.1739131756E+00   -2.1723390164E+00   -2.1707671354E+00   -2.1691975275E+00
   -2.1676301878E+00   -2.1660651115E+00   -2.1645022935E+00   -2.1629417291E+00
   -2.1613834133E+00   -2.1598273413E+00   -2.1582735083E+00   -2.1567219094E+00
   -2.1551725398E+00   -2.1536253947E+00   -2.1520804693E+00   -2.1505377589E+00
   -2.1489972586E+00   -2.1474589639E+00   -2.1459228698E+00   -2.1443889717E+00
   -2.1428572649E+00   -2.1413277447E+00   -2.1398004064E+00   -2.1382752453E+00
   -2.1367522569E+00   -2.1352314364E+00   -2.1337127792E+00   -2.1321962807E+00
   -2.1306819364E+00   -2.1291697416E+00   -2.1276596917E+00   -2.1261517823E+00
   -2.1246460087E+00   -2.1231423664E+00   -2.1216408509E+00   -2.1201414577E+00
   -2.1186441823E+00   -2.1171490202E+00   -2.1156559669E+00   -2.1141650180E+00
   -2.1126761691E+00   -2.1111894156E+00   -2.1097047532E+00   -2.1082221774E+00
   -2.1067416840E+00   -2.1052632684E+00
  </PP_LOCAL>
 <PP_NONLOCAL>
   <PP_BETA.1
       type="real"
       size="1426"
       columns="4"
       index="1"
       angular_momentum="0"
       cutoff_radius_index=" 360"
       cutoff_radius="    3.5900000000E+00" >
   -2.4115570652E-11    2.0083926442E-02    4.0148050187E-02    6.0172705950E-02
    8.0138502279E-02    1.0002645603E-01    1.1981812393E-01    1.3949573023E-01
    1.5904228965E-01    1.7844172455E-01    1.9767897567E-01    2.1674010545E-01
    2.3561239325E-01    2.5428442176E-01    2.7274615390E-01    2.9098899960E-01
    3.0900587201E-01    3.2679123253E-01    3.4434112435E-01    3.6165319422E-01
    3.7872670204E-01    3.9556251826E-01    4.1216310892E-01    4.2853250825E-01
    4.4467627909E-01    4.6060146106E-01    4.7631650682E-01    4.9183120678E-01
    5.0715660243E-01    5.2230488906E-01    5.3728930812E-01    5.5212402996E-01
    5.6682402766E-01    5.8140494260E-01    5.9588294253E-01    6.1027457320E-01
    6.2459660418E-01    6.3886587005E-01    6.5309910776E-01    6.6731279135E-01
    6.8152296497E-01    6.9574507529E-01    7.0999380444E-01    7.2428290456E-01
    7.3862503494E-01    7.5303160312E-01    7.6751261073E-01    7.8207650535E-01
    7.9673003936E-01    8.1147813677E-01    8.2632376906E-01    8.4126784094E-01
    8.5630908695E-01    8.7144397959E-01    8.8666664997E-01    9.0196882151E-01
    9.1733975739E-01    9.3276622225E-01    9.4823245875E-01    9.6372017919E-01
    9.7920857269E-01    9.9467432797E-01    1.0100916720E+00    1.0254324245E+00
    1.0406660682E+00    1.0557598347E+00    1.0706788058E+00    1.0853860297E+00
    1.0998426521E+00    1.1140080612E+00    1.1278400457E+00    1.1412949667E+00
    1.1543279404E+00    1.1668930326E+00    1.1789434628E+00    1.1904318184E+00
    1.2013102761E+00    1.2115308304E+00    1.2210455284E+00    1.2298067088E+00
    1.2377672440E+00    1.2448807845E+00    1.2511020040E+00    1.2563868436E+00
    1.2606927542E+00    1.2639789354E+00    1.2662065697E+00    1.2673390510E+00
    1.2673422050E+00    1.2661845022E+00    1.2638372595E+00    1.2602748325E+00
    1.2554747942E+00    1.2494181011E+00    1.2420892451E+00    1.2334763902E+00
    1.2235714926E+00    1.2123704048E+00    1.1998729616E+00    1.1860830480E+00
    1.1710086491E+00    1.1546618801E+00    1.1370589977E+00    1.1182203916E+00
    1.0981705568E+00    1.0769380459E+00    1.0545554026E+00    1.0310590752E+00
    1.0064893120E+00    9.8089003843E-01    9.5430871531E-01    9.2679618126E-01
    8.9840647785E-01    8.6919665952E-01    8.3922658874E-01    8.0855871760E-01
    7.7725785683E-01    7.4539093342E-01    7.1302673802E-01    6.8023566354E-01
    6.4708943605E-01    6.1366083946E-01    5.8002343546E-01    5.4625127990E-01
    5.1241863728E-01    4.7859969467E-01    4.4486827647E-01    4.1129756157E-01
    3.7795980418E-01    3.4492605984E-01    3.1226591787E-01    2.8004724161E-01
    2.4833591779E-01    2.1719561607E-01    1.8668756009E-01    1.5687031099E-01
    1.2779956441E-01    9.9527961973E-02    7.2104917990E-02    4.5576462250E-02
    1.9985099450E-02   -4.6303141011E-03   -2.8234676065E-02   -5.0796725576E-02
   -7.2289112390E-02   -9.2688447523E-02   -1.1197533532E-01   -1.3013438699E-01
   -1.4715421572E-01   -1.6302741372E-01   -1.7775051130E-01   -1.9132391869E-01
   -2.0375185086E-01   -2.1504223614E-01   -2.2520660914E-01   -2.3425998887E-01
   -2.4222074275E-01   -2.4911043750E-01   -2.5495367779E-01   -2.5977793361E-01
   -2.6361335744E-01   -2.6649259230E-01   -2.6845057172E-01   -2.6952431271E-01
   -2.6975270301E-01   -2.6917628364E-01   -2.6783702780E-01   -2.6577811753E-01
   -2.6304371895E-01   -2.5967875730E-01   -2.5572869287E-01   -2.5123929886E-01
   -2.4625644199E-01   -2.4082586712E-01   -2.3499298643E-01   -2.2880267429E-01
   -2.2229906846E-01   -2.1552537831E-01   -2.0852370090E-01   -2.0133484527E-01
   -1.9399816564E-01   -1.8655140394E-01   -1.7903054196E-01   -1.7146966333E-01
   -1.6390082744E-01   -1.5635395177E-01   -1.4885685894E-01   -1.4143540451E-01
   -1.3411350658E-01   -1.2691312885E-01   -1.1985428496E-01   -1.1295505106E-01
   -1.0623158809E-01   -9.9698173154E-02   -9.3367239621E-02   -8.7249425098E-02
   -8.1353626805E-02   -7.5687063618E-02   -7.0255344136E-02   -6.5062540081E-02
   -6.0111264341E-02   -5.5402752955E-02   -5.0936950362E-02   -4.6712597204E-02
   -4.2727320027E-02   -3.8977722209E-02   -3.5459475463E-02   -3.2167411309E-02
   -2.9095611906E-02   -2.6237499686E-02   -2.3585925250E-02   -2.1133253034E-02
   -1.8871444284E-02   -1.6792136915E-02   -1.4886721884E-02   -1.3146415740E-02
   -1.1562329070E-02   -1.0125530587E-02   -8.8271066761E-03   -7.6582162461E-03
   -6.6101407844E-03   -5.6743295605E-03   -4.8424399609E-03   -4.1063729938E-03
   -3.4583040314E-03   -2.8907089067E-03   -2.3963855072E-03   -1.9684710548E-03
   -1.6004552864E-03   -1.2861897779E-03   -1.0198936802E-03   -7.9615615825E-04
   -6.0993381676E-04   -4.5656201776E-04   -3.3170710871E-04   -2.3141911192E-04
   -1.5213863539E-04   -9.1718914541E-05   -4.8370290609E-05   -1.8861603052E-05
   -2.5818267282E-07    9.9754924549E-06    1.4100648332E-05    1.4077673021E-05
    1.1573398924E-05    7.9691878997E-06    4.3283261981E-06    1.5403816205E-06
    1.3574997739E-07   -1.5101132436E-07    8.6111716150E-09    2.5670293524E-08
   -6.5002942017E-09    4.4252505956E-11    1.8406746391E-10    0.0000000000E+00
    0.0000000000E+00    0.0000000000E+00    0.0000000000E+00    0.0000000000E+00
    0.0000000000E+00    0.0000000000E+00    0.0000000000E+00    0.0000000000E+00
    0.0000000000E+00    0.0000000000E+00    0.0000000000E+00    0.0000000000E+00
    0.0000000000E+00    0.0000000000E+00    0.0000000000E+00    0.0000000000E+00
    0.0000000000E+00    0.0000000000E+00    0.0000000000E+00    0.0000000000E+00
    0.0000000000E+00    0.0000000000E+00    0.0000000000E+00    0.0000000000E+00
    0.0000000000E+00    0.0000000000E+00    0.0000000000E+00    0.0000000000E+00
    0.0000000000E+00    0.0000000000E+00    0.0000000000E+00    0.0000000000E+00
    0.0000000000E+00    0.0000000000E+00    0.0000000000E+00    0.0000000000E+00
    0.0000000000E+00    0.0000000000E+00    0.0000000000E+00    0.0000000000E+00
    0.0000000000E+00    0.0000000000E+00    0.0000000000E+00    0.0000000000E+00
    0.0000000000E+00    0.0000000000E+00    0.0000000000E+00    0.0000000000E+00
    0.0000000000E+00    0.0000000000E+00    0.0000000000E+00    0.0000000000E+00
    0.0000000000E+00    0.0000000000E+00    0.0000000000E+00    0.0000000000E+00
    0.0000000000E+00    0.0000000000E+00    0.0000000000E+00    0.0000000000E+00
    0.0000000000E+00    0.0000000000E+00    0.0000000000E+00    0.0000000000E+00
    0.0000000000E+00    0.0000000000E+00    0.0000000000E+00    0.0000000000E+00
    0.0000000000E+00    0.0000000000E+00    0.0000000000E+00    0.0000000000E+00
    0.0000000000E+00    0.0000000000E+00    0.0000000000E+00    0.0000000000E+00
    0.0000000000E+00    0.0000000000E+00    0.0000000000E+00    0.0000000000E+00
    0.0000000000E+00    0.0000000000E+00    0.0000000000E+00    0.0000000000E+00
    0.0000000000E+00    0.0000000000E+00    0.0000000000E+00    0.0000000000E+00
    0.0000000000E+00    0.0000000000E+00    0.0000000000E+00    0.0000000000E+00
    0.0000000000E+00    0.0000000000E+00    0.0000000000E+00    0.0000000000E+00
    0.0000000000E+00    0.0000000000E+00    0.0000000000E+00    0.0000000000E+00
    0.0000000000E+00    0.0000000000E+00    0.0000000000E+00    0.0000000000E+00
 0. 0. 0. 0.
 0. 0. 0. 0.
 0. 0. 0. 0.
 0. 0. 0. 0.
 0. 0. 0. 0.
 0. 0. 0. 0.
 0. 0. 0. 0.
 0. 0. 0. 0.
 0. 0. 0. 0.
 0. 0. 0. 0.
 0. 0. 0. 0.
 0. 0. 0. 0.
 0. 0. 0. 0.
 0. 0. 0. 0.
 0. 0. 0. 0.
 0. 0. 0. 0.
 0. 0. 0. 0.
 0. 0. 0. 0.
 0. 0. 0. 0.
 0. 0. 0. 0.
 0. 0. 0. 0.
 0. 0. 0. 0.
 0. 0. 0. 0.
 0. 0. 0. 0.
 0. 0. 0. 0.
 0. 0. 0. 0.
 0. 0. 0. 0.
 0. 0. 0. 0.
 0. 0. 0. 0.
 0. 0. 0. 0.
 0. 0. 0. 0.
 0. 0. 0. 0.
 0. 0. 0. 0.
 0. 0. 0. 0.
 0. 0. 0. 0.
 0. 0. 0. 0.
 0. 0. 0. 0.
 0. 0. 0. 0.
 0. 0. 0. 0.
 0. 0. 0. 0.
 0. 0. 0. 0.
 0. 0. 0. 0.
 0. 0. 0. 0.
 0. 0. 0. 0.
 0. 0. 0. 0.
 0. 0. 0. 0.
 0. 0. 0. 0.
 0. 0. 0. 0.
 0. 0. 0. 0.
 0. 0. 0. 0.
 0. 0. 0. 0.
 0. 0. 0. 0.
 0. 0. 0. 0.
 0. 0. 0. 0.
 0. 0. 0. 0.
 0. 0. 0. 0.
 0. 0. 0. 0.
 0. 0. 0. 0.
 0. 0. 0. 0.
 0. 0. 0. 0.
 0. 0. 0. 0.
 0. 0. 0. 0.
 0. 0. 0. 0.
 0. 0. 0. 0.
 0. 0. 0. 0.
 0. 0. 0. 0.
 0. 0. 0. 0.
 0. 0. 0. 0.
 0. 0. 0. 0.
 0. 0. 0. 0.
 0. 0. 0. 0.
 0. 0. 0. 0.
 0. 0. 0. 0.
 0. 0. 0. 0.
 0. 0. 0. 0.
 0. 0. 0. 0.
 0. 0. 0. 0.
 0. 0. 0. 0.
 0. 0. 0. 0.
 0. 0. 0. 0.
 0. 0. 0. 0.
 0. 0. 0. 0.
 0. 0. 0. 0.
 0. 0. 0. 0.
 0. 0. 0. 0.
 0. 0. 0. 0.
 0. 0. 0. 0.
 0. 0. 0. 0.
 0. 0. 0. 0.
 0. 0. 0. 0.
 0. 0. 0. 0.
 0. 0. 0. 0.
 0. 0. 0. 0.
 0. 0. 0. 0.
 0. 0. 0. 0.
 0. 0. 0. 0.
 0. 0. 0. 0.
 0. 0. 0. 0.
 0. 0. 0. 0.
 0. 0. 0. 0.
 0. 0. 0. 0.
 0. 0. 0. 0.
 0. 0. 0. 0.
 0. 0. 0. 0.
 0. 0. 0. 0.
 0. 0. 0. 0.
 0. 0. 0. 0.
 0. 0. 0. 0.
 0. 0. 0. 0.
 0. 0. 0. 0.
 0. 0. 0. 0.
 0. 0. 0. 0.
 0. 0. 0. 0.
 0. 0. 0. 0.
 0. 0. 0. 0.
 0. 0. 0. 0.
 0. 0. 0. 0.
 0. 0. 0. 0.
 0. 0. 0. 0.
 0. 0. 0. 0.
 0. 0. 0. 0.
 0. 0. 0. 0.
 0. 0. 0. 0.
 0. 0. 0. 0.
 0. 0. 0. 0.
 0. 0. 0. 0.
 0. 0. 0. 0.
 0. 0. 0. 0.
 0. 0. 0. 0.
 0. 0. 0. 0.
 0. 0. 0. 0.
 0. 0. 0. 0.
 0. 0. 0. 0.
 0. 0. 0. 0.
 0. 0. 0. 0.
 0. 0. 0. 0.
 0. 0. 0. 0.
 0. 0. 0. 0.
 0. 0. 0. 0.
 0. 0. 0. 0.
 0. 0. 0. 0.
 0. 0. 0. 0.
 0. 0. 0. 0.
 0. 0. 0. 0.
 0. 0. 0. 0.
 0. 0. 0. 0.
 0. 0. 0. 0.
 0. 0. 0. 0.
 0. 0. 0. 0.
 0. 0. 0. 0.
 0. 0. 0. 0.
 0. 0. 0. 0.
 0. 0. 0. 0.
 0. 0. 0. 0.
 0. 0. 0. 0.
 0. 0. 0. 0.
 0. 0. 0. 0.
 0. 0. 0. 0.
 0. 0. 0. 0.
 0. 0. 0. 0.
 0. 0. 0. 0.
 0. 0. 0. 0.
 0. 0. 0. 0.
 0. 0. 0. 0.
 0. 0. 0. 0.
 0. 0. 0. 0.
 0. 0. 0. 0.
 0. 0. 0. 0.
 0. 0. 0. 0.
 0. 0. 0. 0.
 0. 0. 0. 0.
 0. 0. 0. 0.
 0. 0. 0. 0.
 0. 0. 0. 0.
 0. 0. 0. 0.
 0. 0. 0. 0.
 0. 0. 0. 0.
 0. 0. 0. 0.
 0. 0. 0. 0.
 0. 0. 0. 0.
 0. 0. 0. 0.
 0. 0. 0. 0.
 0. 0. 0. 0.
 0. 0. 0. 0.
 0. 0. 0. 0.
 0. 0. 0. 0.
 0. 0. 0. 0.
 0. 0. 0. 0.
 0. 0. 0. 0.
 0. 0. 0. 0.
 0. 0. 0. 0.
 0. 0. 0. 0.
 0. 0. 0. 0.
 0. 0. 0. 0.
 0. 0. 0. 0.
 0. 0. 0. 0.
 0. 0. 0. 0.
 0. 0. 0. 0.
 0. 0. 0. 0.
 0. 0. 0. 0.
 0. 0. 0. 0.
 0. 0. 0. 0.
 0. 0. 0. 0.
 0. 0. 0. 0.
 0. 0. 0. 0.
 0. 0. 0. 0.
 0. 0. 0. 0.
 0. 0. 0. 0.
 0. 0. 0. 0.
 0. 0. 0. 0.
 0. 0. 0. 0.
 0. 0. 0. 0.
 0. 0. 0. 0.
 0. 0. 0. 0.
 0. 0. 0. 0.
 0. 0. 0. 0.
 0. 0. 0. 0.
 0. 0. 0. 0.
 0. 0. 0. 0.
 0. 0. 0. 0.
 0. 0. 0. 0.
 0. 0. 0. 0.
 0. 0. 0. 0.
 0. 0. 0. 0.
 0. 0. 0. 0.
 0. 0. 0. 0.
 0. 0. 0. 0.
 0. 0. 0. 0.
 0. 0. 0. 0.
 0. 0. 0. 0.
 0. 0. 0. 0.
 0. 0. 0. 0.
 0. 0. 0. 0.
 0. 0. 0. 0.
 0. 0. 0. 0.
 0. 0. 0. 0.
 0. 0. 0. 0.
 0. 0. 0. 0.
 0. 0. 0. 0.
 0. 0. 0. 0.
 0. 0. 0. 0.
 0. 0. 0. 0.
 0. 0. 0. 0.
 0. 0. 0. 0.
 0. 0. 0. 0.
 0. 0. 0. 0.
 0. 0. 0. 0.
 0. 0. 0. 0.
 0. 0. 0. 0.
 0. 0. 0. 0.
 0. 0. 0. 0.
 0. 0. 0. 0.
 0. 0. 0. 0.
 0. 0. 0. 0.
 0. 0. 0. 0.
 0. 0. 0. 0.
 0. 0. 0. 0.
 0. 0. 0. 0.
 0. 0. 0. 0.
 0. 0. 0. 0.
 0. 0. 0. 0.
 0. 0. 0. 0.
 0. 0. 0. 0.
 0. 0. 0. 0.
 0. 0. 0. 0.
 0. 0. 0. 0.
 0. 0.
   </PP_BETA.1>
   <PP_BETA.2
       type="real"
       size="1426"
       columns="4"
       index="2"
       angular_momentum="0"
       cutoff_radius_index=" 360"
       cutoff_radius="    3.5900000000E+00" >
    3.2644165149E-11    6.4283914511E-03    1.2833657621E-02    1.9192652748E-02
    2.5482191004E-02    3.1679028700E-02    3.7759849147E-02    4.3701251023E-02
    4.9479741073E-02    5.5071731889E-02    6.0453545532E-02    6.5601423640E-02
    7.0491544644E-02    7.5100048639E-02    7.9403070372E-02    8.3376780732E-02
    8.6997437064E-02    9.0241442509E-02    9.3085414511E-02    9.5506262514E-02
    9.7481274793E-02    9.8988214256E-02    1.0000542296E-01    1.0051193499E-01
    1.0048759724E-01    9.9913197542E-02    9.8770599548E-02    9.7042883552E-02
    9.4714492508E-02    9.1771382316E-02    8.8201175397E-02    8.3993316518E-02
    7.9139229755E-02    7.3632475434E-02    6.7468905813E-02    6.0646818274E-02
    5.3167104712E-02    4.5033395813E-02    3.6252198897E-02    2.6833027983E-02
    1.6788524741E-02    6.1345690391E-03   -5.1096222439E-03   -1.6921409359E-02
   -2.9274658020E-02   -4.2139683075E-02   -5.5483208605E-02   -6.9268345493E-02
   -8.3454587366E-02   -9.7997825784E-02   -1.1285038541E-01   -1.2796107982E-01
   -1.4327528839E-01   -1.5873505484E-01   -1.7427920751E-01   -1.8984350162E-01
   -2.0536078354E-01   -2.2076117681E-01   -2.3597228985E-01   -2.5091944466E-01
   -2.6552592619E-01   -2.7971325152E-01   -2.9340145801E-01   -3.0650940955E-01
   -3.1895511955E-01   -3.3065608954E-01   -3.4152966202E-01   -3.5149338584E-01
   -3.6046539269E-01   -3.6836478277E-01   -3.7511201785E-01   -3.8062931980E-01
   -3.8484107248E-01   -3.8767422495E-01   -3.8905869385E-01   -3.8892776269E-01
   -3.8721847580E-01   -3.8387202475E-01   -3.7883412492E-01   -3.7205537995E-01
   -3.6349163185E-01   -3.5310429448E-01   -3.4086066843E-01   -3.2673423495E-01
   -3.1070492707E-01   -2.9275937598E-01   -2.7289113071E-01   -2.5110084952E-01
   -2.2739646142E-01   -2.0179329620E-01   -1.7431418196E-01   -1.4498950869E-01
   -1.1385725725E-01   -8.0962992639E-02   -4.6359821307E-02   -1.0108311787E-02
    2.7723621342E-02    6.7060870264E-02    1.0782132327E-01    1.4991609025E-01
    1.9324976369E-01    2.3772071434E-01    2.8322142060E-01    3.2963883032E-01
    3.7685475355E-01    4.2474628476E-01    4.7318625262E-01    5.2204369539E-01
    5.7118435983E-01    6.2047122124E-01    6.6976502227E-01    7.1892482800E-01
    7.6780859440E-01    8.1627374761E-01    8.6417777107E-01    9.1137879757E-01
    9.5773620324E-01    1.0031112005E+00    1.0473674267E+00    1.0903715261E+00
    1.1319937210E+00    1.1721083701E+00    1.2105945108E+00    1.2473363820E+00
    1.2822239263E+00    1.3151532661E+00    1.3460271543E+00    1.3747553947E+00
    1.4012552311E+00    1.4254517025E+00    1.4472779624E+00    1.4666755618E+00
    1.4835946914E+00    1.4979943856E+00    1.5098426834E+00    1.5191167483E+00
    1.5258029450E+00    1.5298968723E+00    1.5314033536E+00    1.5303363830E+00
    1.5267190292E+00    1.5205832962E+00    1.5119699431E+00    1.5009282621E+00
    1.4875158185E+00    1.4717981512E+00    1.4538484375E+00    1.4337471238E+00
    1.4115815233E+00    1.3874453830E+00    1.3614384239E+00    1.3336658549E+00
    1.3042378640E+00    1.2732690900E+00    1.2408780762E+00    1.2071867103E+00
    1.1723196529E+00    1.1364037571E+00    1.0995674836E+00    1.0619403125E+00
    1.0236521567E+00    9.8483277809E-01    9.4561121052E-01    9.0611519240E-01
    8.6647061092E-01    8.2680096123E-01    7.8722682269E-01    7.4786535475E-01
    7.0882981459E-01    6.7022909858E-01    6.3216730946E-01    5.9474335094E-01
    5.5805055110E-01    5.2217631608E-01    4.8720181494E-01    4.5320169669E-01
    4.2024384010E-01    3.8838913665E-01    3.5769130702E-01    3.2819675087E-01
    2.9994442989E-01    2.7296578354E-01    2.4728467723E-01    2.2291738054E-01
    1.9987258434E-01    1.7815143764E-01    1.5774836036E-01    1.3865213717E-01
    1.2084643132E-01    1.0431002304E-01    8.9017122707E-02    7.4937689969E-02
    6.2037766950E-02    5.0279823637E-02    3.9623112727E-02    3.0024031514E-02
    2.1436488387E-02    1.3812271540E-02    7.1014175368E-03    1.2525774019E-03
   -3.7866220142E-03   -8.0692235897E-03   -1.1648594505E-02   -1.4578091839E-02
   -1.6910741090E-02   -1.8698929396E-02   -1.9994115117E-02   -2.0846555265E-02
   -2.1305052182E-02   -2.1416720636E-02   -2.1226776426E-02   -2.0778347337E-02
   -2.0112307184E-02   -1.9267133464E-02   -1.8278788990E-02   -1.7180627676E-02
   -1.6003324467E-02   -1.4774829274E-02   -1.3520344536E-02   -1.2262325919E-02
   -1.1020505458E-02   -9.8119363149E-03   -8.6510581784E-03   -7.5497821684E-03
   -6.5175939937E-03   -5.5616739853E-03   -4.6870325310E-03   -3.8966593166E-03
   -3.1916847115E-03   -2.5715515587E-03   -2.0341955796E-03   -1.5762325483E-03
   -1.1931543278E-03   -8.7949565706E-04   -6.2911260016E-04   -4.3526068300E-04
   -2.9075808812E-04   -1.8615234878E-04   -1.1193829802E-04   -6.2221927368E-05
   -3.1481037631E-05   -1.4495517590E-05   -6.7073123252E-06   -4.2746394820E-06
   -4.1784105781E-06   -4.3209075203E-06   -3.5028228238E-06   -1.8044047560E-06
   -2.0023454063E-07    2.9128402353E-07   -1.4322863993E-08   -4.2845321706E-08
    9.6828146125E-09   -9.3646611719E-11   -3.8952131523E-10    0.0000000000E+00
    0.0000000000E+00    0.0000000000E+00    0.0000000000E+00    0.0000000000E+00
    0.0000000000E+00    0.0000000000E+00    0.0000000000E+00    0.0000000000E+00
    0.0000000000E+00    0.0000000000E+00    0.0000000000E+00    0.0000000000E+00
    0.0000000000E+00    0.0000000000E+00    0.0000000000E+00    0.0000000000E+00
    0.0000000000E+00    0.0000000000E+00    0.0000000000E+00    0.0000000000E+00
    0.0000000000E+00    0.0000000000E+00    0.0000000000E+00    0.0000000000E+00
    0.0000000000E+00    0.0000000000E+00    0.0000000000E+00    0.0000000000E+00
    0.0000000000E+00    0.0000000000E+00    0.0000000000E+00    0.0000000000E+00
    0.0000000000E+00    0.0000000000E+00    0.0000000000E+00    0.0000000000E+00
    0.0000000000E+00    0.0000000000E+00    0.0000000000E+00    0.0000000000E+00
    0.0000000000E+00    0.0000000000E+00    0.0000000000E+00    0.0000000000E+00
    0.0000000000E+00    0.0000000000E+00    0.0000000000E+00    0.0000000000E+00
    0.0000000000E+00    0.0000000000E+00    0.0000000000E+00    0.0000000000E+00
    0.0000000000E+00    0.0000000000E+00    0.0000000000E+00    0.0000000000E+00
    0.0000000000E+00    0.0000000000E+00    0.0000000000E+00    0.0000000000E+00
    0.0000000000E+00    0.0000000000E+00    0.0000000000E+00    0.0000000000E+00
    0.0000000000E+00    0.0000000000E+00    0.0000000000E+00    0.0000000000E+00
    0.0000000000E+00    0.0000000000E+00    0.0000000000E+00    0.0000000000E+00
    0.0000000000E+00    0.0000000000E+00    0.0000000000E+00    0.0000000000E+00
    0.0000000000E+00    0.0000000000E+00    0.0000000000E+00    0.0000000000E+00
    0.0000000000E+00    0.0000000000E+00    0.0000000000E+00    0.0000000000E+00
    0.0000000000E+00    0.0000000000E+00    0.0000000000E+00    0.0000000000E+00
    0.0000000000E+00    0.0000000000E+00    0.0000000000E+00    0.0000000000E+00
    0.0000000000E+00    0.0000000000E+00    0.0000000000E+00    0.0000000000E+00
    0.0000000000E+00    0.0000000000E+00    0.0000000000E+00    0.0000000000E+00
    0.0000000000E+00    0.0000000000E+00    0.0000000000E+00    0.0000000000E+00
 0. 0. 0. 0.
 0. 0. 0. 0.
 0. 0. 0. 0.
 0. 0. 0. 0.
 0. 0. 0. 0.
 0. 0. 0. 0.
 0. 0. 0. 0.
 0. 0. 0. 0.
 0. 0. 0. 0.
 0. 0. 0. 0.
 0. 0. 0. 0.
 0. 0. 0. 0.
 0. 0. 0. 0.
 0. 0. 0. 0.
 0. 0. 0. 0.
 0. 0. 0. 0.
 0. 0. 0. 0.
 0. 0. 0. 0.
 0. 0. 0. 0.
 0. 0. 0. 0.
 0. 0. 0. 0.
 0. 0. 0. 0.
 0. 0. 0. 0.
 0. 0. 0. 0.
 0. 0. 0. 0.
 0. 0. 0. 0.
 0. 0. 0. 0.
 0. 0. 0. 0.
 0. 0. 0. 0.
 0. 0. 0. 0.
 0. 0. 0. 0.
 0. 0. 0. 0.
 0. 0. 0. 0.
 0. 0. 0. 0.
 0. 0. 0. 0.
 0. 0. 0. 0.
 0. 0. 0. 0.
 0. 0. 0. 0.
 0. 0. 0. 0.
 0. 0. 0. 0.
 0. 0. 0. 0.
 0. 0. 0. 0.
 0. 0. 0. 0.
 0. 0. 0. 0.
 0. 0. 0. 0.
 0. 0. 0. 0.
 0. 0. 0. 0.
 0. 0. 0. 0.
 0. 0. 0. 0.
 0. 0. 0. 0.
 0. 0. 0. 0.
 0. 0. 0. 0.
 0. 0. 0. 0.
 0. 0. 0. 0.
 0. 0. 0. 0.
 0. 0. 0. 0.
 0. 0. 0. 0.
 0. 0. 0. 0.
 0. 0. 0. 0.
 0. 0. 0. 0.
 0. 0. 0. 0.
 0. 0. 0. 0.
 0. 0. 0. 0.
 0. 0. 0. 0.
 0. 0. 0. 0.
 0. 0. 0. 0.
 0. 0. 0. 0.
 0. 0. 0. 0.
 0. 0. 0. 0.
 0. 0. 0. 0.
 0. 0. 0. 0.
 0. 0. 0. 0.
 0. 0. 0. 0.
 0. 0. 0. 0.
 0. 0. 0. 0.
 0. 0. 0. 0.
 0. 0. 0. 0.
 0. 0. 0. 0.
 0. 0. 0. 0.
 0. 0. 0. 0.
 0. 0. 0. 0.
 0. 0. 0. 0.
 0. 0. 0. 0.
 0. 0. 0. 0.
 0. 0. 0. 0.
 0. 0. 0. 0.
 0. 0. 0. 0.
 0. 0. 0. 0.
 0. 0. 0. 0.
 0. 0. 0. 0.
 0. 0. 0. 0.
 0. 0. 0. 0.
 0. 0. 0. 0.
 0. 0. 0. 0.
 0. 0. 0. 0.
 0. 0. 0. 0.
 0. 0. 0. 0.
 0. 0. 0. 0.
 0. 0. 0. 0.
 0. 0. 0. 0.
 0. 0. 0. 0.
 0. 0. 0. 0.
 0. 0. 0. 0.
 0. 0. 0. 0.
 0. 0. 0. 0.
 0. 0. 0. 0.
 0. 0. 0. 0.
 0. 0. 0. 0.
 0. 0. 0. 0.
 0. 0. 0. 0.
 0. 0. 0. 0.
 0. 0. 0. 0.
 0. 0. 0. 0.
 0. 0. 0. 0.
 0. 0. 0. 0.
 0. 0. 0. 0.
 0. 0. 0. 0.
 0. 0. 0. 0.
 0. 0. 0. 0.
 0. 0. 0. 0.
 0. 0. 0. 0.
 0. 0. 0. 0.
 0. 0. 0. 0.
 0. 0. 0. 0.
 0. 0. 0. 0.
 0. 0. 0. 0.
 0. 0. 0. 0.
 0. 0. 0. 0.
 0. 0. 0. 0.
 0. 0. 0. 0.
 0. 0. 0. 0.
 0. 0. 0. 0.
 0. 0. 0. 0.
 0. 0. 0. 0.
 0. 0. 0. 0.
 0. 0. 0. 0.
 0. 0. 0. 0.
 0. 0. 0. 0.
 0. 0. 0. 0.
 0. 0. 0. 0.
 0. 0. 0. 0.
 0. 0. 0. 0.
 0. 0. 0. 0.
 0. 0. 0. 0.
 0. 0. 0. 0.
 0. 0. 0. 0.
 0. 0. 0. 0.
 0. 0. 0. 0.
 0. 0. 0. 0.
 0. 0. 0. 0.
 0. 0. 0. 0.
 0. 0. 0. 0.
 0. 0. 0. 0.
 0. 0. 0. 0.
 0. 0. 0. 0.
 0. 0. 0. 0.
 0. 0. 0. 0.
 0. 0. 0. 0.
 0. 0. 0. 0.
 0. 0. 0. 0.
 0. 0. 0. 0.
 0. 0. 0. 0.
 0. 0. 0. 0.
 0. 0. 0. 0.
 0. 0. 0. 0.
 0. 0. 0. 0.
 0. 0. 0. 0.
 0. 0. 0. 0.
 0. 0. 0. 0.
 0. 0. 0. 0.
 0. 0. 0. 0.
 0. 0. 0. 0.
 0. 0. 0. 0.
 0. 0. 0. 0.
 0. 0. 0. 0.
 0. 0. 0. 0.
 0. 0. 0. 0.
 0. 0. 0. 0.
 0. 0. 0. 0.
 0. 0. 0. 0.
 0. 0. 0. 0.
 0. 0. 0. 0.
 0. 0. 0. 0.
 0. 0. 0. 0.
 0. 0. 0. 0.
 0. 0. 0. 0.
 0. 0. 0. 0.
 0. 0. 0. 0.
 0. 0. 0. 0.
 0. 0. 0. 0.
 0. 0. 0. 0.
 0. 0. 0. 0.
 0. 0. 0. 0.
 0. 0. 0. 0.
 0. 0. 0. 0.
 0. 0. 0. 0.
 0. 0. 0. 0.
 0. 0. 0. 0.
 0. 0. 0. 0.
 0. 0. 0. 0.
 0. 0. 0. 0.
 0. 0. 0. 0.
 0. 0. 0. 0.
 0. 0. 0. 0.
 0. 0. 0. 0.
 0. 0. 0. 0.
 0. 0. 0. 0.
 0. 0. 0. 0.
 0. 0. 0. 0.
 0. 0. 0. 0.
 0. 0. 0. 0.
 0. 0. 0. 0.
 0. 0. 0. 0.
 0. 0. 0. 0.
 0. 0. 0. 0.
 0. 0. 0. 0.
 0. 0. 0. 0.
 0. 0. 0. 0.
 0. 0. 0. 0.
 0. 0. 0. 0.
 0. 0. 0. 0.
 0. 0. 0. 0.
 0. 0. 0. 0.
 0. 0. 0. 0.
 0. 0. 0. 0.
 0. 0. 0. 0.
 0. 0. 0. 0.
 0. 0. 0. 0.
 0. 0. 0. 0.
 0. 0. 0. 0.
 0. 0. 0. 0.
 0. 0. 0. 0.
 0. 0. 0. 0.
 0. 0. 0. 0.
 0. 0. 0. 0.
 0. 0. 0. 0.
 0. 0. 0. 0.
 0. 0. 0. 0.
 0. 0. 0. 0.
 0. 0. 0. 0.
 0. 0. 0. 0.
 0. 0. 0. 0.
 0. 0. 0. 0.
 0. 0. 0. 0.
 0. 0. 0. 0.
 0. 0. 0. 0.
 0. 0. 0. 0.
 0. 0. 0. 0.
 0. 0. 0. 0.
 0. 0. 0. 0.
 0. 0. 0. 0.
 0. 0. 0. 0.
 0. 0. 0. 0.
 0. 0. 0. 0.
 0. 0. 0. 0.
 0. 0. 0. 0.
 0. 0. 0. 0.
 0. 0. 0. 0.
 0. 0. 0. 0.
 0. 0. 0. 0.
 0. 0. 0. 0.
 0. 0. 0. 0.
 0. 0. 0. 0.
 0. 0. 0. 0.
 0. 0. 0. 0.
 0. 0. 0. 0.
 0. 0.
   </PP_BETA.2>
   <PP_BETA.3
       type="real"
       size="1426"
       columns="4"
       index="3"
       angular_momentum="1"
       cutoff_radius_index=" 360"
       cutoff_radius="    3.5900000000E+00" >
   -7.8015545413E-12    2.3293032184E-04    9.3172208446E-04    2.0963767812E-03
    3.7268939117E-03    5.8232665124E-03    8.3854749275E-03    1.1413478849E-02
    1.4907207662E-02    1.8866549140E-02    2.3291336538E-02    2.8181334151E-02
    3.3536221394E-02    3.9355575489E-02    4.5638852822E-02    5.2385369076E-02
    5.9594278222E-02    6.7264550469E-02    7.5394949272E-02    8.3984007524E-02
    9.3030003020E-02    1.0253093334E-01    1.1248449027E-01    1.2288803381E-01
    1.3373856609E-01    1.4503270506E-01    1.5676665835E-01    1.6893619721E-01
    1.8153663084E-01    1.9456278116E-01    2.0800895813E-01    2.2186893587E-01
    2.3613592958E-01    2.5080257349E-01    2.6586089991E-01    2.8130231957E-01
    2.9711760333E-01    3.1329686537E-01    3.2982954799E-01    3.4670440825E-01
    3.6390950628E-01    3.8143219567E-01    3.9925911582E-01    4.1737618647E-01
    4.3576860439E-01    4.5442084238E-01    4.7331665061E-01    4.9243906038E-01
    5.1177039030E-01    5.3129225505E-01    5.5098557656E-01    5.7083059786E-01
    5.9080689941E-01    6.1089341806E-01    6.3106846854E-01    6.5130976753E-01
    6.7159446024E-01    6.9189914950E-01    7.1219992728E-01    7.3247240862E-01
    7.5269176784E-01    7.7283277709E-01    7.9286984701E-01    8.1277706947E-01
    8.3252826228E-01    8.5209701584E-01    8.7145674143E-01    8.9058072120E-01
    9.0944215962E-01    9.2801423627E-01    9.4627015985E-01    9.6418322324E-01
    9.8172685936E-01    9.9887469793E-01    1.0156006226E+00    1.0318788285E+00
    1.0476838802E+00    1.0629907692E+00    1.0777749720E+00    1.0920125072E+00
    1.1056799922E+00    1.1187546993E+00    1.1312146114E+00    1.1430384754E+00
    1.1542058556E+00    1.1646971851E+00    1.1744938156E+00    1.1835780655E+00
    1.1919332663E+00    1.1995438065E+00    1.2063951736E+00    1.2124739939E+00
    1.2177680687E+00    1.2222664097E+00    1.2259592697E+00    1.2288381718E+00
    1.2308959350E+00    1.2321266966E+00    1.2325259322E+00    1.2320904714E+00
    1.2308185108E+00    1.2287096240E+00    1.2257647672E+00    1.2219862821E+00
    1.2173778953E+00    1.2119447143E+00    1.2056932190E+00    1.1986312517E+00
    1.1907680019E+00    1.1821139883E+00    1.1726810383E+00    1.1624822625E+00
    1.1515320277E+00    1.1398459257E+00    1.1274407396E+00    1.1143344066E+00
    1.1005459787E+00    1.0860955798E+00    1.0710043613E+00    1.0552944541E+00
    1.0389889189E+00    1.0221116944E+00    1.0046875429E+00    9.8674199502E-01
    9.6830129134E-01    9.4939232386E-01    9.3004257519E-01    9.1028005696E-01
    8.9013324707E-01    8.6963102615E-01    8.4880261335E-01    8.2767750164E-01
    8.0628539292E-01    7.8465613283E-01    7.6281964586E-01    7.4080587049E-01
    7.1864469496E-01    6.9636589348E-01    6.7399906333E-01    6.5157356283E-01
    6.2911845047E-01    6.0666242526E-01    5.8423376856E-01    5.6186028747E-01
    5.3956925988E-01    5.1738738148E-01    4.9534071469E-01    4.7345463976E-01
    4.5175380809E-01    4.3026209793E-01    4.0900257253E-01    3.8799744089E-01
    3.6726802119E-01    3.4683470692E-01    3.2671693594E-01    3.0693316244E-01
    2.8750083183E-01    2.6843635879E-01    2.4975510839E-01    2.3147138037E-01
    2.1359839671E-01    1.9614829237E-01    1.7913210942E-01    1.6255979447E-01
    1.4644019943E-01    1.3078108578E-01    1.1558913207E-01    1.0086994501E-01
    8.6628073898E-02    7.2867028534E-02    5.9589300586E-02    4.6796388406E-02
    3.4488825308E-02    2.2666211313E-02    1.1327248344E-02    4.6977887529E-04
   -9.9091719576E-03   -1.9813350817E-02   -2.9247227175E-02   -3.8215940899E-02
   -4.6725246414E-02   -5.4781453439E-02   -6.2391364339E-02   -6.9562208017E-02
   -7.6301570705E-02   -8.2617322975E-02   -8.8517566151E-02   -9.4010612659E-02
   -9.9104973006E-02   -1.0380934030E-01   -1.0813257587E-01   -1.1208369573E-01
   -1.1567185755E-01   -1.1890634842E-01   -1.2179657302E-01   -1.2435204240E-01
   -1.2658236315E-01   -1.2849722700E-01   -1.3010640071E-01   -1.3141971637E-01
   -1.3244706179E-01   -1.3319837127E-01   -1.3368361641E-01   -1.3391279710E-01
   -1.3389593270E-01   -1.3364305312E-01   -1.3316419014E-01   -1.3246936861E-01
   -1.3156859775E-01   -1.3047186242E-01   -1.2918911431E-01   -1.2773026319E-01
   -1.2610516802E-01   -1.2432362809E-01   -1.2239537399E-01   -1.2033005863E-01
   -1.1813724811E-01   -1.1582641258E-01   -1.1340691698E-01   -1.1088801177E-01
   -1.0827882361E-01   -1.0558834591E-01   -1.0282542953E-01   -9.9998773228E-02
   -9.7116914346E-02   -9.4188219338E-02   -9.1220874423E-02   -8.8222876281E-02
   -8.5202022833E-02   -8.2165904135E-02   -7.9121893420E-02   -7.6077138302E-02
   -7.3038552191E-02   -7.0012805941E-02   -6.7006319769E-02   -6.4025255482E-02
   -6.1075509044E-02   -5.8162703523E-02   -5.5292182454E-02   -5.2469003656E-02
   -4.9697933540E-02   -4.6983441941E-02   -4.4329697522E-02   -4.1740563768E-02
   -3.9219595622E-02   -3.6770036785E-02   -3.4394817710E-02   -3.2096554335E-02
   -2.9877547557E-02   -2.7739783501E-02   -2.5684934583E-02   -2.3714361398E-02
   -2.1829115446E-02   -2.0029942715E-02   -1.8317288127E-02   -1.6691300850E-02
   -1.5151840483E-02   -1.3698484122E-02   -1.2330534280E-02   -1.1047027680E-02
   -9.8467448858E-03   -8.7282207653E-03   -7.6897557646E-03   -6.7294279663E-03
   -5.8451059044E-03   -5.0344621044E-03   -4.2949873092E-03   -3.6240053541E-03
   -3.0186886457E-03   -2.4760741947E-03   -1.9930801678E-03   -1.5665228803E-03
   -1.1931341624E-03   -8.6957911505E-04   -5.9247413354E-04   -3.5840513625E-04
   -1.6394590957E-04   -5.6764923722E-06    1.1979830557E-04    2.1583047148E-04
    2.8571051324E-04    3.3264943843E-04    3.5976071400E-04    3.7004327706E-04
    3.6636339781E-04    3.5144121598E-04    3.2782757254E-04    2.9786661779E-04
    2.6370732800E-04    2.2730873322E-04    1.9041490062E-04    1.5454114054E-04
    1.2096183719E-04    9.0698673989E-05    6.4510485909E-05    4.2883724730E-05
    2.6021390256E-05    1.3847973296E-05    5.9881149110E-06    1.7560788378E-06
    2.0629079243E-07   -1.8363333876E-08   -2.1781876903E-09    9.0826699705E-09
    7.6158820960E-09   -3.8650994741E-09   -2.0119530115E-09    2.1643291776E-11
    4.4383900837E-12    0.0000000000E+00    0.0000000000E+00    0.0000000000E+00
    0.0000000000E+00    0.0000000000E+00    0.0000000000E+00    0.0000000000E+00
    0.0000000000E+00    0.0000000000E+00    0.0000000000E+00    0.0000000000E+00
    0.0000000000E+00    0.0000000000E+00    0.0000000000E+00    0.0000000000E+00
    0.0000000000E+00    0.0000000000E+00    0.0000000000E+00    0.0000000000E+00
    0.0000000000E+00    0.0000000000E+00    0.0000000000E+00    0.0000000000E+00
    0.0000000000E+00    0.0000000000E+00    0.0000000000E+00    0.0000000000E+00
    0.0000000000E+00    0.0000000000E+00    0.0000000000E+00    0.0000000000E+00
    0.0000000000E+00    0.0000000000E+00    0.0000000000E+00    0.0000000000E+00
    0.0000000000E+00    0.0000000000E+00    0.0000000000E+00    0.0000000000E+00
    0.0000000000E+00    0.0000000000E+00    0.0000000000E+00    0.0000000000E+00
    0.0000000000E+00    0.0000000000E+00    0.0000000000E+00    0.0000000000E+00
    0.0000000000E+00    0.0000000000E+00    0.0000000000E+00    0.0000000000E+00
 0. 0. 0. 0.
 0. 0. 0. 0.
 0. 0. 0. 0.
 0. 0. 0. 0.
 0. 0. 0. 0.
 0. 0. 0. 0.
 0. 0. 0. 0.
 0. 0. 0. 0.
 0. 0. 0. 0.
 0. 0. 0. 0.
 0. 0. 0. 0.
 0. 0. 0. 0.
 0. 0. 0. 0.
 0. 0. 0. 0.
 0. 0. 0. 0.
 0. 0. 0. 0.
 0. 0. 0. 0.
 0. 0. 0. 0.
 0. 0. 0. 0.
 0. 0. 0. 0.
 0. 0. 0. 0.
 0. 0. 0. 0.
 0. 0. 0. 0.
 0. 0. 0. 0.
 0. 0. 0. 0.
 0. 0. 0. 0.
 0. 0. 0. 0.
 0. 0. 0. 0.
 0. 0. 0. 0.
 0. 0. 0. 0.
 0. 0. 0. 0.
 0. 0. 0. 0.
 0. 0. 0. 0.
 0. 0. 0. 0.
 0. 0. 0. 0.
 0. 0. 0. 0.
 0. 0. 0. 0.
 0. 0. 0. 0.
 0. 0. 0. 0.
 0. 0. 0. 0.
 0. 0. 0. 0.
 0. 0. 0. 0.
 0. 0. 0. 0.
 0. 0. 0. 0.
 0. 0. 0. 0.
 0. 0. 0. 0.
 0. 0. 0. 0.
 0. 0. 0. 0.
 0. 0. 0. 0.
 0. 0. 0. 0.
 0. 0. 0. 0.
 0. 0. 0. 0.
 0. 0. 0. 0.
 0. 0. 0. 0.
 0. 0. 0. 0.
 0. 0. 0. 0.
 0. 0. 0. 0.
 0. 0. 0. 0.
 0. 0. 0. 0.
 0. 0. 0. 0.
 0. 0. 0. 0.
 0. 0. 0. 0.
 0. 0. 0. 0.
 0. 0. 0. 0.
 0. 0. 0. 0.
 0. 0. 0. 0.
 0. 0. 0. 0.
 0. 0. 0. 0.
 0. 0. 0. 0.
 0. 0. 0. 0.
 0. 0. 0. 0.
 0. 0. 0. 0.
 0. 0. 0. 0.
 0. 0. 0. 0.
 0. 0. 0. 0.
 0. 0. 0. 0.
 0. 0. 0. 0.
 0. 0. 0. 0.
 0. 0. 0. 0.
 0. 0. 0. 0.
 0. 0. 0. 0.
 0. 0. 0. 0.
 0. 0. 0. 0.
 0. 0. 0. 0.
 0. 0. 0. 0.
 0. 0. 0. 0.
 0. 0. 0. 0.
 0. 0. 0. 0.
 0. 0. 0. 0.
 0. 0. 0. 0.
 0. 0. 0. 0.
 0. 0. 0. 0.
 0. 0. 0. 0.
 0. 0. 0. 0.
 0. 0. 0. 0.
 0. 0. 0. 0.
 0. 0. 0. 0.
 0. 0. 0. 0.
 0. 0. 0. 0.
 0. 0. 0. 0.
 0. 0. 0. 0.
 0. 0. 0. 0.
 0. 0. 0. 0.
 0. 0. 0. 0.
 0. 0. 0. 0.
 0. 0. 0. 0.
 0. 0. 0. 0.
 0. 0. 0. 0.
 0. 0. 0. 0.
 0. 0. 0. 0.
 0. 0. 0. 0.
 0. 0. 0. 0.
 0. 0. 0. 0.
 0. 0. 0. 0.
 0. 0. 0. 0.
 0. 0. 0. 0.
 0. 0. 0. 0.
 0. 0. 0. 0.
 0. 0. 0. 0.
 0. 0. 0. 0.
 0. 0. 0. 0.
 0. 0. 0. 0.
 0. 0. 0. 0.
 0. 0. 0. 0.
 0. 0. 0. 0.
 0. 0. 0. 0.
 0. 0. 0. 0.
 0. 0. 0. 0.
 0. 0. 0. 0.
 0. 0. 0. 0.
 0. 0. 0. 0.
 0. 0. 0. 0.
 0. 0. 0. 0.
 0. 0. 0. 0.
 0. 0. 0. 0.
 0. 0. 0. 0.
 0. 0. 0. 0.
 0. 0. 0. 0.
 0. 0. 0. 0.
 0. 0. 0. 0.
 0. 0. 0. 0.
 0. 0. 0. 0.
 0. 0. 0. 0.
 0. 0. 0. 0.
 0. 0. 0. 0.
 0. 0. 0. 0.
 0. 0. 0. 0.
 0. 0. 0. 0.
 0. 0. 0. 0.
 0. 0. 0. 0.
 0. 0. 0. 0.
 0. 0. 0. 0.
 0. 0. 0. 0.
 0. 0. 0. 0.
 0. 0. 0. 0.
 0. 0. 0. 0.
 0. 0. 0. 0.
 0. 0. 0. 0.
 0. 0. 0. 0.
 0. 0. 0. 0.
 0. 0. 0. 0.
 0. 0. 0. 0.
 0. 0. 0. 0.
 0. 0. 0. 0.
 0. 0. 0. 0.
 0. 0. 0. 0.
 0. 0. 0. 0.
 0. 0. 0. 0.
 0. 0. 0. 0.
 0. 0. 0. 0.
 0. 0. 0. 0.
 0. 0. 0. 0.
 0. 0. 0. 0.
 0. 0. 0. 0.
 0. 0. 0. 0.
 0. 0. 0. 0.
 0. 0. 0. 0.
 0. 0. 0. 0.
 0. 0. 0. 0.
 0. 0. 0. 0.
 0. 0. 0. 0.
 0. 0. 0. 0.
 0. 0. 0. 0.
 0. 0. 0. 0.
 0. 0. 0. 0.
 0. 0. 0. 0.
 0. 0. 0. 0.
 0. 0. 0. 0.
 0. 0. 0. 0.
 0. 0. 0. 0.
 0. 0. 0. 0.
 0. 0. 0. 0.
 0. 0. 0. 0.
 0. 0. 0. 0.
 0. 0. 0. 0.
 0. 0. 0. 0.
 0. 0. 0. 0.
 0. 0. 0. 0.
 0. 0. 0. 0.
 0. 0. 0. 0.
 0. 0. 0. 0.
 0. 0. 0. 0.
 0. 0. 0. 0.
 0. 0. 0. 0.
 0. 0. 0. 0.
 0. 0. 0. 0.
 0. 0. 0. 0.
 0. 0. 0. 0.
 0. 0. 0. 0.
 0. 0. 0. 0.
 0. 0. 0. 0.
 0. 0. 0. 0.
 0. 0. 0. 0.
 0. 0. 0. 0.
 0. 0. 0. 0.
 0. 0. 0. 0.
 0. 0. 0. 0.
 0. 0. 0. 0.
 0. 0. 0. 0.
 0. 0. 0. 0.
 0. 0. 0. 0.
 0. 0. 0. 0.
 0. 0. 0. 0.
 0. 0. 0. 0.
 0. 0. 0. 0.
 0. 0. 0. 0.
 0. 0. 0. 0.
 0. 0. 0. 0.
 0. 0. 0. 0.
 0. 0. 0. 0.
 0. 0. 0. 0.
 0. 0. 0. 0.
 0. 0. 0. 0.
 0. 0. 0. 0.
 0. 0. 0. 0.
 0. 0. 0. 0.
 0. 0. 0. 0.
 0. 0. 0. 0.
 0. 0. 0. 0.
 0. 0. 0. 0.
 0. 0. 0. 0.
 0. 0. 0. 0.
 0. 0. 0. 0.
 0. 0. 0. 0.
 0. 0. 0. 0.
 0. 0. 0. 0.
 0. 0. 0. 0.
 0. 0. 0. 0.
 0. 0. 0. 0.
 0. 0. 0. 0.
 0. 0. 0. 0.
 0. 0. 0. 0.
 0. 0. 0. 0.
 0. 0. 0. 0.
 0. 0. 0. 0.
 0. 0. 0. 0.
 0. 0. 0. 0.
 0. 0. 0. 0.
 0. 0. 0. 0.
 0. 0. 0. 0.
 0. 0. 0. 0.
 0. 0. 0. 0.
 0. 0. 0. 0.
 0. 0. 0. 0.
 0. 0. 0. 0.
 0. 0. 0. 0.
 0. 0.
   </PP_BETA.3>
   <PP_BETA.4
       type="real"
       size="1426"
       columns="4"
       index="4"
       angular_momentum="1"
       cutoff_radius_index=" 360"
       cutoff_radius="    3.5900000000E+00" >
    2.9107274967E-11    2.0426299919E-05    8.1017113533E-05    1.7971195751E-04
    3.1308926142E-04    4.7638516722E-04    6.6351974275E-04    8.6713050332E-04
    1.0786131065E-03    1.2881690558E-03    1.4848602200E-03    1.6566699486E-03
    1.7905705332E-03    1.8725967425E-03    1.8879251303E-03    1.8209587916E-03
    1.6554172200E-03    1.3744308959E-03    9.6064021460E-04    3.9629834475E-04
   -3.3662241275E-04   -1.2563212099E-03   -2.3810566415E-03   -3.7290326138E-03
   -5.3182825779E-03   -7.1665526237E-03   -9.2911839388E-03   -1.1708995143E-02
   -1.4436165014E-02   -1.7488116123E-02   -2.0879399898E-02   -2.4623583632E-02
   -2.8733139953E-02   -3.3219339268E-02   -3.8092145669E-02   -4.3360116817E-02
   -4.9030308262E-02   -5.5108182692E-02   -6.1597524539E-02   -6.8500360405E-02
   -7.5816885708E-02   -8.3545397951E-02   -9.1682236995E-02   -1.0022173268E-01
   -1.0915616011E-01   -1.1847570295E-01   -1.2816842492E-01   -1.3822024980E-01
   -1.4861495012E-01   -1.5933414473E-01   -1.7035730535E-01   -1.8166177228E-01
   -1.9322277923E-01   -2.0501348747E-01   -2.1700502911E-01   -2.2916655963E-01
   -2.4146531949E-01   -2.5386670473E-01   -2.6633434645E-01   -2.7883019893E-01
   -2.9131463615E-01   -3.0374655657E-01   -3.1608349569E-01   -3.2828174619E-01
   -3.4029648528E-01   -3.5208190880E-01   -3.6359137163E-01   -3.7477753401E-01
   -3.8559251332E-01   -3.9598804058E-01   -4.0591562143E-01   -4.1532670077E-01
   -4.2417283063E-01   -4.3240584057E-01   -4.3997801001E-01   -4.4684224191E-01
   -4.5295223701E-01   -4.5826266813E-01   -4.6272935373E-01   -4.6630943012E-01
   -4.6896152165E-01   -4.7064590813E-01   -4.7132468893E-01   -4.7096194297E-01
   -4.6952388407E-01   -4.6697901085E-01   -4.6329825073E-01   -4.5845509733E-01
   -4.5242574065E-01   -4.4518918948E-01   -4.3672738563E-01   -4.2702530918E-01
   -4.1607107458E-01   -4.0385601687E-01   -3.9037476787E-01   -3.7562532169E-01
   -3.5960908938E-01   -3.4233094243E-01   -3.2379924472E-01   -3.0402587283E-01
   -2.8302622445E-01   -2.6081921485E-01   -2.3742726118E-01   -2.1287625471E-01
   -1.8719552092E-01   -1.6041776752E-01   -1.3257902052E-01   -1.0371854843E-01
   -7.3878774945E-02   -4.3105180075E-02   -1.1446190322E-02    2.1046942009E-02
    5.4320269871E-02    8.8317292533E-02    1.2297910618E-01    1.5824456356E-01
    1.9405044215E-01    2.3033162025E-01    2.6702126051E-01    3.0405100010E-01
    3.4135114703E-01    3.7885088183E-01    4.1647846395E-01    4.5416144214E-01
    4.9182686803E-01    5.2940151227E-01    5.6681208230E-01    6.0398544112E-01
    6.4084882626E-01    6.7733006800E-01    7.1335780635E-01    7.4886170577E-01
    7.8377266692E-01    8.1802303474E-01    8.5154680208E-01    8.8427980803E-01
    9.1615993042E-01    9.4712727165E-01    9.7712433721E-01    1.0060962062E+00
    1.0339906932E+00    1.0607585014E+00    1.0863533650E+00    1.1107321822E+00
    1.1338551370E+00    1.1556858098E+00    1.1761912760E+00    1.1953421926E+00
    1.2131128728E+00    1.2294813467E+00    1.2444294098E+00    1.2579426580E+00
    1.2700105083E+00    1.2806262070E+00    1.2897868224E+00    1.2974932253E+00
    1.3037500537E+00    1.3085656650E+00    1.3119520728E+00    1.3139248707E+00
    1.3145031415E+00    1.3137093526E+00    1.3115692386E+00    1.3081116686E+00
    1.3033685023E+00    1.2973744309E+00    1.2901668068E+00    1.2817854596E+00
    1.2722725001E+00    1.2616721124E+00    1.2500303339E+00    1.2373948242E+00
    1.2238146226E+00    1.2093398949E+00    1.1940216702E+00    1.1779115666E+00
    1.1610615085E+00    1.1435234333E+00    1.1253489897E+00    1.1065892271E+00
    1.0872942768E+00    1.0675130245E+00    1.0472927765E+00    1.0266789151E+00
    1.0057145611E+00    9.8444021372E-01    9.6289444549E-01    9.4111499461E-01
    9.1913904179E-01    8.9700307875E-01    8.7474285794E-01    8.5239333121E-01
    8.2998859211E-01    8.0756182244E-01    7.8514524266E-01    7.6277006621E-01
    7.4046645774E-01    7.1826349527E-01    6.9618913629E-01    6.7427018785E-01
    6.5253228067E-01    6.3099984713E-01    6.0969610330E-01    5.8864303483E-01
    5.6786138683E-01    5.4737065747E-01    5.2718909539E-01    5.0733370083E-01
    4.8782023023E-01    4.6866320442E-01    4.4987592000E-01    4.3147046402E-01
    4.1345773161E-01    3.9584744657E-01    3.7864818450E-01    3.6186739862E-01
    3.4551144775E-01    3.2958562649E-01    3.1409419729E-01    2.9904042426E-01
    2.8442660846E-01    2.7025412452E-01    2.5652345838E-01    2.4323424585E-01
    2.3038531200E-01    2.1797471102E-01    2.0599976638E-01    1.9445711117E-01
    1.8334272848E-01    1.7265199156E-01    1.6237970362E-01    1.5252013729E-01
    1.4306707333E-01    1.3401383877E-01    1.2535334412E-01    1.1707811971E-01
    1.0918035102E-01    1.0165191287E-01    9.4484402545E-02    8.7669171629E-02
    8.1197356652E-02    7.5059908414E-02    6.9247620015E-02    6.3751153570E-02
    5.8561065595E-02    5.3667831070E-02    4.9061866195E-02    4.4733549854E-02
    4.0673243824E-02    3.6871311755E-02    3.3318136954E-02    3.0004139024E-02
    2.6919789412E-02    2.4055625907E-02    2.1402266153E-02    1.8950420225E-02
    1.6690902334E-02    1.4614641723E-02    1.2712692808E-02    1.0976244642E-02
    9.3966297389E-03    7.9653323373E-03    6.6739961506E-03    5.5144316711E-03
    4.4786230722E-03    3.5587347669E-03    2.7471176665E-03    2.0363151840E-03
    1.4190690282E-03    8.8832481243E-04    4.3723757823E-04    5.9177148327E-05
   -2.5226671672E-04   -5.0327897760E-04   -6.9981406068E-04   -8.4759068341E-04
   -9.5208685383E-04   -1.0185350884E-03   -1.0519170623E-03   -1.0569584257E-03
   -1.0381237962E-03   -9.9961186253E-04   -9.4535058909E-04   -8.7899198087E-04
   -8.0390552645E-04   -7.2318364350E-04   -6.3962241895E-04   -5.5568146829E-04
   -4.7350289155E-04   -3.9492573101E-04   -3.2150426321E-04   -2.5451230540E-04
   -1.9492624437E-04   -1.4342115074E-04   -1.0036567374E-04   -6.5816714789E-05
   -3.9511143066E-05   -2.0876749577E-05   -9.0079568779E-06   -2.6608859719E-06
   -3.1511275890E-07    4.7390376871E-08    1.4672953343E-08   -1.5686062217E-08
   -1.3215140438E-08    6.2772490738E-09    3.2555058420E-09   -8.0798488680E-11
   -1.6569346966E-11    0.0000000000E+00    0.0000000000E+00    0.0000000000E+00
    0.0000000000E+00    0.0000000000E+00    0.0000000000E+00    0.0000000000E+00
    0.0000000000E+00    0.0000000000E+00    0.0000000000E+00    0.0000000000E+00
    0.0000000000E+00    0.0000000000E+00    0.0000000000E+00    0.0000000000E+00
    0.0000000000E+00    0.0000000000E+00    0.0000000000E+00    0.0000000000E+00
    0.0000000000E+00    0.0000000000E+00    0.0000000000E+00    0.0000000000E+00
    0.0000000000E+00    0.0000000000E+00    0.0000000000E+00    0.0000000000E+00
    0.0000000000E+00    0.0000000000E+00    0.0000000000E+00    0.0000000000E+00
    0.0000000000E+00    0.0000000000E+00    0.0000000000E+00    0.0000000000E+00
    0.0000000000E+00    0.0000000000E+00    0.0000000000E+00    0.0000000000E+00
    0.0000000000E+00    0.0000000000E+00    0.0000000000E+00    0.0000000000E+00
    0.0000000000E+00    0.0000000000E+00    0.0000000000E+00    0.0000000000E+00
    0.0000000000E+00    0.0000000000E+00    0.0000000000E+00    0.0000000000E+00
 0. 0. 0. 0.
 0. 0. 0. 0.
 0. 0. 0. 0.
 0. 0. 0. 0.
 0. 0. 0. 0.
 0. 0. 0. 0.
 0. 0. 0. 0.
 0. 0. 0. 0.
 0. 0. 0. 0.
 0. 0. 0. 0.
 0. 0. 0. 0.
 0. 0. 0. 0.
 0. 0. 0. 0.
 0. 0. 0. 0.
 0. 0. 0. 0.
 0. 0. 0. 0.
 0. 0. 0. 0.
 0. 0. 0. 0.
 0. 0. 0. 0.
 0. 0. 0. 0.
 0. 0. 0. 0.
 0. 0. 0. 0.
 0. 0. 0. 0.
 0. 0. 0. 0.
 0. 0. 0. 0.
 0. 0. 0. 0.
 0. 0. 0. 0.
 0. 0. 0. 0.
 0. 0. 0. 0.
 0. 0. 0. 0.
 0. 0. 0. 0.
 0. 0. 0. 0.
 0. 0. 0. 0.
 0. 0. 0. 0.
 0. 0. 0. 0.
 0. 0. 0. 0.
 0. 0. 0. 0.
 0. 0. 0. 0.
 0. 0. 0. 0.
 0. 0. 0. 0.
 0. 0. 0. 0.
 0. 0. 0. 0.
 0. 0. 0. 0.
 0. 0. 0. 0.
 0. 0. 0. 0.
 0. 0. 0. 0.
 0. 0. 0. 0.
 0. 0. 0. 0.
 0. 0. 0. 0.
 0. 0. 0. 0.
 0. 0. 0. 0.
 0. 0. 0. 0.
 0. 0. 0. 0.
 0. 0. 0. 0.
 0. 0. 0. 0.
 0. 0. 0. 0.
 0. 0. 0. 0.
 0. 0. 0. 0.
 0. 0. 0. 0.
 0. 0. 0. 0.
 0. 0. 0. 0.
 0. 0. 0. 0.
 0. 0. 0. 0.
 0. 0. 0. 0.
 0. 0. 0. 0.
 0. 0. 0. 0.
 0. 0. 0. 0.
 0. 0. 0. 0.
 0. 0. 0. 0.
 0. 0. 0. 0.
 0. 0. 0. 0.
 0. 0. 0. 0.
 0. 0. 0. 0.
 0. 0. 0. 0.
 0. 0. 0. 0.
 0. 0. 0. 0.
 0. 0. 0. 0.
 0. 0. 0. 0.
 0. 0. 0. 0.
 0. 0. 0. 0.
 0. 0. 0. 0.
 0. 0. 0. 0.
 0. 0. 0. 0.
 0. 0. 0. 0.
 0. 0. 0. 0.
 0. 0. 0. 0.
 0. 0. 0. 0.
 0. 0. 0. 0.
 0. 0. 0. 0.
 0. 0. 0. 0.
 0. 0. 0. 0.
 0. 0. 0. 0.
 0. 0. 0. 0.
 0. 0. 0. 0.
 0. 0. 0. 0.
 0. 0. 0. 0.
 0. 0. 0. 0.
 0. 0. 0. 0.
 0. 0. 0. 0.
 0. 0. 0. 0.
 0. 0. 0. 0.
 0. 0. 0. 0.
 0. 0. 0. 0.
 0. 0. 0. 0.
 0. 0. 0. 0.
 0. 0. 0. 0.
 0. 0. 0. 0.
 0. 0. 0. 0.
 0. 0. 0. 0.
 0. 0. 0. 0.
 0. 0. 0. 0.
 0. 0. 0. 0.
 0. 0. 0. 0.
 0. 0. 0. 0.
 0. 0. 0. 0.
 0. 0. 0. 0.
 0. 0. 0. 0.
 0. 0. 0. 0.
 0. 0. 0. 0.
 0. 0. 0. 0.
 0. 0. 0. 0.
 0. 0. 0. 0.
 0. 0. 0. 0.
 0. 0. 0. 0.
 0. 0. 0. 0.
 0. 0. 0. 0.
 0. 0. 0. 0.
 0. 0. 0. 0.
 0. 0. 0. 0.
 0. 0. 0. 0.
 0. 0. 0. 0.
 0. 0. 0. 0.
 0. 0. 0. 0.
 0. 0. 0. 0.
 0. 0. 0. 0.
 0. 0. 0. 0.
 0. 0. 0. 0.
 0. 0. 0. 0.
 0. 0. 0. 0.
 0. 0. 0. 0.
 0. 0. 0. 0.
 0. 0. 0. 0.
 0. 0. 0. 0.
 0. 0. 0. 0.
 0. 0. 0. 0.
 0. 0. 0. 0.
 0. 0. 0. 0.
 0. 0. 0. 0.
 0. 0. 0. 0.
 0. 0. 0. 0.
 0. 0. 0. 0.
 0. 0. 0. 0.
 0. 0. 0. 0.
 0. 0. 0. 0.
 0. 0. 0. 0.
 0. 0. 0. 0.
 0. 0. 0. 0.
 0. 0. 0. 0.
 0. 0. 0. 0.
 0. 0. 0. 0.
 0. 0. 0. 0.
 0. 0. 0. 0.
 0. 0. 0. 0.
 0. 0. 0. 0.
 0. 0. 0. 0.
 0. 0. 0. 0.
 0. 0. 0. 0.
 0. 0. 0. 0.
 0. 0. 0. 0.
 0. 0. 0. 0.
 0. 0. 0. 0.
 0. 0. 0. 0.
 0. 0. 0. 0.
 0. 0. 0. 0.
 0. 0. 0. 0.
 0. 0. 0. 0.
 0. 0. 0. 0.
 0. 0. 0. 0.
 0. 0. 0. 0.
 0. 0. 0. 0.
 0. 0. 0. 0.
 0. 0. 0. 0.
 0. 0. 0. 0.
 0. 0. 0. 0.
 0. 0. 0. 0.
 0. 0. 0. 0.
 0. 0. 0. 0.
 0. 0. 0. 0.
 0. 0. 0. 0.
 0. 0. 0. 0.
 0. 0. 0. 0.
 0. 0. 0. 0.
 0. 0. 0. 0.
 0. 0. 0. 0.
 0. 0. 0. 0.
 0. 0. 0. 0.
 0. 0. 0. 0.
 0. 0. 0. 0.
 0. 0. 0. 0.
 0. 0. 0. 0.
 0. 0. 0. 0.
 0. 0. 0. 0.
 0. 0. 0. 0.
 0. 0. 0. 0.
 0. 0. 0. 0.
 0. 0. 0. 0.
 0. 0. 0. 0.
 0. 0. 0. 0.
 0. 0. 0. 0.
 0. 0. 0. 0.
 0. 0. 0. 0.
 0. 0. 0. 0.
 0. 0. 0. 0.
 0. 0. 0. 0.
 0. 0. 0. 0.
 0. 0. 0. 0.
 0. 0. 0. 0.
 0. 0. 0. 0.
 0. 0. 0. 0.
 0. 0. 0. 0.
 0. 0. 0. 0.
 0. 0. 0. 0.
 0. 0. 0. 0.
 0. 0. 0. 0.
 0. 0. 0. 0.
 0. 0. 0. 0.
 0. 0. 0. 0.
 0. 0. 0. 0.
 0. 0. 0. 0.
 0. 0. 0. 0.
 0. 0. 0. 0.
 0. 0. 0. 0.
 0. 0. 0. 0.
 0. 0. 0. 0.
 0. 0. 0. 0.
 0. 0. 0. 0.
 0. 0. 0. 0.
 0. 0. 0. 0.
 0. 0. 0. 0.
 0. 0. 0. 0.
 0. 0. 0. 0.
 0. 0. 0. 0.
 0. 0. 0. 0.
 0. 0. 0. 0.
 0. 0. 0. 0.
 0. 0. 0. 0.
 0. 0. 0. 0.
 0. 0. 0. 0.
 0. 0. 0. 0.
 0. 0. 0. 0.
 0. 0. 0. 0.
 0. 0. 0. 0.
 0. 0. 0. 0.
 0. 0. 0. 0.
 0. 0. 0. 0.
 0. 0. 0. 0.
 0. 0. 0. 0.
 0. 0. 0. 0.
 0. 0. 0. 0.
 0. 0. 0. 0.
 0. 0. 0. 0.
 0. 0. 0. 0.
 0. 0. 0. 0.
 0. 0. 0. 0.
 0. 0. 0. 0.
 0. 0. 0. 0.
 0. 0.
   </PP_BETA.4>
   <PP_BETA.5
       type="real"
       size="1426"
       columns="4"
       index="5"
       angular_momentum="2"
       cutoff_radius_index=" 360"
       cutoff_radius="    3.5900000000E+00" >
   -3.0878459512E-12    2.4900494777E-06    1.9919565791E-05    6.7223840593E-05
    1.5932969854E-04    3.1115097296E-04    5.3758363483E-04    8.5350046285E-04
    1.2737451461E-03    1.8131257138E-03    2.4864071922E-03    3.3083033926E-03
    4.2934677424E-03    5.4564830748E-03    6.8118503030E-03    8.3739759099E-03
    1.0157158195E-02    1.2175572226E-02    1.4443253456E-02    1.6974079967E-02
    1.9781753334E-02    2.2879778072E-02    2.6281439693E-02    2.9999781357E-02
    3.4047579155E-02    3.8437316045E-02    4.3181154482E-02    4.8290907801E-02
    5.3778010407E-02    5.9653486854E-02    6.5927919892E-02    7.2611417567E-02
    7.9713579499E-02    8.7243462423E-02    9.5209545140E-02    1.0361969298E-01
    1.1248112196E-01    1.2180036269E-01    1.3158322431E-01    1.4183475850E-01
    1.5255922377E-01    1.6376005019E-01    1.7543980480E-01    1.8760015765E-01
    2.0024184900E-01    2.1336465750E-01    2.2696736976E-01    2.4104775140E-01
    2.5560251975E-01    2.7062731837E-01    2.8611669363E-01    3.0206407343E-01
    3.1846174822E-01    3.3530085455E-01    3.5257136128E-01    3.7026205845E-01
    3.8836054920E-01    4.0685324465E-01    4.2572536190E-01    4.4496092535E-01
    4.6454277133E-01    4.8445255614E-01    5.0467076763E-01    5.2517674033E-01
    5.4594867414E-01    5.6696365669E-01    5.8819768936E-01    6.0962571690E-01
    6.3122166080E-01    6.5295845617E-01    6.7480809226E-01    6.9674165654E-01
    7.1872938216E-01    7.4074069890E-01    7.6274428731E-01    7.8470813609E-01
    8.0659960254E-01    8.2838547584E-01    8.5003204324E-01    8.7150515872E-01
    8.9277031421E-01    9.1379271298E-01    9.3453734511E-01    9.5496906486E-01
    9.7505266961E-01    9.9475298029E-01    1.0140349229E+00    1.0328636111E+00
    1.0512044293E+00    1.0690231168E+00    1.0862858508E+00    1.1029593313E+00
    1.1190108637E+00    1.1344084425E+00    1.1491208329E+00    1.1631176519E+00
    1.1763694483E+00    1.1888477804E+00    1.2005252925E+00    1.2113757886E+00
    1.2213743047E+00    1.2304971774E+00    1.2387221107E+00    1.2460282388E+00
    1.2523961868E+00    1.2578081267E+00    1.2622478307E+00    1.2657007201E+00
    1.2681539106E+00    1.2695962533E+00    1.2700183712E+00    1.2694126918E+00
    1.2677734743E+00    1.2650968332E+00    1.2613807564E+00    1.2566251188E+00
    1.2508316912E+00    1.2440041439E+00    1.2361480457E+00    1.2272708581E+00
    1.2173819240E+00    1.2064924526E+00    1.1946154979E+00    1.1817659342E+00
    1.1679604254E+00    1.1532173903E+00    1.1375569639E+00    1.1210009530E+00
    1.1035727888E+00    1.0852974745E+00    1.0662015296E+00    1.0463129296E+00
    1.0256610431E+00    1.0042765644E+00    9.8219144352E-01    9.5943881300E-01
    9.3605291202E-01    9.1206900775E-01    8.8752331444E-01    8.6245291039E-01
    8.3689565314E-01    8.1089009290E-01    7.8447538471E-01    7.5769119949E-01
    7.3057763419E-01    7.0317512141E-01    6.7552433858E-01    6.4766611717E-01
    6.1964135196E-01    5.9149091081E-01    5.6325554503E-01    5.3497580066E-01
    5.0669193091E-01    4.7844380996E-01    4.5027084830E-01    4.2221190994E-01
    3.9430523155E-01    3.6658834384E-01    3.3909799535E-01    3.1187007873E-01
    2.8493955978E-01    2.5834040942E-01    2.3210553859E-01    2.0626673638E-01
    1.8085461137E-01    1.5589853636E-01    1.3142659662E-01    1.0746554158E-01
    8.4040740252E-02    6.1176140189E-02    3.8894230248E-02    1.7216007027E-02
   -3.8390549359E-03   -2.4253029234E-02   -4.4009559926E-02   -6.3093880165E-02
   -8.1492827173E-02   -9.9194853583E-02   -1.1619003524E-01   -1.3247007550E-01
   -1.4802830616E-01   -1.6285968503E-01   -1.7696079034E-01   -1.9032981211E-01
   -2.0296653997E-01   -2.1487234885E-01   -2.2605013573E-01   -2.3650422449E-01
   -2.4624029414E-01   -2.5526532115E-01   -2.6358751784E-01   -2.7121627041E-01
   -2.7816207626E-01   -2.8443648087E-01   -2.9005201424E-01   -2.9502212740E-01
   -2.9936112882E-01   -3.0308412114E-01   -3.0620693822E-01   -3.0874608275E-01
   -3.1071866449E-01   -3.1214233933E-01   -3.1303524919E-01   -3.1341596306E-01
   -3.1330341906E-01   -3.1271686776E-01   -3.1167581687E-01   -3.1019997724E-01
   -3.0830921045E-01   -3.0602347790E-01   -3.0336279151E-01   -3.0034716618E-01
   -2.9699657393E-01   -2.9333089985E-01   -2.8936989993E-01   -2.8513316071E-01
   -2.8064006088E-01   -2.7590973481E-01   -2.7096103802E-01   -2.6581251468E-01
   -2.6048236704E-01   -2.5498842692E-01   -2.4934812912E-01   -2.4357848690E-01
   -2.3769606941E-01   -2.3171698109E-01   -2.2565684303E-01   -2.1953077627E-01
   -2.1335338699E-01   -2.0713875357E-01   -2.0090041552E-01   -1.9465136416E-01
   -1.8840403511E-01   -1.8217030245E-01   -1.7596147454E-01   -1.6978829152E-01
   -1.6366092424E-01   -1.5758897484E-01   -1.5158147860E-01   -1.4564690736E-01
   -1.3979317406E-01   -1.3402763869E-01   -1.2835711534E-01   -1.2278788038E-01
   -1.1732568171E-01   -1.1197574898E-01   -1.0674280475E-01   -1.0163107645E-01
   -9.6644309149E-02   -9.1785779047E-02   -8.7058307577E-02   -8.2464276108E-02
   -7.8005641151E-02   -7.3683950002E-02   -6.9500356786E-02   -6.5455638800E-02
   -6.1550213131E-02   -5.7784153465E-02   -5.4157207046E-02   -5.0668811713E-02
   -4.7318112979E-02   -4.4103981093E-02   -4.1025028031E-02   -3.8079624379E-02
   -3.5265916054E-02   -3.2581840830E-02   -3.0025144625E-02   -2.7593397509E-02
   -2.5284009403E-02   -2.3094245434E-02   -2.1021240921E-02   -1.9062015951E-02
   -1.7213489556E-02   -1.5472493408E-02   -1.3835785067E-02   -1.2300060741E-02
   -1.0861967554E-02   -9.5181153153E-03   -8.2650877349E-03   -7.0994531175E-03
   -6.0177745273E-03   -5.0166194145E-03   -4.0925687073E-03   -3.2422253444E-03
   -2.4622222731E-03   -1.7492299136E-03   -1.0999630887E-03   -5.1118742932E-04
    2.0274738578E-05    4.9753901343E-04    9.2365403587E-04    1.3015970913E-03
    1.6342701846E-03    1.9244965740E-03    2.1750177477E-03    2.3884908292E-03
    2.5674863948E-03    2.7144866854E-03    2.8318841975E-03    2.9219806331E-03
    2.9869861926E-03    3.0290191908E-03    3.0501059799E-03    3.0521811584E-03
    3.0370880495E-03    3.0065794297E-03    2.9623184890E-03    2.9058800064E-03
    2.8387517212E-03    2.7623358834E-03    2.6779509668E-03    2.5868335266E-03
    2.4901401875E-03    2.3889497442E-03    2.2842653626E-03    2.1770168630E-03
    2.0680630753E-03    1.9581942508E-03    1.8481345180E-03    1.7385443710E-03
    1.6300231793E-03    1.5231117083E-03    1.4182946393E-03    1.3160030823E-03
    1.2166170693E-03    1.1204680245E-03    1.0278411989E-03    9.3897806926E-04
    8.5407868704E-04    7.7330398085E-04    6.9677799900E-04    6.2459009533E-04
    5.5679695393E-04    4.9342510431E-04    4.3447232848E-04    3.7990884445E-04
    3.2968178476E-04    2.8371421878E-04    2.4191222028E-04    2.0418306446E-04
    1.7041442310E-04    1.4044662840E-04    1.1409461841E-04    9.1167126367E-05
    7.1461258295E-05    5.4762169480E-05    4.0845527502E-05    2.9478043040E-05
    2.0418416387E-05    1.3418170447E-05    8.2214261047E-06    4.5693349501E-06
    2.1973936438E-06    8.3069832384E-07    1.9388679807E-07    7.0744605931E-09
    8.9819970594E-10    6.2490703547E-09    4.8136632792E-10    1.0221281581E-09
 0. 0. 0. 0.
 0. 0. 0. 0.
 0. 0. 0. 0.
 0. 0. 0. 0.
 0. 0. 0. 0.
 0. 0. 0. 0.
 0. 0. 0. 0.
 0. 0. 0. 0.
 0. 0. 0. 0.
 0. 0. 0. 0.
 0. 0. 0. 0.
 0. 0. 0. 0.
 0. 0. 0. 0.
 0. 0. 0. 0.
 0. 0. 0. 0.
 0. 0. 0. 0.
 0. 0. 0. 0.
 0. 0. 0. 0.
 0. 0. 0. 0.
 0. 0. 0. 0.
 0. 0. 0. 0.
 0. 0. 0. 0.
 0. 0. 0. 0.
 0. 0. 0. 0.
 0. 0. 0. 0.
 0. 0. 0. 0.
 0. 0. 0. 0.
 0. 0. 0. 0.
 0. 0. 0. 0.
 0. 0. 0. 0.
 0. 0. 0. 0.
 0. 0. 0. 0.
 0. 0. 0. 0.
 0. 0. 0. 0.
 0. 0. 0. 0.
 0. 0. 0. 0.
 0. 0. 0. 0.
 0. 0. 0. 0.
 0. 0. 0. 0.
 0. 0. 0. 0.
 0. 0. 0. 0.
 0. 0. 0. 0.
 0. 0. 0. 0.
 0. 0. 0. 0.
 0. 0. 0. 0.
 0. 0. 0. 0.
 0. 0. 0. 0.
 0. 0. 0. 0.
 0. 0. 0. 0.
 0. 0. 0. 0.
 0. 0. 0. 0.
 0. 0. 0. 0.
 0. 0. 0. 0.
 0. 0. 0. 0.
 0. 0. 0. 0.
 0. 0. 0. 0.
 0. 0. 0. 0.
 0. 0. 0. 0.
 0. 0. 0. 0.
 0. 0. 0. 0.
 0. 0. 0. 0.
 0. 0. 0. 0.
 0. 0. 0. 0.
 0. 0. 0. 0.
 0. 0. 0. 0.
 0. 0. 0. 0.
 0. 0. 0. 0.
 0. 0. 0. 0.
 0. 0. 0. 0.
 0. 0. 0. 0.
 0. 0. 0. 0.
 0. 0. 0. 0.
 0. 0. 0. 0.
 0. 0. 0. 0.
 0. 0. 0. 0.
 0. 0. 0. 0.
 0. 0. 0. 0.
 0. 0. 0. 0.
 0. 0. 0. 0.
 0. 0. 0. 0.
 0. 0. 0. 0.
 0. 0. 0. 0.
 0. 0. 0. 0.
 0. 0. 0. 0.
 0. 0. 0. 0.
 0. 0. 0. 0.
 0. 0. 0. 0.
 0. 0. 0. 0.
 0. 0. 0. 0.
 0. 0. 0. 0.
 0. 0. 0. 0.
 0. 0. 0. 0.
 0. 0. 0. 0.
 0. 0. 0. 0.
 0. 0. 0. 0.
 0. 0. 0. 0.
 0. 0. 0. 0.
 0. 0. 0. 0.
 0. 0. 0. 0.
 0. 0. 0. 0.
 0. 0. 0. 0.
 0. 0. 0. 0.
 0. 0. 0. 0.
 0. 0. 0. 0.
 0. 0. 0. 0.
 0. 0. 0. 0.
 0. 0. 0. 0.
 0. 0. 0. 0.
 0. 0. 0. 0.
 0. 0. 0. 0.
 0. 0. 0. 0.
 0. 0. 0. 0.
 0. 0. 0. 0.
 0. 0. 0. 0.
 0. 0. 0. 0.
 0. 0. 0. 0.
 0. 0. 0. 0.
 0. 0. 0. 0.
 0. 0. 0. 0.
 0. 0. 0. 0.
 0. 0. 0. 0.
 0. 0. 0. 0.
 0. 0. 0. 0.
 0. 0. 0. 0.
 0. 0. 0. 0.
 0. 0. 0. 0.
 0. 0. 0. 0.
 0. 0. 0. 0.
 0. 0. 0. 0.
 0. 0. 0. 0.
 0. 0. 0. 0.
 0. 0. 0. 0.
 0. 0. 0. 0.
 0. 0. 0. 0.
 0. 0. 0. 0.
 0. 0. 0. 0.
 0. 0. 0. 0.
 0. 0. 0. 0.
 0. 0. 0. 0.
 0. 0. 0. 0.
 0. 0. 0. 0.
 0. 0. 0. 0.
 0. 0. 0. 0.
 0. 0. 0. 0.
 0. 0. 0. 0.
 0. 0. 0. 0.
 0. 0. 0. 0.
 0. 0. 0. 0.
 0. 0. 0. 0.
 0. 0. 0. 0.
 0. 0. 0. 0.
 0. 0. 0. 0.
 0. 0. 0. 0.
 0. 0. 0. 0.
 0. 0. 0. 0.
 0. 0. 0. 0.
 0. 0. 0. 0.
 0. 0. 0. 0.
 0. 0. 0. 0.
 0. 0. 0. 0.
 0. 0. 0. 0.
 0. 0. 0. 0.
 0. 0. 0. 0.
 0. 0. 0. 0.
 0. 0. 0. 0.
 0. 0. 0. 0.
 0. 0. 0. 0.
 0. 0. 0. 0.
 0. 0. 0. 0.
 0. 0. 0. 0.
 0. 0. 0. 0.
 0. 0. 0. 0.
 0. 0. 0. 0.
 0. 0. 0. 0.
 0. 0. 0. 0.
 0. 0. 0. 0.
 0. 0. 0. 0.
 0. 0. 0. 0.
 0. 0. 0. 0.
 0. 0. 0. 0.
 0. 0. 0. 0.
 0. 0. 0. 0.
 0. 0. 0. 0.
 0. 0. 0. 0.
 0. 0. 0. 0.
 0. 0. 0. 0.
 0. 0. 0. 0.
 0. 0. 0. 0.
 0. 0. 0. 0.
 0. 0. 0. 0.
 0. 0. 0. 0.
 0. 0. 0. 0.
 0. 0. 0. 0.
 0. 0. 0. 0.
 0. 0. 0. 0.
 0. 0. 0. 0.
 0. 0. 0. 0.
 0. 0. 0. 0.
 0. 0. 0. 0.
 0. 0. 0. 0.
 0. 0. 0. 0.
 0. 0. 0. 0.
 0. 0. 0. 0.
 0. 0. 0. 0.
 0. 0. 0. 0.
 0. 0. 0. 0.
 0. 0. 0. 0.
 0. 0. 0. 0.
 0. 0. 0. 0.
 0. 0. 0. 0.
 0. 0. 0. 0.
 0. 0. 0. 0.
 0. 0. 0. 0.
 0. 0. 0. 0.
 0. 0. 0. 0.
 0. 0. 0. 0.
 0. 0. 0. 0.
 0. 0. 0. 0.
 0. 0. 0. 0.
 0. 0. 0. 0.
 0. 0. 0. 0.
 0. 0. 0. 0.
 0. 0. 0. 0.
 0. 0. 0. 0.
 0. 0. 0. 0.
 0. 0. 0. 0.
 0. 0. 0. 0.
 0. 0. 0. 0.
 0. 0. 0. 0.
 0. 0. 0. 0.
 0. 0. 0. 0.
 0. 0. 0. 0.
 0. 0. 0. 0.
 0. 0. 0. 0.
 0. 0. 0. 0.
 0. 0. 0. 0.
 0. 0. 0. 0.
 0. 0. 0. 0.
 0. 0. 0. 0.
 0. 0. 0. 0.
 0. 0. 0. 0.
 0. 0. 0. 0.
 0. 0. 0. 0.
 0. 0. 0. 0.
 0. 0. 0. 0.
 0. 0. 0. 0.
 0. 0. 0. 0.
 0. 0. 0. 0.
 0. 0. 0. 0.
 0. 0. 0. 0.
 0. 0. 0. 0.
 0. 0. 0. 0.
 0. 0. 0. 0.
 0. 0. 0. 0.
 0. 0. 0. 0.
 0. 0. 0. 0.
 0. 0. 0. 0.
 0. 0. 0. 0.
 0. 0. 0. 0.
 0. 0. 0. 0.
 0. 0. 0. 0.
 0. 0. 0. 0.
 0. 0. 0. 0.
 0. 0. 0. 0.
 0. 0. 0. 0.
 0. 0. 0. 0.
 0. 0.
   </PP_BETA.5>
   <PP_BETA.6
       type="real"
       size="1426"
       columns="4"
       index="6"
       angular_momentum="2"
       cutoff_radius_index=" 360"
       cutoff_radius="    3.5900000000E+00" >
    2.1225339195E-12   -2.8431402222E-06   -2.2737093317E-05   -7.6692530504E-05
   -1.8163984283E-04   -3.5438900947E-04   -6.1158947760E-04   -9.6969006018E-04
   -1.4448988602E-03   -2.0531432321E-03   -2.8100297955E-03   -3.7308045175E-03
   -4.8303128865E-03   -6.1229602030E-03   -7.6226720184E-03   -9.3428547571E-03
   -1.1296356564E-02   -1.3495428423E-02   -1.5951685600E-02   -1.8676069467E-02
   -2.1678809775E-02   -2.4969387442E-02   -2.8556497937E-02   -3.2448015334E-02
   -3.6650957140E-02   -4.1171449970E-02   -4.6014696187E-02   -5.1184941604E-02
   -5.6685444351E-02   -6.2518445035E-02   -6.8685138296E-02   -7.5185645895E-02
   -8.2018991450E-02   -8.9183076941E-02   -9.6674661131E-02   -1.0448934002E-01
   -1.1262152946E-01   -1.2106445007E-01   -1.2981011459E-01   -1.3884931778E-01
   -1.4817162898E-01   -1.5776538752E-01   -1.6761770103E-01   -1.7771444676E-01
   -1.8804027608E-01   -1.9857862224E-01   -2.0931171141E-01   -2.2022057720E-01
   -2.3128507869E-01   -2.4248392199E-01   -2.5379468548E-01   -2.6519384868E-01
   -2.7665682492E-01   -2.8815799762E-01   -2.9967076046E-01   -3.1116756120E-01
   -3.2261994930E-01   -3.3399862715E-01   -3.4527350510E-01   -3.5641375993E-01
   -3.6738789699E-01   -3.7816381567E-01   -3.8870887824E-01   -3.9898998195E-01
   -4.0897363412E-01   -4.1862603024E-01   -4.2791313476E-01   -4.3680076455E-01
   -4.4525467469E-01   -4.5324064646E-01   -4.6072457734E-01   -4.6767257266E-01
   -4.7405103884E-01   -4.7982677781E-01   -4.8496708236E-01   -4.8943983232E-01
   -4.9321359098E-01   -4.9625770175E-01   -4.9854238459E-01   -5.0003883194E-01
   -5.0071930391E-01   -5.0055722228E-01   -4.9952726315E-01   -4.9760544777E-01
   -4.9476923140E-01   -4.9099758974E-01   -4.8627110265E-01   -4.8057203495E-01
   -4.7388441381E-01   -4.6619410269E-01   -4.5748887124E-01   -4.4775846109E-01
   -4.3699464728E-01   -4.2519129481E-01   -4.1234441042E-01   -3.9845218905E-01
   -3.8351505500E-01   -3.6753569741E-01   -3.5051909995E-01   -3.3247256458E-01
   -3.1340572919E-01   -2.9333057894E-01   -2.7226145125E-01   -2.5021503441E-01
   -2.2721035954E-01   -2.0326878605E-01   -1.7841398048E-01   -1.5267188872E-01
   -1.2607070162E-01   -9.8640814052E-02   -7.0414777484E-02   -4.1427246140E-02
   -1.1714916835E-02    1.8683537352E-02    4.9727539438E-02    8.1374686751E-02
    1.1358083481E-01    1.4630018667E-01    1.7948538743E-01    2.1308762381E-01
    2.4705672833E-01    2.8134128794E-01    3.1588875675E-01    3.5064557261E-01
    3.8555727702E-01    4.2056863830E-01    4.5562377746E-01    4.9066629642E-01
    5.2563940831E-01    5.6048606943E-01    5.9514911240E-01    6.2957138016E-01
    6.6369586056E-01    6.9746582080E-01    7.3082494177E-01    7.6371745147E-01
    7.9608825742E-01    8.2788307754E-01    8.5904856905E-01    8.8953245525E-01
    9.1928364950E-01    9.4825237629E-01    9.7639028897E-01    1.0036505837E+00
    1.0299881096E+00    1.0553594742E+00    1.0797231449E+00    1.1030395450E+00
    1.1252711446E+00    1.1463825468E+00    1.1663405676E+00    1.1851143102E+00
    1.2026752336E+00    1.2189972151E+00    1.2340566058E+00    1.2478322813E+00
    1.2603056840E+00    1.2714608607E+00    1.2812844930E+00    1.2897659203E+00
    1.2968971581E+00    1.3026729080E+00    1.3070905626E+00    1.3101502030E+00
    1.3118545912E+00    1.3122091549E+00    1.3112219678E+00    1.3089037233E+00
    1.3052677021E+00    1.3003297357E+00    1.2941081635E+00    1.2866237854E+00
    1.2778998095E+00    1.2679617960E+00    1.2568375956E+00    1.2445572859E+00
    1.2311531021E+00    1.2166593665E+00    1.2011124137E+00    1.1845505139E+00
    1.1670137938E+00    1.1485441555E+00    1.1291851942E+00    1.1089821147E+00
    1.0879816436E+00    1.0662319452E+00    1.0437821753E+00    1.0206819285E+00
    9.9698099236E-01    9.7272925101E-01    9.4797656391E-01    9.2277265341E-01
    8.9716699559E-01    8.7120871469E-01    8.4494648123E-01    8.1842841404E-01
    7.9170198633E-01    7.6481393586E-01    7.3781017935E-01    7.1073573117E-01
    6.8363462643E-01    6.5654984843E-01    6.2952326064E-01    6.0259554309E-01
    5.7580613340E-01    5.4919317218E-01    5.2279345315E-01    4.9664237764E-01
    4.7077391368E-01    4.4522055962E-01    4.2001331216E-01    3.9518163880E-01
    3.7075345479E-01    3.4675510425E-01    3.2321134569E-01    3.0014534161E-01
    2.7757865233E-01    2.5553123373E-01    2.3402143900E-01    2.1306602417E-01
    1.9268015735E-01    1.7287743161E-01    1.5366988124E-01    1.3506800148E-01
    1.1708077127E-01    9.9715679260E-02    8.2978752539E-02    6.6874588257E-02
    5.1406387782E-02    3.6575993305E-02    2.2383926735E-02    8.8294306940E-03
   -4.0894885405E-03   -1.6376016316E-02   -2.8034483282E-02   -3.9070317636E-02
   -4.9489996093E-02   -5.9300993768E-02   -6.8511733129E-02   -7.7131532182E-02
   -8.5170552060E-02   -9.2639744181E-02   -9.9550797115E-02   -1.0591608334E-01
   -1.1174860601E-01   -1.1706194591E-01   -1.2187020873E-01   -1.2618797275E-01
   -1.3003023717E-01   -1.3341237110E-01   -1.3635006343E-01   -1.3885927356E-01
   -1.4095618329E-01   -1.4265714975E-01   -1.4397865969E-01   -1.4493728505E-01
   -1.4554963988E-01   -1.4583233892E-01   -1.4580195759E-01   -1.4547499365E-01
   -1.4486783055E-01   -1.4399670253E-01   -1.4287766136E-01   -1.4152654504E-01
   -1.3995894817E-01   -1.3819019429E-01   -1.3623530997E-01   -1.3410900084E-01
   -1.3182562939E-01   -1.2939919478E-01   -1.2684331431E-01   -1.2417120688E-01
   -1.2139567815E-01   -1.1852910756E-01   -1.1558343705E-01   -1.1257016156E-01
   -1.0950032109E-01   -1.0638449448E-01   -1.0323279475E-01   -1.0005486600E-01
   -9.6859881778E-02   -9.3656544815E-02   -9.0453088163E-02   -8.7257277625E-02
   -8.4076415428E-02   -8.0917345048E-02   -7.7786457141E-02   -7.4689696506E-02
   -7.1632570017E-02   -6.8620155435E-02   -6.5657111062E-02   -6.2747686132E-02
   -5.9895731897E-02   -5.7104713326E-02   -5.4377721351E-02   -5.1717485590E-02
   -4.9126387490E-02   -4.6606473813E-02   -4.4159470415E-02   -4.1786796243E-02
   -3.9489577502E-02   -3.7268661929E-02   -3.5124633121E-02   -3.3057824860E-02
   -3.1068335398E-02   -2.9156041634E-02   -2.7320613154E-02   -2.5561526092E-02
   -2.3878076758E-02   -2.2269395013E-02   -2.0734457352E-02   -1.9272099658E-02
   -1.7881029608E-02   -1.6559838700E-02   -1.5307013887E-02   -1.4120948787E-02
   -1.2999954467E-02   -1.1942269770E-02   -1.0946071196E-02   -1.0009482309E-02
   -9.1305826739E-03   -8.3074163241E-03   -7.5379997461E-03   -6.8203293981E-03
   -6.1523887527E-03   -5.5321548798E-03   -4.9576045683E-03   -4.4267200063E-03
   -3.9374940182E-03   -3.4879348849E-03   -3.0760707468E-03   -2.6999536186E-03
   -2.3576627547E-03   -2.0473092175E-03   -1.7670371849E-03   -1.5150245110E-03
   -1.2894924458E-03   -1.0886999111E-03   -9.1096042561E-04   -7.5469028434E-04
   -6.1834699405E-04   -5.0034825410E-04   -3.9913061976E-04   -3.1320042515E-04
   -2.4111568169E-04   -1.8148237769E-04   -1.3295868073E-04   -9.4253813274E-05
   -6.4128219811E-05   -4.1393530940E-05   -2.4909848654E-05   -1.3595487140E-05
   -6.4186837942E-06   -2.3807861366E-06   -5.4190333310E-07   -1.5526766285E-08
   -3.7103338345E-09   -2.0036728406E-08   -1.0895675006E-09   -1.9576801174E-09
 0. 0. 0. 0.
 0. 0. 0. 0.
 0. 0. 0. 0.
 0. 0. 0. 0.
 0. 0. 0. 0.
 0. 0. 0. 0.
 0. 0. 0. 0.
 0. 0. 0. 0.
 0. 0. 0. 0.
 0. 0. 0. 0.
 0. 0. 0. 0.
 0. 0. 0. 0.
 0. 0. 0. 0.
 0. 0. 0. 0.
 0. 0. 0. 0.
 0. 0. 0. 0.
 0. 0. 0. 0.
 0. 0. 0. 0.
 0. 0. 0. 0.
 0. 0. 0. 0.
 0. 0. 0. 0.
 0. 0. 0. 0.
 0. 0. 0. 0.
 0. 0. 0. 0.
 0. 0. 0. 0.
 0. 0. 0. 0.
 0. 0. 0. 0.
 0. 0. 0. 0.
 0. 0. 0. 0.
 0. 0. 0. 0.
 0. 0. 0. 0.
 0. 0. 0. 0.
 0. 0. 0. 0.
 0. 0. 0. 0.
 0. 0. 0. 0.
 0. 0. 0. 0.
 0. 0. 0. 0.
 0. 0. 0. 0.
 0. 0. 0. 0.
 0. 0. 0. 0.
 0. 0. 0. 0.
 0. 0. 0. 0.
 0. 0. 0. 0.
 0. 0. 0. 0.
 0. 0. 0. 0.
 0. 0. 0. 0.
 0. 0. 0. 0.
 0. 0. 0. 0.
 0. 0. 0. 0.
 0. 0. 0. 0.
 0. 0. 0. 0.
 0. 0. 0. 0.
 0. 0. 0. 0.
 0. 0. 0. 0.
 0. 0. 0. 0.
 0. 0. 0. 0.
 0. 0. 0. 0.
 0. 0. 0. 0.
 0. 0. 0. 0.
 0. 0. 0. 0.
 0. 0. 0. 0.
 0. 0. 0. 0.
 0. 0. 0. 0.
 0. 0. 0. 0.
 0. 0. 0. 0.
 0. 0. 0. 0.
 0. 0. 0. 0.
 0. 0. 0. 0.
 0. 0. 0. 0.
 0. 0. 0. 0.
 0. 0. 0. 0.
 0. 0. 0. 0.
 0. 0. 0. 0.
 0. 0. 0. 0.
 0. 0. 0. 0.
 0. 0. 0. 0.
 0. 0. 0. 0.
 0. 0. 0. 0.
 0. 0. 0. 0.
 0. 0. 0. 0.
 0. 0. 0. 0.
 0. 0. 0. 0.
 0. 0. 0. 0.
 0. 0. 0. 0.
 0. 0. 0. 0.
 0. 0. 0. 0.
 0. 0. 0. 0.
 0. 0. 0. 0.
 0. 0. 0. 0.
 0. 0. 0. 0.
 0. 0. 0. 0.
 0. 0. 0. 0.
 0. 0. 0. 0.
 0. 0. 0. 0.
 0. 0. 0. 0.
 0. 0. 0. 0.
 0. 0. 0. 0.
 0. 0. 0. 0.
 0. 0. 0. 0.
 0. 0. 0. 0.
 0. 0. 0. 0.
 0. 0. 0. 0.
 0. 0. 0. 0.
 0. 0. 0. 0.
 0. 0. 0. 0.
 0. 0. 0. 0.
 0. 0. 0. 0.
 0. 0. 0. 0.
 0. 0. 0. 0.
 0. 0. 0. 0.
 0. 0. 0. 0.
 0. 0. 0. 0.
 0. 0. 0. 0.
 0. 0. 0. 0.
 0. 0. 0. 0.
 0. 0. 0. 0.
 0. 0. 0. 0.
 0. 0. 0. 0.
 0. 0. 0. 0.
 0. 0. 0. 0.
 0. 0. 0. 0.
 0. 0. 0. 0.
 0. 0. 0. 0.
 0. 0. 0. 0.
 0. 0. 0. 0.
 0. 0. 0. 0.
 0. 0. 0. 0.
 0. 0. 0. 0.
 0. 0. 0. 0.
 0. 0. 0. 0.
 0. 0. 0. 0.
 0. 0. 0. 0.
 0. 0. 0. 0.
 0. 0. 0. 0.
 0. 0. 0. 0.
 0. 0. 0. 0.
 0. 0. 0. 0.
 0. 0. 0. 0.
 0. 0. 0. 0.
 0. 0. 0. 0.
 0. 0. 0. 0.
 0. 0. 0. 0.
 0. 0. 0. 0.
 0. 0. 0. 0.
 0. 0. 0. 0.
 0. 0. 0. 0.
 0. 0. 0. 0.
 0. 0. 0. 0.
 0. 0. 0. 0.
 0. 0. 0. 0.
 0. 0. 0. 0.
 0. 0. 0. 0.
 0. 0. 0. 0.
 0. 0. 0. 0.
 0. 0. 0. 0.
 0. 0. 0. 0.
 0. 0. 0. 0.
 0. 0. 0. 0.
 0. 0. 0. 0.
 0. 0. 0. 0.
 0. 0. 0. 0.
 0. 0. 0. 0.
 0. 0. 0. 0.
 0. 0. 0. 0.
 0. 0. 0. 0.
 0. 0. 0. 0.
 0. 0. 0. 0.
 0. 0. 0. 0.
 0. 0. 0. 0.
 0. 0. 0. 0.
 0. 0. 0. 0.
 0. 0. 0. 0.
 0. 0. 0. 0.
 0. 0. 0. 0.
 0. 0. 0. 0.
 0. 0. 0. 0.
 0. 0. 0. 0.
 0. 0. 0. 0.
 0. 0. 0. 0.
 0. 0. 0. 0.
 0. 0. 0. 0.
 0. 0. 0. 0.
 0. 0. 0. 0.
 0. 0. 0. 0.
 0. 0. 0. 0.
 0. 0. 0. 0.
 0. 0. 0. 0.
 0. 0. 0. 0.
 0. 0. 0. 0.
 0. 0. 0. 0.
 0. 0. 0. 0.
 0. 0. 0. 0.
 0. 0. 0. 0.
 0. 0. 0. 0.
 0. 0. 0. 0.
 0. 0. 0. 0.
 0. 0. 0. 0.
 0. 0. 0. 0.
 0. 0. 0. 0.
 0. 0. 0. 0.
 0. 0. 0. 0.
 0. 0. 0. 0.
 0. 0. 0. 0.
 0. 0. 0. 0.
 0. 0. 0. 0.
 0. 0. 0. 0.
 0. 0. 0. 0.
 0. 0. 0. 0.
 0. 0. 0. 0.
 0. 0. 0. 0.
 0. 0. 0. 0.
 0. 0. 0. 0.
 0. 0. 0. 0.
 0. 0. 0. 0.
 0. 0. 0. 0.
 0. 0. 0. 0.
 0. 0. 0. 0.
 0. 0. 0. 0.
 0. 0. 0. 0.
 0. 0. 0. 0.
 0. 0. 0. 0.
 0. 0. 0. 0.
 0. 0. 0. 0.
 0. 0. 0. 0.
 0. 0. 0. 0.
 0. 0. 0. 0.
 0. 0. 0. 0.
 0. 0. 0. 0.
 0. 0. 0. 0.
 0. 0. 0. 0.
 0. 0. 0. 0.
 0. 0. 0. 0.
 0. 0. 0. 0.
 0. 0. 0. 0.
 0. 0. 0. 0.
 0. 0. 0. 0.
 0. 0. 0. 0.
 0. 0. 0. 0.
 0. 0. 0. 0.
 0. 0. 0. 0.
 0. 0. 0. 0.
 0. 0. 0. 0.
 0. 0. 0. 0.
 0. 0. 0. 0.
 0. 0. 0. 0.
 0. 0. 0. 0.
 0. 0. 0. 0.
 0. 0. 0. 0.
 0. 0. 0. 0.
 0. 0. 0. 0.
 0. 0. 0. 0.
 0. 0. 0. 0.
 0. 0. 0. 0.
 0. 0. 0. 0.
 0. 0. 0. 0.
 0. 0. 0. 0.
 0. 0. 0. 0.
 0. 0. 0. 0.
 0. 0. 0. 0.
 0. 0. 0. 0.
 0. 0. 0. 0.
 0. 0. 0. 0.
 0. 0. 0. 0.
 0. 0. 0. 0.
 0. 0. 0. 0.
 0. 0. 0. 0.
 0. 0.
   </PP_BETA.6>
   <PP_DIJ type="real"  size="  36" columns="4">
    1.2261597627E+01    0.0000000000E+00    0.0000000000E+00    0.0000000000E+00
    0.0000000000E+00    0.0000000000E+00    0.0000000000E+00    2.2515498105E+00
    0.0000000000E+00    0.0000000000E+00    0.0000000000E+00    0.0000000000E+00
    0.0000000000E+00    0.0000000000E+00    6.7050373931E+00    0.0000000000E+00
    0.0000000000E+00    0.0000000000E+00    0.0000000000E+00    0.0000000000E+00
    0.0000000000E+00    7.5778571961E-01    0.0000000000E+00    0.0000000000E+00
    0.0000000000E+00    0.0000000000E+00    0.0000000000E+00    0.0000000000E+00
   -4.6260068733E+00    0.0000000000E+00    0.0000000000E+00    0.0000000000E+00
    0.0000000000E+00    0.0000000000E+00    0.0000000000E+00   -2.6166769605E+00
   </PP_DIJ>
 </PP_NONLOCAL>
 <PP_PSWFC>
   <PP_CHI.1
       type="real"
       size="1426"
       columns="4"
       index="1"
       occupation="10.000"
       pseudo_energy="   -0.2458529551E+01"
       label="4D"
       l="2" >
    3.1248549755E-13    2.1401599922E-06    1.7116764592E-05    5.7743690013E-05
    1.3678971599E-04    2.6695607866E-04    4.6085414471E-04    7.3098324672E-04
    1.0897087194E-03    1.5492401764E-03    2.1216100654E-03    2.8186525419E-03
    3.6519826968E-03    4.6329761765E-03    5.7727492315E-03    7.0821392278E-03
    8.5716856573E-03    1.0251611678E-02    1.2131806222E-02    1.4221806689E-02
    1.6530782282E-02    1.9067517977E-02    2.1840399190E-02    2.4857397147E-02
    2.8126054985E-02    3.1653474611E-02    3.5446304340E-02    3.9510727335E-02
    4.3852450857E-02    4.8476696361E-02    5.3388190432E-02    5.8591156599E-02
    6.4089308013E-02    6.9885841026E-02    7.5983429658E-02    8.2384220976E-02
    8.9089831383E-02    9.6101343814E-02    1.0341930586E-01    1.1104372881E-01
    1.1897408757E-01    1.2720932159E-01    1.3574783658E-01    1.4458750721E-01
    1.5372568068E-01    1.6315918118E-01    1.7288431520E-01    1.8289687773E-01
    1.9319215932E-01    2.0376495389E-01    2.1460956744E-01    2.2571982753E-01
    2.3708909350E-01    2.4871026749E-01    2.6057580614E-01    2.7267773304E-01
    2.8500765184E-01    2.9755676000E-01    3.1031586317E-01    3.2327539023E-01
    3.3642540876E-01    3.4975564120E-01    3.6325548141E-01    3.7691401174E-01
    3.9072002055E-01    4.0466202013E-01    4.1872826497E-01    4.3290677041E-01
    4.4718533158E-01    4.6155154258E-01    4.7599281593E-01    4.9049640222E-01
    5.0504940986E-01    5.1963882510E-01    5.3425153192E-01    5.4887433221E-01
    5.6349396582E-01    5.7809713062E-01    5.9267050254E-01    6.0720075552E-01
    6.2167458132E-01    6.3607870918E-01    6.5039992532E-01    6.6462509219E-01
    6.7874116746E-01    6.9273522281E-01    7.0659446227E-01    7.2030624035E-01
    7.3385807972E-01    7.4723768853E-01    7.6043297727E-01    7.7343207521E-01
    7.8622334635E-01    7.9879540490E-01    8.1113713017E-01    8.2323768100E-01
    8.3508650956E-01    8.4667337463E-01    8.5798835421E-01    8.6902185759E-01
    8.7976463673E-01    8.9020779704E-01    9.0034280748E-01    9.1016150997E-01
    9.1965612822E-01    9.2881927574E-01    9.3764396327E-01    9.4612360547E-01
    9.5425202690E-01    9.6202346732E-01    9.6943258626E-01    9.7647446692E-01
    9.8314461935E-01    9.8943898289E-01    9.9535392799E-01    1.0008862573E+00
    1.0060332060E+00    1.0107924418E+00    1.0151620633E+00    1.0191405995E+00
    1.0227270064E+00    1.0259206648E+00    1.0287213767E+00    1.0311293609E+00
    1.0331452487E+00    1.0347700782E+00    1.0360052887E+00    1.0368527141E+00
    1.0373145763E+00    1.0373934772E+00    1.0370923916E+00    1.0364146579E+00
    1.0353639700E+00    1.0339443676E+00    1.0321602266E+00    1.0300162493E+00
    1.0275174537E+00    1.0246691630E+00    1.0214769944E+00    1.0179468478E+00
    1.0140848942E+00    1.0098975639E+00    1.0053915345E+00    1.0005737185E+00
    9.9545125098E-01    9.9003147701E-01    9.8432193906E-01    9.7833036414E-01
    9.7206465100E-01    9.6553285721E-01    9.5874318627E-01    9.5170397465E-01
    9.4442367890E-01    9.3691086281E-01    9.2917418456E-01    9.2122238404E-01
    9.1306427019E-01    9.0470870853E-01    8.9616460880E-01    8.8744091275E-01
    8.7854658214E-01    8.6949058690E-01    8.6028189353E-01    8.5092945371E-01
    8.4144219317E-01    8.3182900077E-01    8.2209871793E-01    8.1226012831E-01
    8.0232194770E-01    7.9229281439E-01    7.8218127969E-01    7.7199579889E-01
    7.6174472249E-01    7.5143628781E-01    7.4107861094E-01    7.3067967907E-01
    7.2024734311E-01    7.0978931079E-01    6.9931314001E-01    6.8882623268E-01
    6.7833582889E-01    6.6784900141E-01    6.5737265064E-01    6.4691349993E-01
    6.3647809124E-01    6.2607278125E-01    6.1570373776E-01    6.0537693650E-01
    5.9509815838E-01    5.8487298697E-01    5.7470680648E-01    5.6460479998E-01
    5.5457194806E-01    5.4461302782E-01    5.3473261210E-01    5.2493506921E-01
    5.1522456285E-01    5.0560505237E-01    4.9608029342E-01    4.8665383875E-01
    4.7732903945E-01    4.6810904637E-01    4.5899681184E-01    4.4999509165E-01
    4.4110644727E-01    4.3233324834E-01    4.2367767532E-01    4.1514172243E-01
    4.0672720073E-01    3.9843574144E-01    3.9026879945E-01    3.8222765691E-01
    3.7431342711E-01    3.6652705841E-01    3.5886933835E-01    3.5134089785E-01
    3.4394221561E-01    3.3667362247E-01    3.2953530600E-01    3.2252731509E-01
    3.1564956464E-01    3.0890184028E-01    3.0228380322E-01    2.9579499501E-01
    2.8943484242E-01    2.8320266236E-01    2.7709766671E-01    2.7111896723E-01
    2.6526558045E-01    2.5953643252E-01    2.5393036402E-01    2.4844613484E-01
    2.4308242883E-01    2.3783785863E-01    2.3271097022E-01    2.2770024758E-01
    2.2280411722E-01    2.1802095257E-01    2.1334907841E-01    2.0878677514E-01
    2.0433228293E-01    1.9998380588E-01    1.9573951599E-01    1.9159755705E-01
    1.8755604844E-01    1.8361308877E-01    1.7976675952E-01    1.7601512840E-01
    1.7235625275E-01    1.6878818270E-01    1.6530896432E-01    1.6191664250E-01
    1.5860926387E-01    1.5538487949E-01    1.5224154743E-01    1.4917733526E-01
    1.4619032240E-01    1.4327860232E-01    1.4044028464E-01    1.3767349712E-01
    1.3497638753E-01    1.3234712532E-01    1.2978390332E-01    1.2728493918E-01
    1.2484847678E-01    1.2247278749E-01    1.2015617136E-01    1.1789695816E-01
    1.1569350831E-01    1.1354421377E-01    1.1144749878E-01    1.0940182047E-01
    1.0740566950E-01    1.0545757045E-01    1.0355608227E-01    1.0169979853E-01
    9.9887347660E-02    9.8117393115E-02    9.6388633406E-02    9.4699802123E-02
    9.3049667858E-02    9.1437034080E-02    8.9860738939E-02    8.8319655026E-02
    8.6812689064E-02    8.5338781567E-02    8.3896906435E-02    8.2486070522E-02
    8.1105313154E-02    7.9753705610E-02    7.8430350578E-02    7.7134381568E-02
    7.5864962310E-02    7.4621286119E-02    7.3402575239E-02    7.2208080169E-02
    7.1037078977E-02    6.9888876589E-02    6.8762804076E-02    6.7658217929E-02
    6.6574499327E-02    6.5511053394E-02    6.4467308468E-02    6.3442715351E-02
    6.2436746573E-02    6.1448895655E-02    6.0478676372E-02    5.9525622032E-02
    5.8589284747E-02    5.7669234729E-02    5.6765059585E-02    5.5876363625E-02
    5.5002767188E-02    5.4143905968E-02    5.3299430371E-02    5.2469004871E-02
    5.1652307388E-02    5.0849028686E-02    5.0058871779E-02    4.9281551355E-02
    4.8516793227E-02    4.7764333788E-02    4.7023919490E-02    4.6295306341E-02
    4.5578259423E-02    4.4872552416E-02    4.4177967154E-02    4.3494293191E-02
    4.2821327385E-02    4.2158873501E-02    4.1506741832E-02    4.0864748834E-02
    4.0232716783E-02    3.9610473441E-02    3.8997851747E-02    3.8394689514E-02
    3.7800829150E-02    3.7216117393E-02    3.6640405050E-02    3.6073546771E-02
    3.5515400813E-02    3.4965828840E-02    3.4424695720E-02    3.3891869341E-02
    3.3367220439E-02    3.2850622431E-02    3.2341951273E-02    3.1841085315E-02
    3.1347905178E-02    3.0862293632E-02    3.0384135494E-02    2.9913317529E-02
    2.9449728360E-02    2.8993258394E-02    2.8543799750E-02    2.8101246202E-02
    2.7665493124E-02    2.7236437451E-02    2.6813977644E-02    2.6398013668E-02
    2.5988446971E-02    2.5585180462E-02    2.5188118499E-02    2.4797166862E-02
    2.4412232731E-02    2.4033224669E-02    2.3660052598E-02    2.3292627786E-02
    2.2930862821E-02    2.2574671596E-02    2.2223969290E-02    2.1878672350E-02
    2.1538698467E-02    2.1203966567E-02    2.0874396788E-02    2.0549910460E-02
    2.0230430096E-02    1.9915879365E-02    1.9606183082E-02    1.9301267190E-02
    1.9001058741E-02    1.8705485884E-02    1.8414477844E-02    1.8127964912E-02
    1.7845878424E-02    1.7568150750E-02    1.7294715274E-02    1.7025506386E-02
    1.6760459461E-02    1.6499510848E-02    1.6242597853E-02    1.5989658728E-02
    1.5740632656E-02    1.5495459735E-02    1.5254080969E-02    1.5016438250E-02
    1.4782474347E-02    1.4552132895E-02    1.4325358378E-02    1.4102096120E-02
    1.3882292270E-02    1.3665893792E-02    1.3452848453E-02    1.3243104806E-02
    1.3036612187E-02    1.2833320697E-02    1.2633181191E-02    1.2436145269E-02
    1.2242165266E-02    1.2051194236E-02    1.1863185947E-02    1.1678094866E-02
    1.1495876152E-02    1.1316485642E-02    1.1139879847E-02    1.0966015932E-02
    1.0794851718E-02    1.0626345662E-02    1.0460456855E-02    1.0297145008E-02
    1.0136370443E-02    9.9780940881E-03    9.8222774622E-03    9.6688826712E-03
    9.5178723965E-03    9.3692098877E-03    9.2228589533E-03    9.0787839527E-03
    8.9369497879E-03    8.7973218953E-03    8.6598662378E-03    8.5245492967E-03
    8.3913380643E-03    8.2602000357E-03    8.1311032016E-03    8.0040160410E-03
    7.8789075136E-03    7.7557470524E-03    7.6345045572E-03    7.5151503863E-03
    7.3976553519E-03    7.2819907128E-03    7.1681281705E-03    7.0560398406E-03
    6.9456982677E-03    6.8370764261E-03    6.7301477589E-03    6.6248861104E-03
    6.5212656746E-03    6.4192609924E-03    6.3188469853E-03    6.2199990159E-03
    6.1226928327E-03    6.0269045605E-03    5.9326106700E-03    5.8397879965E-03
    5.7484137309E-03    5.6584654152E-03    5.5699209350E-03    5.4827585154E-03
    5.3969567149E-03    5.3124944216E-03    5.2293508471E-03    5.1475055223E-03
    5.0669382925E-03    4.9876293124E-03    4.9095590415E-03    4.8327082396E-03
    4.7570579624E-03    4.6825895564E-03    4.6092846552E-03    4.5371251750E-03
    4.4660933098E-03    4.3961715279E-03    4.3273425674E-03    4.2595894321E-03
    4.1928953873E-03    4.1272439565E-03    4.0626189166E-03    3.9990042949E-03
    3.9363843644E-03    3.8747436411E-03    3.8140668793E-03    3.7543390689E-03
    3.6955454309E-03    3.6376714148E-03    3.5807026945E-03    3.5246251649E-03
    3.4694249391E-03    3.4150883445E-03    3.3616019197E-03    3.3089524114E-03
    3.2571267711E-03    3.2061121521E-03    3.1558959064E-03    3.1064655815E-03
    3.0578089177E-03    3.0099138449E-03    2.9627684800E-03    2.9163611236E-03
    2.8706802578E-03    2.8257145428E-03    2.7814528147E-03    2.7378840825E-03
    2.6949975255E-03    2.6527824908E-03    2.6112284907E-03    2.5703252002E-03
    2.5300624543E-03    2.4904302460E-03    2.4514187233E-03    2.4130181873E-03
    2.3752190896E-03    2.3380120301E-03    2.3013877548E-03    2.2653371534E-03
    2.2298512570E-03    2.1949212363E-03    2.1605383992E-03    2.1266941886E-03
    2.0933801808E-03    2.0605880826E-03    2.0283097304E-03    1.9965370871E-03
    1.9652622411E-03    1.9344774035E-03    1.9041749072E-03    1.8743472040E-03
    1.8449868635E-03    1.8160865710E-03    1.7876391256E-03    1.7596374390E-03
    1.7320745328E-03    1.7049435379E-03    1.6782376921E-03    1.6519503384E-03
    1.6260749239E-03    1.6006049978E-03    1.5755342101E-03    1.5508563096E-03
    1.5265651427E-03    1.5026546521E-03    1.4791188747E-03    1.4559519407E-03
    1.4331480720E-03    1.4107015805E-03    1.3886068671E-03    1.3668584201E-03
    1.3454508141E-03    1.3243787081E-03    1.3036368449E-03    1.2832200493E-03
    1.2631232270E-03    1.2433413634E-03    1.2238695222E-03    1.2047028444E-03
    1.1858365470E-03    1.1672659215E-03    1.1489863336E-03    1.1309932210E-03
    1.1132820929E-03    1.0958485291E-03    1.0786881780E-03    1.0617967567E-03
    1.0451700488E-03    1.0288039043E-03    1.0126942380E-03    9.9683702863E-04
    9.8122831797E-04    9.6586420973E-04    9.5074086866E-04    9.3585451959E-04
    9.2120144646E-04    9.0677799143E-04    8.9258055398E-04    8.7860558996E-04
    8.6484961081E-04    8.5130918258E-04    8.3798092518E-04    8.2486151146E-04
    8.1194766643E-04    7.9923616643E-04    7.8672383834E-04    7.7440755878E-04
    7.6228425334E-04    7.5035089578E-04    7.3860450737E-04    7.2704215602E-04
    7.1566095567E-04    7.0445806550E-04    6.9343068922E-04    6.8257607444E-04
    6.7189151189E-04    6.6137433484E-04    6.5102191836E-04    6.4083167870E-04
    6.3080107265E-04    6.2092759688E-04    6.1120878736E-04    6.0164221869E-04
    5.9222550354E-04    5.8295629202E-04    5.7383227113E-04    5.6485116415E-04
    5.5601073009E-04    5.4730876311E-04    5.3874309201E-04    5.3031157964E-04
    5.2201212240E-04    5.1384264970E-04    5.0580112342E-04    4.9788553747E-04
    4.9009391721E-04    4.8242431900E-04    4.7487482971E-04    4.6744356622E-04
    4.6012867499E-04    4.5292833154E-04    4.4584074005E-04    4.3886413288E-04
    4.3199677013E-04    4.2523693921E-04    4.1858295440E-04    4.1203315645E-04
    4.0558591216E-04    3.9923961395E-04    3.9299267947E-04    3.8684355122E-04
    3.8079069613E-04    3.7483260520E-04    3.6896779312E-04    3.6319479789E-04
    3.5751218044E-04    3.5191852430E-04    3.4641243524E-04    3.4099254090E-04
    3.3565749045E-04    3.3040595429E-04    3.2523662365E-04    3.2014821033E-04
    3.1513944633E-04    3.1020908356E-04    3.0535589350E-04    3.0057866694E-04
    2.9587621361E-04    2.9124736195E-04    2.8669095876E-04    2.8220586894E-04
    2.7779097523E-04    2.7344517785E-04    2.6916739433E-04    2.6495655915E-04
    2.6081162353E-04    2.5673155511E-04    2.5271533778E-04    2.4876197132E-04
    2.4487047125E-04    2.4103986849E-04    2.3726920920E-04    2.3355755448E-04
    2.2990398017E-04    2.2630757661E-04    2.2276744839E-04    2.1928271417E-04
    2.1585250642E-04    2.1247597122E-04    2.0915226805E-04    2.0588056956E-04
    2.0266006139E-04    1.9948994194E-04    1.9636942220E-04    1.9329772550E-04
    1.9027408739E-04    1.8729775537E-04    1.8436798877E-04    1.8148405852E-04
    1.7864524698E-04    1.7585084777E-04    1.7310016559E-04    1.7039251601E-04
    1.6772722537E-04    1.6510363056E-04    1.6252107884E-04    1.5997892774E-04
    1.5747654483E-04    1.5501330762E-04    1.5258860336E-04    1.5020182891E-04
    1.4785239059E-04    1.4553970401E-04    1.4326319395E-04    1.4102229420E-04
    1.3881644742E-04    1.3664510503E-04    1.3450772701E-04    1.3240378182E-04
    1.3033274626E-04    1.2829410530E-04    1.2628735201E-04    1.2431198738E-04
    1.2236752023E-04    1.2045346707E-04    1.1856935199E-04    1.1671470654E-04
    1.1488906959E-04    1.1309198725E-04    1.1132301273E-04    1.0958170625E-04
    1.0786763490E-04    1.0618037258E-04    1.0451949984E-04    1.0288460380E-04
    1.0127527806E-04    9.9691122572E-05    9.8131743559E-05    9.6596753409E-05
    9.5085770582E-05    9.3598419509E-05    9.2134330505E-05    9.0693139672E-05
    8.9274488810E-05    8.7878025328E-05    8.6503402153E-05    8.5150277650E-05
    8.3818315530E-05    8.2507184769E-05    8.1216559524E-05    7.9946119056E-05
    7.8695547643E-05    7.7464534509E-05    7.6252773740E-05    7.5059964210E-05
    7.3885809510E-05    7.2730017865E-05    7.1592302071E-05    7.0472379417E-05
    6.9369971618E-05    6.8284804742E-05    6.7216609146E-05    6.6165119406E-05
    6.5130074251E-05    6.4111216499E-05    6.3108292994E-05    6.2121054539E-05
    6.1149255837E-05    6.0192655430E-05    5.9251015636E-05    5.8324102495E-05
    5.7411685705E-05    5.6513538569E-05    5.5629437934E-05    5.4759164141E-05
    5.3902500967E-05    5.3059235570E-05    5.2229158440E-05    5.1412063343E-05
    5.0607747270E-05    4.9816010392E-05    4.9036656000E-05    4.8269490468E-05
    4.7514323193E-05    4.6770966559E-05    4.6039235879E-05    4.5318949360E-05
    4.4609928048E-05    4.3911995791E-05    4.3224979190E-05    4.2548707560E-05
    4.1883012884E-05    4.1227729774E-05    4.0582695426E-05    3.9947749586E-05
    3.9322734502E-05    3.8707494893E-05    3.8101877904E-05    3.7505733070E-05
    3.6918912281E-05    3.6341269742E-05    3.5772661937E-05    3.5212947596E-05
    3.4661987656E-05    3.4119645231E-05    3.3585785574E-05    3.3060276045E-05
    3.2542986078E-05    3.2033787149E-05    3.1532552743E-05    3.1039158324E-05
    3.0553481303E-05    3.0075401007E-05    2.9604798651E-05    2.9141557307E-05
    2.8685561874E-05    2.8236699051E-05    2.7794857310E-05    2.7359926865E-05
    2.6931799648E-05    2.6510369279E-05    2.6095531041E-05    2.5687181857E-05
    2.5285220258E-05    2.4889546364E-05    2.4500061855E-05    2.4116669950E-05
    2.3739275377E-05    2.3367784359E-05    2.3002104581E-05    2.2642145173E-05
    2.2287816685E-05    2.1939031065E-05    2.1595701638E-05    2.1257743086E-05
    2.0925071421E-05    2.0597603971E-05    2.0275259355E-05    1.9957957464E-05
    1.9645619444E-05    1.9338167670E-05    1.9035525732E-05    1.8737618416E-05
    1.8444371683E-05    1.8155712649E-05    1.7871569573E-05    1.7591871834E-05
    1.7316549915E-05    1.7045535385E-05    1.6778760883E-05    1.6516160104E-05
    1.6257667775E-05    1.6003219646E-05    1.5752752471E-05    1.5506203993E-05
    1.5263512928E-05    1.5024618949E-05    1.4789462675E-05    1.4557985649E-05
    1.4330130332E-05    1.4105840082E-05    1.3885059144E-05    1.3667732633E-05
    1.3453806523E-05    1.3243227633E-05    1.3035943612E-05    1.2831902930E-05
    1.2631054859E-05    1.2433349467E-05    1.2238737602E-05    1.2047170879E-05
    1.1858601670E-05    1.1672983094E-05    1.1490268999E-05    1.1310413957E-05
    1.1133373251E-05    1.0959102859E-05    1.0787559453E-05    1.0618700377E-05
    1.0452483646E-05    1.0288867929E-05    1.0127812542E-05    9.9692774364E-06
    9.8132231908E-06    9.6596109996E-06    9.5084026638E-06    9.3595605817E-06
    9.2130477396E-06    9.0688277024E-06    8.9268646048E-06    8.7871231421E-06
    8.6495685616E-06    8.5141666540E-06    8.3808837450E-06    8.2496866866E-06
    8.1205428493E-06    7.9934201135E-06    7.8682868622E-06    7.7451119723E-06
    7.6238648077E-06    7.5045152113E-06    7.3870334973E-06    7.2713904443E-06
    7.1575572877E-06    7.0455057127E-06    6.9352078474E-06    6.8266362555E-06
    6.7197639298E-06    6.6145642855E-06    6.5110111534E-06    6.4090787734E-06
    6.3087417886E-06    6.2099752383E-06    6.1127545522E-06    6.0170555442E-06
    5.9228544064E-06    5.8301277035E-06    5.7388523662E-06    5.6490056862E-06
    5.5605653105E-06    5.4735092355E-06    5.3878158015E-06    5.3034636879E-06
    5.2204319072E-06    5.1386998005E-06    5.0582470317E-06    4.9790535827E-06
    4.9010997487E-06    4.8243661329E-06    4.7488336420E-06    4.6744834811E-06
    4.6012971496E-06    4.5292564359E-06    4.4583434133E-06    4.3885404358E-06
    4.3198301329E-06    4.2521954062E-06    4.1856194245E-06    4.1200856199E-06
    4.0555776837E-06    3.9920795623E-06    3.9295754530E-06    3.8680498006E-06
    3.8074872930E-06    3.7478728576E-06    3.6891916576E-06    3.6314290884E-06
    3.5745707736E-06    3.5186025619E-06    3.4635105232E-06    3.4092809456E-06
    3.3559003312E-06    3.3033553937E-06    3.2516330545E-06    3.2007204394E-06
    3.1506048758E-06    3.1012738894E-06    3.0527152008E-06    3.0049167229E-06
    2.9578665577E-06    2.9115529932E-06    2.8659645006E-06    2.8210897316E-06
    2.7769175154E-06    2.7334368559E-06    2.6906369292E-06    2.6485070805E-06
    2.6070368219E-06    2.5662158294E-06    2.5260339406E-06    2.4864811523E-06
    2.4475476174E-06    2.4092236433E-06    2.3714996887E-06    2.3343663617E-06
    2.2978144174E-06    2.2618347556E-06    2.2264184183E-06    2.1915565879E-06
    2.1572405845E-06    2.1234618641E-06    2.0902120166E-06    2.0574827633E-06
    2.0252659549E-06    1.9935535700E-06    1.9623377124E-06    1.9316106095E-06
    1.9013646105E-06    1.8715921842E-06    1.8422859171E-06    1.8134385120E-06
    1.7850427857E-06    1.7570916675E-06    1.7295781973E-06    1.7024955238E-06
    1.6758369031E-06    1.6495956968E-06    1.6237653704E-06    1.5983394915E-06
    1.5733117286E-06    1.5486758491E-06    1.5244257180E-06    1.5005552963E-06
    1.4770586395E-06    1.4539298963E-06    1.4311633067E-06    1.4087532010E-06
    1.3866939983E-06    1.3649802048E-06    1.3436064129E-06    1.3225672996E-06
    1.3018576252E-06    1.2814722320E-06    1.2614060429E-06    1.2416540604E-06
    1.2222113653E-06    1.2030731152E-06    1.1842345436E-06    1.1656909586E-06
    1.1474377417E-06    1.1294703467E-06    1.1117842985E-06    1.0943751923E-06
    1.0772386918E-06    1.0603705291E-06    1.0437665026E-06    1.0274224769E-06
    1.0113343810E-06    9.9549820781E-07    9.7991001289E-07    9.6456591356E-07
    9.4946208792E-07    9.3459477390E-07    9.1996026831E-07    9.0555492593E-07
    8.9137515860E-07    8.7741743434E-07    8.6367827645E-07    8.5015426264E-07
    8.3684202422E-07    8.2373824523E-07    8.1083966159E-07    7.9814306036E-07
    7.8564527886E-07    7.7334320394E-07    7.6123377119E-07    7.4931396415E-07
    7.3758081362E-07    7.2603139683E-07    7.1466283682E-07    7.0347230164E-07
    6.9245700367E-07    6.8161419895E-07    6.7094118648E-07    6.6043530753E-07
    6.5009394499E-07    6.3991452274E-07    6.2989450499E-07    6.2003139564E-07
    6.1032273767E-07    6.0076611254E-07    5.9135913956E-07    5.8209947532E-07
    5.7298481311E-07    5.6401288230E-07    5.5518144786E-07    5.4648830971E-07
    5.3793130225E-07    5.2950829374E-07    5.2121718587E-07    5.1305591316E-07
    5.0502244246E-07    4.9711477246E-07    4.8933093319E-07    4.8166898553E-07
    4.7412702069E-07    4.6670315981E-07    4.5939555343E-07    4.5220238103E-07
    4.4512185062E-07    4.3815219825E-07    4.3129168762E-07    4.2453860957E-07
    4.1789128174E-07    4.1134804811E-07    4.0490727857E-07    3.9856736854E-07
    3.9232673858E-07    3.8618383396E-07    3.8013712431E-07    3.7418510323E-07
    3.6832628788E-07    3.6255921867E-07    3.5688245883E-07    3.5129459413E-07
    3.4579423245E-07    3.4038000350E-07    3.3505055841E-07    3.2980456947E-07
    3.2464072973E-07    3.1955775272E-07    3.1455437211E-07    3.0962934141E-07
    3.0478143364E-07    3.0000944103E-07    2.9531217473E-07    2.9068846451E-07
    2.8613715845E-07    2.8165712269E-07    2.7724724111E-07    2.7290641506E-07
    2.6863356313E-07    2.6442762079E-07    2.6028754024E-07    2.5621229004E-07
    2.5220085493E-07    2.4825223554E-07    2.4436544816E-07    2.4053952445E-07
    2.3677351128E-07    2.3306647042E-07    2.2941747833E-07    2.2582562595E-07
    2.2229001845E-07    2.1880977500E-07    2.1538402859E-07    2.1201192575E-07
    2.0869262641E-07    2.0542530364E-07    2.0220914346E-07    1.9904334465E-07
    1.9592711853E-07    1.9285968875E-07    1.8984029115E-07    1.8686817352E-07
    1.8394259544E-07    1.8106282808E-07    1.7822815402E-07    1.7543786708E-07
    1.7269127213E-07    1.6998768494E-07    1.6732643199E-07    1.6470685031E-07
    1.6212828731E-07    1.5959010062E-07    1.5709165794E-07    1.5463233684E-07
    1.5221152467E-07    1.4982861838E-07    1.4748302434E-07    1.4517415822E-07
    1.4290144486E-07    1.4066431808E-07    1.3846222059E-07    1.3629460383E-07
    1.3416092781E-07    1.3206066101E-07    1.2999328024E-07    1.2795827048E-07
    1.2595512480E-07    1.2398334421E-07    1.2204243751E-07    1.2013192121E-07
    1.1825131941E-07    1.1640016362E-07    1.1457799273E-07    1.1278435281E-07
    1.1101879709E-07    1.0928088574E-07    1.0757018586E-07    1.0588627133E-07
    1.0422872266E-07    1.0259712699E-07    1.0099107787E-07    9.9410175259E-08
    9.7854025357E-08    9.6322240540E-08    9.4814439251E-08    9.3330245912E-08
    9.1869290824E-08    9.0431210078E-08    8.9015645468E-08    8.7622244396E-08
    8.6250659785E-08    8.4900549995E-08    8.3571578737E-08    8.2263414986E-08
    8.0975732903E-08    7.9708211753E-08    7.8460535824E-08    7.7232394349E-08
    7.6023481425E-08    7.4833495942E-08    7.3662141507E-08    7.2509126364E-08
    7.1374163333E-08    7.0256969728E-08    6.9157267290E-08    6.8074782119E-08
    6.7009244605E-08    6.5960389358E-08    6.4927955145E-08    6.3911684828E-08
    6.2911325291E-08    6.1926627387E-08    6.0957345867E-08    6.0003239325E-08
    5.9064070134E-08    5.8139604389E-08    5.7229611849E-08    5.6333865881E-08
    5.5452143397E-08    5.4584224807E-08    5.3729893955E-08    5.2888938075E-08
    5.2061147730E-08    5.1246316764E-08    5.0444242252E-08    4.9654724444E-08
    4.8877566719E-08    4.8112575537E-08    4.7359560386E-08    4.6618333738E-08
    4.5888711005E-08    4.5170510488E-08    4.4463553333E-08    4.3767663488E-08
    4.3082667657E-08    4.2408395260E-08    4.1744678384E-08    4.1091351751E-08
    4.0448252670E-08    3.9815220995E-08    3.9192099092E-08    3.8578731792E-08
    3.7974966359E-08    3.7380652446E-08    3.6795642063E-08    3.6219789537E-08
    3.5652951477E-08    3.5094986736E-08    3.4545756379E-08    3.4005123646E-08
    3.3472953917E-08    3.2949114683E-08    3.2433475510E-08    3.1925908004E-08
    3.1426285786E-08    3.0934484452E-08    3.0450381549E-08    2.9973856539E-08
    2.9504790773E-08    2.9043067462E-08    2.8588571643E-08    2.8141190155E-08
    2.7700811609E-08    2.7267326360E-08    2.6840626480E-08    2.6420605730E-08
    2.6007159537E-08    2.5600184965E-08    2.5199580688E-08    2.4805246971E-08
    2.4417085636E-08    2.4035000045E-08    2.3658895074E-08    2.3288677086E-08
    2.2924253912E-08    2.2565534827E-08    2.2212430526E-08    2.1864853103E-08
    2.1522716027E-08    2.1185934124E-08    2.0854423551E-08    2.0528101781E-08
    2.0206887578E-08    1.9890700979E-08    1.9579463272E-08    1.9273096978E-08
    1.8971525830E-08    1.8674674759E-08    1.8382469866E-08    1.8094838414E-08
    1.7811708803E-08    1.7533010555E-08    1.7258674295E-08    1.6988631734E-08
    1.6722815652E-08    1.6461159884E-08    1.6203599297E-08    1.5950069782E-08
    1.5700508232E-08    1.5454852529E-08    1.5213041526E-08    1.4975015035E-08
    1.4740713809E-08    1.4510079531E-08    1.4283054795E-08    1.4059583095E-08
    1.3839608810E-08    1.3623077189E-08    1.3409934339E-08    1.3200127210E-08
    1.2993603584E-08    1.2790312060E-08    1.2590202041E-08    1.2393223724E-08
    1.2199328084E-08    1.2008466866E-08    1.1820592567E-08    1.1635658432E-08
    1.1453618434E-08    1.1274427270E-08    1.1098040344E-08    1.0924413761E-08
    1.0753504309E-08    1.0585269457E-08    1.0419667338E-08    1.0256656739E-08
    1.0096197096E-08    9.9382484759E-09    9.7827715744E-09    9.6297277010E-09
    9.4790787709E-09    9.3307872959E-09    9.1848163748E-09    9.0411296838E-09
    8.8996914678E-09    8.7604665323E-09    8.6234202333E-09    8.4885184691E-09
    8.3557276723E-09    8.2250148006E-09    8.0963473294E-09    7.9696932429E-09
    7.8450210268E-09    7.7222996604E-09    7.6014986087E-09    7.4825878145E-09
    7.3655376912E-09    7.2503191155E-09    7.1369034201E-09    7.0252623862E-09
    6.9153682370E-09    6.8071936310E-09    6.7007116542E-09    6.5958958143E-09
    6.4927200335E-09    6.3911586425E-09    6.2911863736E-09    6.1927783547E-09
    6.0959101033E-09    6.0005575202E-09    5.9066968834E-09    5.8143048423E-09
    5.7233584119E-09    5.6338349669E-09    5.5457122362E-09    5.4589682973E-09
    5.3735815712E-09    5.2895308165E-09    5.2067951246E-09    5.1253539138E-09
    5.0451869250E-09    4.9662742160E-09    4.8885961568E-09    4.8121334246E-09
    4.7368669993E-09    4.6627781587E-09    4.5898484735E-09    4.5180598028E-09
    4.4473942898E-09    4.3778343573E-09    4.3093627031E-09    4.2419622957E-09
    4.1756163706E-09    4.1103084256E-09    4.0460222168E-09    3.9827417546E-09
    3.9204512997E-09    3.8591353592E-09    3.7987786825E-09    3.7393662579E-09
    3.6808833086E-09    3.6233152895E-09    3.5666478827E-09    3.5108669948E-09
    3.4559587526E-09    3.4019095005E-09    3.3487057962E-09    3.2963344081E-09
    3.2447823115E-09    3.1940366860E-09    3.1440849116E-09    3.0949145658E-09
    3.0465134206E-09    2.9988694395E-09    2.9519707741E-09    2.9058057618E-09
    2.8603629222E-09    2.8156309551E-09    2.7715987367E-09    2.7282553177E-09
    2.6855899198E-09    2.6435919337E-09    2.6022509160E-09    2.5615565868E-09
    2.5214988270E-09    2.4820676760E-09    2.4432533293E-09    2.4050461355E-09
    2.3674365944E-09    2.3304153547E-09    2.2939732111E-09    2.2581011025E-09
    2.2227901097E-09    2.1880314530E-09    2.1538164903E-09    2.1201367146E-09
    2.0869837521E-09    2.0543493601E-09    2.0222254247E-09    1.9906039593E-09
    1.9594771019E-09    1.9288371139E-09    1.8986763777E-09    1.8689873950E-09
    1.8397627847E-09    1.8109952813E-09    1.7826777330E-09    1.7548030999E-09
    1.7273644524E-09    1.7003549690E-09    1.6737679354E-09    1.6475967422E-09
    1.6218348834E-09    1.5964759548E-09    1.5715136526E-09    1.5469417715E-09
    1.5227542033E-09    1.4989449353E-09    1.4755080490E-09    1.4524377188E-09
    1.4297282099E-09    1.4073738773E-09    1.3853691645E-09    1.3637086019E-09
    1.3423868053E-09    1.3213984750E-09
   </PP_CHI.1>
   <PP_CHI.2
       type="real"
       size="1426"
       columns="4"
       index="2"
       occupation=" 2.000"
       pseudo_energy="   -0.9463929888E+00"
       label="5S"
       l="0" >
    7.7324778525E-13    1.4831918134E-03    2.9697061288E-03    4.4628554207E-03
    5.9659321527E-03    7.4821988802E-03    9.0148784831E-03    1.0567144570E-02
    1.2142112096E-02    1.3742828233E-02    1.5372263537E-02    1.7033303439E-02
    1.8728740114E-02    2.0461264738E-02    2.2233460195E-02    2.4047794239E-02
    2.5906613154E-02    2.7812135937E-02    2.9766449019E-02    3.1771501562E-02
    3.3829101331E-02    3.5940911174E-02    3.8108446115E-02    4.0333071067E-02
    4.2615999187E-02    4.4958290857E-02    4.7360853315E-02    4.9824440915E-02
    5.2349656025E-02    5.4936950549E-02    5.7586628071E-02    6.0298846594E-02
    6.3073621875E-02    6.5910831327E-02    6.8810218469E-02    7.1771397903E-02
    7.4793860791E-02    7.7876980803E-02    8.1020020509E-02    8.4222138174E-02
    8.7482394938E-02    9.0799762328E-02    9.4173130073E-02    9.7601314185E-02
    1.0108306526E-01    1.0461707698E-01    1.0820199471E-01    1.1183642426E-01
    1.1551894063E-01    1.1924809686E-01    1.2302243273E-01    1.2684048353E-01
    1.3070078858E-01    1.3460189968E-01    1.3854238937E-01    1.4252085886E-01
    1.4653594583E-01    1.5058633177E-01    1.5467074906E-01    1.5878798766E-01
    1.6293690138E-01    1.6711641367E-01    1.7132552298E-01    1.7556330762E-01
    1.7982893006E-01    1.8412164074E-01    1.8844078127E-01    1.9278578708E-01
    1.9715618949E-01    2.0155161713E-01    2.0597179680E-01    2.1041655371E-01
    2.1488581110E-01    2.1937958923E-01    2.2389800379E-01    2.2844126369E-01
    2.3300966827E-01    2.3760360391E-01    2.4222354014E-01    2.4687002509E-01
    2.5154368053E-01    2.5624519637E-01    2.6097532465E-01    2.6573487310E-01
    2.7052469834E-01    2.7534569862E-01    2.8019880620E-01    2.8508497952E-01
    2.9000519494E-01    2.9496043840E-01    2.9995169670E-01    3.0497994879E-01
    3.1004615683E-01    3.1515125721E-01    3.2029615152E-01    3.2548169753E-01
    3.3070870025E-01    3.3597790302E-01    3.4128997879E-01    3.4664552151E-01
    3.5204503784E-01    3.5748893901E-01    3.6297753298E-01    3.6851101704E-01
    3.7408947064E-01    3.7971284870E-01    3.8538097533E-01    3.9109353803E-01
    3.9685008233E-01    4.0265000705E-01    4.0849255998E-01    4.1437683423E-01
    4.2030176510E-01    4.2626612754E-01    4.3226853432E-01    4.3830743470E-01
    4.4438111383E-01    4.5048769273E-01    4.5662512893E-01    4.6279121781E-01
    4.6898359447E-01    4.7519973632E-01    4.8143696628E-01    4.8769245658E-01
    4.9396323318E-01    5.0024618073E-01    5.0653804822E-01    5.1283545501E-01
    5.1913489749E-01    5.2543275625E-01    5.3172530365E-01    5.3800871190E-01
    5.4427906149E-01    5.5053235005E-01    5.5676450149E-01    5.6297137556E-01
    5.6914877753E-01    5.7529246823E-01    5.8139817420E-01    5.8746159806E-01
    5.9347842893E-01    5.9944435295E-01    6.0535506386E-01    6.1120627355E-01
    6.1699372253E-01    6.2271319038E-01    6.2836050600E-01    6.3393155779E-01
    6.3942230349E-01    6.4482877995E-01    6.5014711246E-01    6.5537352390E-01
    6.6050434351E-01    6.6553601522E-01    6.7046510569E-01    6.7528831187E-01
    6.8000246810E-01    6.8460455277E-01    6.8909169441E-01    6.9346117741E-01
    6.9771044703E-01    7.0183711403E-01    7.0583895864E-01    7.0971393400E-01
    7.1346016903E-01    7.1707597077E-01    7.2055982604E-01    7.2391040263E-01
    7.2712654986E-01    7.3020729860E-01    7.3315186073E-01    7.3595962804E-01
    7.3863017061E-01    7.4116323464E-01    7.4355873984E-01    7.4581677627E-01
    7.4793760077E-01    7.4992163286E-01    7.5176945035E-01    7.5348178444E-01
    7.5505951453E-01    7.5650366263E-01    7.5781538751E-01    7.5899597853E-01
    7.6004684927E-01    7.6096953085E-01    7.6176566515E-01    7.6243699783E-01
    7.6298537121E-01    7.6341271709E-01    7.6372104951E-01    7.6391245739E-01
    7.6398909729E-01    7.6395318613E-01    7.6380699395E-01    7.6355283681E-01
    7.6319306977E-01    7.6273007998E-01    7.6216627999E-01    7.6150410123E-01
    7.6074598763E-01    7.5989438960E-01    7.5895175814E-01    7.5792053925E-01
    7.5680316865E-01    7.5560206676E-01    7.5431963399E-01    7.5295824638E-01
    7.5152025148E-01    7.5000796467E-01    7.4842366574E-01    7.4676959580E-01
    7.4504795458E-01    7.4326089802E-01    7.4141053622E-01    7.3949893168E-01
    7.3752809793E-01    7.3549999838E-01    7.3341654553E-01    7.3127960050E-01
    7.2909097274E-01    7.2685242011E-01    7.2456564916E-01    7.2223231562E-01
    7.1985402514E-01    7.1743233427E-01    7.1496875149E-01    7.1246473855E-01
    7.0992171186E-01    7.0734104401E-01    7.0472406541E-01    7.0207206602E-01
    6.9938629709E-01    6.9666797301E-01    6.9391827307E-01    6.9113834339E-01
    6.8832929864E-01    6.8549222384E-01    6.8262817608E-01    6.7973818612E-01
    6.7682325997E-01    6.7388438034E-01    6.7092250798E-01    6.6793858295E-01
    6.6493352560E-01    6.6190823760E-01    6.5886360260E-01    6.5580048693E-01
    6.5271973996E-01    6.4962219441E-01    6.4650866644E-01    6.4337995577E-01
    6.4023684585E-01    6.3708010413E-01    6.3391048233E-01    6.3072871665E-01
    6.2753552799E-01    6.2433162222E-01    6.2111769037E-01    6.1789440887E-01
    6.1466243979E-01    6.1142243105E-01    6.0817501663E-01    6.0492081683E-01
    6.0166043843E-01    5.9839447496E-01    5.9512350688E-01    5.9184810180E-01
    5.8856881468E-01    5.8528618806E-01    5.8200075225E-01    5.7871302551E-01
    5.7542351429E-01    5.7213271341E-01    5.6884110623E-01    5.6554916490E-01
    5.6225735048E-01    5.5896611320E-01    5.5567589258E-01    5.5238711767E-01
    5.4910020719E-01    5.4581556972E-01    5.4253360389E-01    5.3925469856E-01
    5.3597923294E-01    5.3270757684E-01    5.2944009077E-01    5.2617712613E-01
    5.2291902537E-01    5.1966612218E-01    5.1641874160E-01    5.1317720020E-01
    5.0994180624E-01    5.0671285981E-01    5.0349065299E-01    5.0027546999E-01
    4.9706758731E-01    4.9386727384E-01    4.9067479106E-01    4.8749039314E-01
    4.8431432710E-01    4.8114683293E-01    4.7798814372E-01    4.7483848580E-01
    4.7169807887E-01    4.6856713612E-01    4.6544586437E-01    4.6233446416E-01
    4.5923312992E-01    4.5614205004E-01    4.5306140702E-01    4.4999137757E-01
    4.4693213275E-01    4.4388383802E-01    4.4084665343E-01    4.3782073366E-01
    4.3480622818E-01    4.3180328132E-01    4.2881203236E-01    4.2583261570E-01
    4.2286516088E-01    4.1990979271E-01    4.1696663140E-01    4.1403579260E-01
    4.1111738751E-01    4.0821152299E-01    4.0531830164E-01    4.0243782188E-01
    3.9957017804E-01    3.9671546045E-01    3.9387375554E-01    3.9104514588E-01
    3.8822971030E-01    3.8542752395E-01    3.8263865839E-01    3.7986318165E-01
    3.7710115833E-01    3.7435264965E-01    3.7161771355E-01    3.6889640471E-01
    3.6618877470E-01    3.6349487196E-01    3.6081474195E-01    3.5814842716E-01
    3.5549596719E-01    3.5285739883E-01    3.5023275610E-01    3.4762207033E-01
    3.4502537021E-01    3.4244268185E-01    3.3987402885E-01    3.3731943234E-01
    3.3477891105E-01    3.3225248135E-01    3.2974015733E-01    3.2724195083E-01
    3.2475787150E-01    3.2228792685E-01    3.1983212230E-01    3.1739046123E-01
    3.1496294503E-01    3.1254957314E-01    3.1015034313E-01    3.0776525067E-01
    3.0539428966E-01    3.0303745224E-01    3.0069472879E-01    2.9836610805E-01
    2.9605157711E-01    2.9375112146E-01    2.9146472503E-01    2.8919237026E-01
    2.8693403807E-01    2.8468970797E-01    2.8245935804E-01    2.8024296501E-01
    2.7804050427E-01    2.7585194991E-01    2.7367727475E-01    2.7151645039E-01
    2.6936944721E-01    2.6723623444E-01    2.6511678016E-01    2.6301105137E-01
    2.6091901396E-01    2.5884063279E-01    2.5677587171E-01    2.5472469357E-01
    2.5268706027E-01    2.5066293275E-01    2.4865227107E-01    2.4665503440E-01
    2.4467118105E-01    2.4270066851E-01    2.4074345344E-01    2.3879949175E-01
    2.3686873856E-01    2.3495114828E-01    2.3304667459E-01    2.3115527049E-01
    2.2927688831E-01    2.2741147972E-01    2.2555899579E-01    2.2371938695E-01
    2.2189260308E-01    2.2007859345E-01    2.1827730683E-01    2.1648869143E-01
    2.1471269497E-01    2.1294926465E-01    2.1119834723E-01    2.0945988900E-01
    2.0773383580E-01    2.0602013307E-01    2.0431872582E-01    2.0262955869E-01
    2.0095257593E-01    1.9928772144E-01    1.9763493879E-01    1.9599417119E-01
    1.9436536156E-01    1.9274845252E-01    1.9114338638E-01    1.8955010522E-01
    1.8796855082E-01    1.8639866474E-01    1.8484038829E-01    1.8329366258E-01
    1.8175842850E-01    1.8023462675E-01    1.7872219783E-01    1.7722108210E-01
    1.7573121974E-01    1.7425255078E-01    1.7278501511E-01    1.7132855251E-01
    1.6988310263E-01    1.6844860501E-01    1.6702499910E-01    1.6561222428E-01
    1.6421021982E-01    1.6281892496E-01    1.6143827885E-01    1.6006822061E-01
    1.5870868932E-01    1.5735962402E-01    1.5602096376E-01    1.5469264752E-01
    1.5337461433E-01    1.5206680320E-01    1.5076915314E-01    1.4948160320E-01
    1.4820409244E-01    1.4693655998E-01    1.4567894494E-01    1.4443118653E-01
    1.4319322399E-01    1.4196499663E-01    1.4074644384E-01    1.3953750505E-01
    1.3833811982E-01    1.3714822776E-01    1.3596776859E-01    1.3479668214E-01
    1.3363490833E-01    1.3248238719E-01    1.3133905889E-01    1.3020486370E-01
    1.2907974202E-01    1.2796363440E-01    1.2685648151E-01    1.2575822418E-01
    1.2466880338E-01    1.2358816022E-01    1.2251623600E-01    1.2145297216E-01
    1.2039831030E-01    1.1935219221E-01    1.1831455984E-01    1.1728535532E-01
    1.1626452098E-01    1.1525199933E-01    1.1424773304E-01    1.1325166503E-01
    1.1226373836E-01    1.1128389633E-01    1.1031208244E-01    1.0934824037E-01
    1.0839231405E-01    1.0744424760E-01    1.0650398536E-01    1.0557147189E-01
    1.0464665197E-01    1.0372947061E-01    1.0281987305E-01    1.0191780476E-01
    1.0102321142E-01    1.0013603898E-01    9.9256233612E-02    9.8383741715E-02
    9.7518509943E-02    9.6660485192E-02    9.5809614600E-02    9.4965845555E-02
    9.4129125690E-02    9.3299402893E-02    9.2476625300E-02    9.1660741305E-02
    9.0851699554E-02    9.0049448950E-02    8.9253938655E-02    8.8465118090E-02
    8.7682936937E-02    8.6907345138E-02    8.6138292899E-02    8.5375730690E-02
    8.4619609244E-02    8.3869879562E-02    8.3126492909E-02    8.2389400820E-02
    8.1658555095E-02    8.0933907805E-02    8.0215411289E-02    7.9503018157E-02
    7.8796681286E-02    7.8096353829E-02    7.7401989206E-02    7.6713541111E-02
    7.6030963507E-02    7.5354210633E-02    7.4683236998E-02    7.4017997383E-02
    7.3358446844E-02    7.2704540706E-02    7.2056234571E-02    7.1413484311E-02
    7.0776246071E-02    7.0144476269E-02    6.9518131596E-02    6.8897169015E-02
    6.8281545760E-02    6.7671219338E-02    6.7066147528E-02    6.6466288379E-02
    6.5871600211E-02    6.5282041617E-02    6.4697571456E-02    6.4118148860E-02
    6.3543733229E-02    6.2974284233E-02    6.2409761807E-02    6.1850126156E-02
    6.1295337753E-02    6.0745357334E-02    6.0200145905E-02    5.9659664733E-02
    5.9123875352E-02    5.8592739558E-02    5.8066219411E-02    5.7544277234E-02
    5.7026875608E-02    5.6513977379E-02    5.6005545648E-02    5.5501543779E-02
    5.5001935392E-02    5.4506684362E-02    5.4015754825E-02    5.3529111168E-02
    5.3046718033E-02    5.2568540318E-02    5.2094543169E-02    5.1624691987E-02
    5.1158952421E-02    5.0697290371E-02    5.0239671984E-02    4.9786063654E-02
    4.9336432021E-02    4.8890743971E-02    4.8448966633E-02    4.8011067380E-02
    4.7577013825E-02    4.7146773822E-02    4.6720315465E-02    4.6297607085E-02
    4.5878617252E-02    4.5463314771E-02    4.5051668681E-02    4.4643648254E-02
    4.4239222998E-02    4.3838362647E-02    4.3441037168E-02    4.3047216758E-02
    4.2656871837E-02    4.2269973056E-02    4.1886491288E-02    4.1506397632E-02
    4.1129663406E-02    4.0756260153E-02    4.0386159635E-02    4.0019333832E-02
    3.9655754941E-02    3.9295395378E-02    3.8938227772E-02    3.8584224965E-02
    3.8233360013E-02    3.7885606182E-02    3.7540936950E-02    3.7199326002E-02
    3.6860747229E-02    3.6525174732E-02    3.6192582813E-02    3.5862945980E-02
    3.5536238941E-02    3.5212436608E-02    3.4891514091E-02    3.4573446697E-02
    3.4258209933E-02    3.3945779500E-02    3.3636131294E-02    3.3329241405E-02
    3.3025086114E-02    3.2723641893E-02    3.2424885405E-02    3.2128793500E-02
    3.1835343213E-02    3.1544511769E-02    3.1256276575E-02    3.0970615221E-02
    3.0687505479E-02    3.0406925302E-02    3.0128852824E-02    2.9853266355E-02
    2.9580144383E-02    2.9309465571E-02    2.9041208757E-02    2.8775352952E-02
    2.8511877341E-02    2.8250761277E-02    2.7991984283E-02    2.7735526053E-02
    2.7481366445E-02    2.7229485484E-02    2.6979863361E-02    2.6732480430E-02
    2.6487317206E-02    2.6244354367E-02    2.6003572750E-02    2.5764953352E-02
    2.5528477325E-02    2.5294125981E-02    2.5061880785E-02    2.4831723358E-02
    2.4603635471E-02    2.4377599050E-02    2.4153596171E-02    2.3931609059E-02
    2.3711620088E-02    2.3493611778E-02    2.3277566798E-02    2.3063467959E-02
    2.2851298220E-02    2.2641040678E-02    2.2432678576E-02    2.2226195295E-02
    2.2021574359E-02    2.1818799426E-02    2.1617854296E-02    2.1418722904E-02
    2.1221389318E-02    2.1025837743E-02    2.0832052518E-02    2.0640018112E-02
    2.0449719126E-02    2.0261140292E-02    2.0074266471E-02    1.9889082652E-02
    1.9705573950E-02    1.9523725609E-02    1.9343522994E-02    1.9164951600E-02
    1.8987997039E-02    1.8812645050E-02    1.8638881490E-02    1.8466692340E-02
    1.8296063696E-02    1.8126981775E-02    1.7959432911E-02    1.7793403556E-02
    1.7628880274E-02    1.7465849746E-02    1.7304298768E-02    1.7144214246E-02
    1.6985583199E-02    1.6828392758E-02    1.6672630163E-02    1.6518282764E-02
    1.6365338018E-02    1.6213783491E-02    1.6063606854E-02    1.5914795887E-02
    1.5767338470E-02    1.5621222590E-02    1.5476436338E-02    1.5332967905E-02
    1.5190805584E-02    1.5049937771E-02    1.4910352959E-02    1.4772039741E-02
    1.4634986808E-02    1.4499182948E-02    1.4364617049E-02    1.4231278089E-02
    1.4099155146E-02    1.3968237389E-02    1.3838514084E-02    1.3709974585E-02
    1.3582608341E-02    1.3456404893E-02    1.3331353870E-02    1.3207444991E-02
    1.3084668066E-02    1.2963012991E-02    1.2842469751E-02    1.2723028416E-02
    1.2604679143E-02    1.2487412176E-02    1.2371217840E-02    1.2256086546E-02
    1.2142008789E-02    1.2028975145E-02    1.1916976273E-02    1.1806002911E-02
    1.1696045880E-02    1.1587096079E-02    1.1479144487E-02    1.1372182161E-02
    1.1266200237E-02    1.1161189926E-02    1.1057142518E-02    1.0954049376E-02
    1.0851901940E-02    1.0750691726E-02    1.0650410320E-02    1.0551049386E-02
    1.0452600656E-02    1.0355055939E-02    1.0258407111E-02    1.0162646121E-02
    1.0067764990E-02    9.9737558056E-03    9.8806107262E-03    9.7883219786E-03
    9.6968818573E-03    9.6062827244E-03    9.5165170088E-03    9.4275772056E-03
    9.3394558758E-03    9.2521456453E-03    9.1656392047E-03    9.0799293088E-03
    8.9950087756E-03    8.9108704865E-03    8.8275073850E-03    8.7449124767E-03
    8.6630788284E-03    8.5819995681E-03    8.5016678838E-03    8.4220770235E-03
    8.3432202946E-03    8.2650910633E-03    8.1876827540E-03    8.1109888491E-03
    8.0350028883E-03    7.9597184681E-03    7.8851292415E-03    7.8112289171E-03
    7.7380112594E-03    7.6654700874E-03    7.5935992748E-03    7.5223927492E-03
    7.4518444919E-03    7.3819485373E-03    7.3126989722E-03    7.2440899359E-03
    7.1761156192E-03    7.1087702643E-03    7.0420481645E-03    6.9759436631E-03
    6.9104511537E-03    6.8455650795E-03    6.7812799326E-03    6.7175902541E-03
    6.6544906332E-03    6.5919757072E-03    6.5300401609E-03    6.4686787258E-03
    6.4078861806E-03    6.3476573500E-03    6.2879871045E-03    6.2288703604E-03
    6.1703020787E-03    6.1122772656E-03    6.0547909711E-03    5.9978382896E-03
    5.9414143587E-03    5.8855143595E-03    5.8301335158E-03    5.7752670938E-03
    5.7209104018E-03    5.6670587899E-03    5.6137076496E-03    5.5608524133E-03
    5.5084885541E-03    5.4566115855E-03    5.4052170607E-03    5.3543005728E-03
    5.3038577542E-03    5.2538842759E-03    5.2043758478E-03    5.1553282179E-03
    5.1067371724E-03    5.0585985347E-03    5.0109081658E-03    4.9636619636E-03
    4.9168558625E-03    4.8704858334E-03    4.8245478831E-03    4.7790380542E-03
    4.7339524245E-03    4.6892871072E-03    4.6450382499E-03    4.6012020349E-03
    4.5577746787E-03    4.5147524315E-03    4.4721315774E-03    4.4299084334E-03
    4.3880793499E-03    4.3466407096E-03    4.3055889281E-03    4.2649204527E-03
    4.2246317630E-03    4.1847193699E-03    4.1451798156E-03    4.1060096736E-03
    4.0672055480E-03    4.0287640735E-03    3.9906819149E-03    3.9529557671E-03
    3.9155823548E-03    3.8785584319E-03    3.8418807817E-03    3.8055462166E-03
    3.7695515772E-03    3.7338937331E-03    3.6985695818E-03    3.6635760488E-03
    3.6289100872E-03    3.5945686778E-03    3.5605488284E-03    3.5268475740E-03
    3.4934619762E-03    3.4603891231E-03    3.4276261292E-03    3.3951701349E-03
    3.3630183067E-03    3.3311678363E-03    3.2996159411E-03    3.2683598635E-03
    3.2373968709E-03    3.2067242553E-03    3.1763393335E-03    3.1462394461E-03
    3.1164219581E-03    3.0868842584E-03    3.0576237593E-03    3.0286378967E-03
    2.9999241297E-03    2.9714799404E-03    2.9433028338E-03    2.9153903373E-03
    2.8877400011E-03    2.8603493974E-03    2.8332161203E-03    2.8063377860E-03
    2.7797120322E-03    2.7533365180E-03    2.7272089240E-03    2.7013269516E-03
    2.6756883232E-03    2.6502907820E-03    2.6251320915E-03    2.6002100358E-03
    2.5755224190E-03    2.5510670652E-03    2.5268418183E-03    2.5028445419E-03
    2.4790731189E-03    2.4555254517E-03    2.4321994616E-03    2.4090930891E-03
    2.3862042931E-03    2.3635310515E-03    2.3410713604E-03    2.3188232343E-03
    2.2967847057E-03    2.2749538251E-03    2.2533286609E-03    2.2319072990E-03
    2.2106878429E-03    2.1896684134E-03    2.1688471482E-03    2.1482222026E-03
    2.1277917481E-03    2.1075539735E-03    2.0875070838E-03    2.0676493005E-03
    2.0479788615E-03    2.0284940207E-03    2.0091930480E-03    1.9900742291E-03
    1.9711358656E-03    1.9523762745E-03    1.9337937882E-03    1.9153867544E-03
    1.8971535362E-03    1.8790925112E-03    1.8612020724E-03    1.8434806272E-03
    1.8259265978E-03    1.8085384208E-03    1.7913145472E-03    1.7742534421E-03
    1.7573535849E-03    1.7406134688E-03    1.7240316010E-03    1.7076065021E-03
    1.6913367068E-03    1.6752207629E-03    1.6592572316E-03    1.6434446874E-03
    1.6277817180E-03    1.6122669239E-03    1.5968989187E-03    1.5816763286E-03
    1.5665977925E-03    1.5516619619E-03    1.5368675006E-03    1.5222130849E-03
    1.5076974030E-03    1.4933191555E-03    1.4790770549E-03    1.4649698254E-03
    1.4509962032E-03    1.4371549360E-03    1.4234447832E-03    1.4098645156E-03
    1.3964129152E-03    1.3830887754E-03    1.3698909008E-03    1.3568181069E-03
    1.3438692202E-03    1.3310430781E-03    1.3183385286E-03    1.3057544306E-03
    1.2932896532E-03    1.2809430764E-03    1.2687135902E-03    1.2566000949E-03
    1.2446015013E-03    1.2327167299E-03    1.2209447113E-03    1.2092843862E-03
    1.1977347050E-03    1.1862946276E-03    1.1749631239E-03    1.1637391731E-03
    1.1526217639E-03    1.1416098945E-03    1.1307025723E-03    1.1198988139E-03
    1.1091976450E-03    1.0985981004E-03    1.0880992239E-03    1.0777000680E-03
    1.0673996942E-03    1.0571971726E-03    1.0470915819E-03    1.0370820095E-03
    1.0271675511E-03    1.0173473110E-03    1.0076204016E-03    9.9798594383E-04
    9.8844306654E-04    9.7899090679E-04    9.6962860968E-04    9.6035532822E-04
    9.5117022333E-04    9.4207246372E-04    9.3306122586E-04    9.2413569386E-04
    9.1529505945E-04    9.0653852186E-04    8.9786528782E-04    8.8927457141E-04
    8.8076559405E-04    8.7233758442E-04    8.6398977838E-04    8.5572141892E-04
    8.4753175608E-04    8.3942004691E-04    8.3138555537E-04    8.2342755230E-04
    8.1554531534E-04    8.0773812887E-04    8.0000528394E-04    7.9234607824E-04
    7.8475981600E-04    7.7724580796E-04    7.6980337127E-04    7.6243182949E-04
    7.5513051249E-04    7.4789875640E-04    7.4073590354E-04    7.3364130241E-04
    7.2661430757E-04    7.1965427962E-04    7.1276058517E-04    7.0593259671E-04
    6.9916969262E-04    6.9247125711E-04    6.8583668014E-04    6.7926535736E-04
    6.7275669011E-04    6.6631008531E-04    6.5992495545E-04    6.5360071852E-04
    6.4733679794E-04    6.4113262257E-04    6.3498762657E-04    6.2890124945E-04
    6.2287293595E-04    6.1690213602E-04    6.1098830475E-04    6.0513090237E-04
    5.9932939415E-04    5.9358325037E-04    5.8789194631E-04    5.8225496213E-04
    5.7667178290E-04    5.7114189850E-04    5.6566480363E-04    5.6023999769E-04
    5.5486698482E-04    5.4954527379E-04    5.4427437798E-04    5.3905381537E-04
    5.3388310843E-04    5.2876178416E-04    5.2368937395E-04    5.1866541365E-04
    5.1368944342E-04    5.0876100779E-04    5.0387965554E-04    4.9904493971E-04
    4.9425641752E-04    4.8951365039E-04    4.8481620383E-04    4.8016364745E-04
    4.7555555493E-04    4.7099150393E-04    4.6647107610E-04    4.6199385703E-04
    4.5755943621E-04    4.5316740699E-04    4.4881736654E-04    4.4450891585E-04
    4.4024165965E-04    4.3601520639E-04    4.3182916822E-04    4.2768316094E-04
    4.2357680397E-04    4.1950972031E-04    4.1548153653E-04    4.1149188270E-04
    4.0754039240E-04    4.0362670264E-04    3.9975045387E-04    3.9591128993E-04
    3.9210885801E-04    3.8834280865E-04    3.8461279565E-04    3.8091847612E-04
    3.7725951037E-04    3.7363556194E-04    3.7004629752E-04    3.6649138699E-04
    3.6297050329E-04    3.5948332250E-04    3.5602952373E-04    3.5260878912E-04
    3.4922080383E-04    3.4586525598E-04    3.4254183664E-04    3.3925023981E-04
    3.3599016236E-04    3.3276130404E-04    3.2956336744E-04    3.2639605795E-04
    3.2325908376E-04    3.2015215579E-04    3.1707498774E-04    3.1402729598E-04
    3.1100879957E-04    3.0801922025E-04    3.0505828235E-04    3.0212571286E-04
    2.9922124130E-04    2.9634459979E-04    2.9349552297E-04    2.9067374800E-04
    2.8787901451E-04    2.8511106461E-04    2.8236964285E-04    2.7965449620E-04
    2.7696537401E-04    2.7430202803E-04    2.7166421235E-04    2.6905168338E-04
    2.6646419985E-04    2.6390152278E-04    2.6136341543E-04    2.5884964333E-04
    2.5635997423E-04    2.5389417807E-04    2.5145202697E-04    2.4903329521E-04
    2.4663775923E-04    2.4426519758E-04    2.4191539088E-04    2.3958812189E-04
    2.3728317537E-04    2.3500033816E-04    2.3273939912E-04    2.3050014909E-04
    2.2828238091E-04    2.2608588940E-04    2.2391047130E-04    2.2175592529E-04
    2.1962205197E-04    2.1750865383E-04    2.1541553522E-04    2.1334250237E-04
    2.1128936333E-04    2.0925592798E-04    2.0724200802E-04    2.0524741691E-04
    2.0327196991E-04    2.0131548401E-04    1.9937777797E-04    1.9745867224E-04
    1.9555798899E-04    1.9367555209E-04    1.9181118707E-04    1.8996472112E-04
    1.8813598307E-04    1.8632480339E-04    1.8453101415E-04    1.8275444902E-04
    1.8099494326E-04    1.7925233368E-04    1.7752645866E-04    1.7581715810E-04
    1.7412427343E-04    1.7244764760E-04    1.7078712504E-04    1.6914255166E-04
    1.6751377484E-04    1.6590064342E-04    1.6430300766E-04    1.6272071927E-04
    1.6115363135E-04    1.5960159840E-04    1.5806447632E-04    1.5654212237E-04
    1.5503439518E-04    1.5354115470E-04    1.5206226225E-04    1.5059758045E-04
    1.4914697322E-04    1.4771030580E-04    1.4628744470E-04    1.4487825769E-04
    1.4348261382E-04    1.4210038339E-04    1.4073143791E-04    1.3937565014E-04
    1.3803289404E-04    1.3670304478E-04    1.3538597870E-04    1.3408157335E-04
    1.3278970742E-04    1.3151026076E-04    1.3024311439E-04    1.2898815043E-04
    1.2774525215E-04    1.2651430392E-04    1.2529519121E-04    1.2408780060E-04
    1.2289201974E-04    1.2170773735E-04    1.2053484320E-04    1.1937322815E-04
    1.1822278406E-04    1.1708340384E-04    1.1595498142E-04    1.1483741175E-04
    1.1373059076E-04    1.1263441541E-04    1.1154878360E-04    1.1047359424E-04
    1.0940874719E-04    1.0835414326E-04    1.0730968421E-04    1.0627527276E-04
    1.0525081253E-04    1.0423620807E-04    1.0323136484E-04    1.0223618921E-04
    1.0125058845E-04    1.0027447068E-04    9.9307744951E-05    9.8350321138E-05
    9.7402109998E-05    9.6463023137E-05    9.5532973004E-05    9.4611872886E-05
    9.3699636898E-05    9.2796179977E-05    9.1901417869E-05    9.1015267131E-05
    9.0137645112E-05    8.9268469955E-05    8.8407660583E-05    8.7555136695E-05
    8.6710818759E-05    8.5874628000E-05    8.5046486399E-05    8.4226316683E-05
    8.3414042315E-05    8.2609587494E-05    8.1812877141E-05    8.1023836896E-05
    8.0242393109E-05    7.9468472838E-05    7.8702003834E-05    7.7942914542E-05
    7.7191134091E-05    7.6446592288E-05    7.5709219612E-05    7.4978947206E-05
    7.4255706872E-05    7.3539431067E-05    7.2830052890E-05    7.2127506085E-05
    7.1431725027E-05    7.0742644719E-05    7.0060200789E-05    6.9384329477E-05
    6.8714967638E-05    6.8052052727E-05    6.7395522801E-05    6.6745316509E-05
    6.6101373086E-05    6.5463632352E-05    6.4832034701E-05    6.4206521097E-05
    6.3587033072E-05    6.2973512716E-05    6.2365902673E-05    6.1764146140E-05
    6.1168186853E-05    6.0577969092E-05    5.9993437666E-05    5.9414537916E-05
    5.8841215706E-05    5.8273417419E-05    5.7711089949E-05    5.7154180702E-05
    5.6602637587E-05    5.6056409013E-05    5.5515443880E-05    5.4979691582E-05
    5.4449101996E-05    5.3923625479E-05    5.3403212864E-05    5.2887815457E-05
    5.2377385029E-05    5.1871873813E-05    5.1371234501E-05    5.0875420238E-05
    5.0384384619E-05    4.9898081684E-05    4.9416465911E-05    4.8939492219E-05
    4.8467115954E-05    4.7999292896E-05    4.7535979244E-05    4.7077131620E-05
    4.6622707061E-05    4.6172663016E-05    4.5726957344E-05    4.5285548305E-05
    4.4848394561E-05    4.4415455171E-05    4.3986689587E-05    4.3562057649E-05
    4.3141519582E-05    4.2725035993E-05    4.2312567869E-05    4.1904076568E-05
    4.1499523821E-05    4.1098871725E-05    4.0702082742E-05    4.0309119694E-05
    3.9919945758E-05    3.9534524467E-05    3.9152819702E-05    3.8774795692E-05
    3.8400417009E-05    3.8029648565E-05    3.7662455608E-05    3.7298803721E-05
    3.6938658816E-05    3.6581987134E-05    3.6228755239E-05    3.5878930015E-05
    3.5532478667E-05    3.5189368713E-05    3.4849567981E-05    3.4513044612E-05
    3.4179767049E-05    3.3849704042E-05    3.3522824638E-05    3.3199098182E-05
    3.2878494313E-05    3.2560982965E-05    3.2246534356E-05    3.1935118993E-05
    3.1626707665E-05    3.1321271443E-05    3.1018781674E-05    3.0719209983E-05
    3.0422528264E-05    3.0128708684E-05    2.9837723676E-05    2.9549545939E-05
    2.9264148433E-05    2.8981504378E-05    2.8701587253E-05    2.8424370790E-05
    2.8149828973E-05    2.7877936039E-05    2.7608666469E-05    2.7341994992E-05
    2.7077896578E-05    2.6816346440E-05    2.6557320025E-05    2.6300793021E-05
    2.6046741346E-05    2.5795141152E-05    2.5545968818E-05    2.5299200952E-05
    2.5054814385E-05    2.4812786173E-05    2.4573093591E-05    2.4335714133E-05
    2.4100625509E-05    2.3867805644E-05    2.3637232674E-05    2.3408884947E-05
    2.3182741019E-05    2.2958779650E-05    2.2736979806E-05    2.2517320657E-05
    2.2299781569E-05    2.2084342110E-05    2.1870982043E-05    2.1659681327E-05
    2.1450420112E-05    2.1243178740E-05    2.1037937742E-05    2.0834677836E-05
    2.0633379925E-05    2.0434025097E-05    2.0236594621E-05    2.0041069946E-05
    1.9847432701E-05    1.9655664690E-05    1.9465747892E-05    1.9277664462E-05
    1.9091396723E-05    1.8906927171E-05    1.8724238469E-05    1.8543313447E-05
    1.8364135101E-05    1.8186686590E-05    1.8010951234E-05    1.7836912516E-05
    1.7664554076E-05    1.7493859712E-05    1.7324813378E-05    1.7157399182E-05
    1.6991601386E-05    1.6827404403E-05    1.6664792795E-05    1.6503751275E-05
    1.6344264700E-05    1.6186318075E-05    1.6029896549E-05    1.5874985414E-05
    1.5721570103E-05    1.5569636189E-05    1.5419169386E-05    1.5270155542E-05
    1.5122580645E-05    1.4976430815E-05
   </PP_CHI.2>
   <PP_CHI.3
       type="real"
       size="1426"
       columns="4"
       index="3"
       occupation=" 3.000"
       pseudo_energy="   -0.3560591396E+00"
       label="5P"
       l="1" >
   -1.1622126872E-13    1.6997825678E-05    6.8001154203E-05    1.5303951570E-04
    2.7216204635E-04    4.2543736760E-04    6.1295341749E-04    8.3481723457E-04
    1.0911546948E-03    1.3821102025E-03    1.7078463353E-03    2.0685434454E-03
    2.4643992164E-03    2.8956281783E-03    3.3624611814E-03    3.8651448296E-03
    4.4039408764E-03    4.9791255828E-03    5.5909890409E-03    6.2398344631E-03
    6.9259774398E-03    7.6497451671E-03    8.4114756457E-03    9.2115168546E-03
    1.0050225899E-02    1.0927968140E-02    1.1845116295E-02    1.2802049534E-02
    1.3799152546E-02    1.4836814601E-02    1.5915428597E-02    1.7035390097E-02
    1.8197096364E-02    1.9400945379E-02    2.0647334871E-02    2.1936661336E-02
    2.3269319063E-02    2.4645699155E-02    2.6066188570E-02    2.7531169152E-02
    2.9041016685E-02    3.0596099955E-02    3.2196779817E-02    3.3843408287E-02
    3.5536327647E-02    3.7275869567E-02    3.9062354244E-02    4.0896089569E-02
    4.2777370309E-02    4.4706477320E-02    4.6683676775E-02    4.8709219430E-02
    5.0783339903E-02    5.2906255996E-02    5.5078168032E-02    5.7299258227E-02
    5.9569690096E-02    6.1889607878E-02    6.4259136005E-02    6.6678378593E-02
    6.9147418964E-02    7.1666319207E-02    7.4235119760E-02    7.6853839034E-02
    7.9522473059E-02    8.2240995163E-02    8.5009355689E-02    8.7827481731E-02
    9.0695276904E-02    9.3612621151E-02    9.6579370561E-02    9.9595357235E-02
    1.0266038916E-01    1.0577425014E-01    1.0893669969E-01    1.1214747303E-01
    1.1540628108E-01    1.1871281041E-01    1.2206672334E-01    1.2546765793E-01
    1.2891522808E-01    1.3240902361E-01    1.3594861037E-01    1.3953353036E-01
    1.4316330186E-01    1.4683741960E-01    1.5055535493E-01    1.5431655596E-01
    1.5812044783E-01    1.6196643282E-01    1.6585389064E-01    1.6978217863E-01
    1.7375063197E-01    1.7775856396E-01    1.8180526625E-01    1.8589000906E-01
    1.9001204153E-01    1.9417059188E-01    1.9836486778E-01    2.0259405654E-01
    2.0685732547E-01    2.1115382210E-01    2.1548267453E-01    2.1984299167E-01
    2.2423386356E-01    2.2865436169E-01    2.3310353928E-01    2.3758043159E-01
    2.4208405624E-01    2.4661341354E-01    2.5116748680E-01    2.5574524265E-01
    2.6034563137E-01    2.6496758726E-01    2.6961002896E-01    2.7427185979E-01
    2.7895196815E-01    2.8364922784E-01    2.8836249846E-01    2.9309062580E-01
    2.9783244222E-01    3.0258676706E-01    3.0735240707E-01    3.1212815680E-01
    3.1691279909E-01    3.2170510549E-01    3.2650383675E-01    3.3130774327E-01
    3.3611556563E-01    3.4092603511E-01    3.4573787417E-01    3.5054979707E-01
    3.5536051037E-01    3.6016871354E-01    3.6497309958E-01    3.6977235559E-01
    3.7456516348E-01    3.7935020055E-01    3.8412614023E-01    3.8889165276E-01
    3.9364540588E-01    3.9838606560E-01    4.0311229694E-01    4.0782276472E-01
    4.1251613434E-01    4.1719107258E-01    4.2184624847E-01    4.2648033411E-01
    4.3109200553E-01    4.3567994359E-01    4.4024283486E-01    4.4477937254E-01
    4.4928825739E-01    4.5376819864E-01    4.5821791498E-01    4.6263613547E-01
    4.6702160054E-01    4.7137306292E-01    4.7568928869E-01    4.7996905820E-01
    4.8421116705E-01    4.8841442713E-01    4.9257766756E-01    4.9669973567E-01
    5.0077949801E-01    5.0481584127E-01    5.0880767330E-01    5.1275392400E-01
    5.1665354630E-01    5.2050551706E-01    5.2430883801E-01    5.2806253657E-01
    5.3176566682E-01    5.3541731023E-01    5.3901657656E-01    5.4256260465E-01
    5.4605456314E-01    5.4949165123E-01    5.5287309941E-01    5.5619817007E-01
    5.5946615818E-01    5.6267639187E-01    5.6582823299E-01    5.6892107760E-01
    5.7195435648E-01    5.7492753554E-01    5.7784011619E-01    5.8069163572E-01
    5.8348166755E-01    5.8620982147E-01    5.8887574388E-01    5.9147911788E-01
    5.9401966339E-01    5.9649713722E-01    5.9891133297E-01    6.0126208109E-01
    6.0354924867E-01    6.0577273932E-01    6.0793249295E-01    6.1002848549E-01
    6.1206072860E-01    6.1402926926E-01    6.1593418938E-01    6.1777560534E-01
    6.1955366744E-01    6.2126855939E-01    6.2292049764E-01    6.2450973077E-01
    6.2603653879E-01    6.2750123239E-01    6.2890415218E-01    6.3024566785E-01
    6.3152617734E-01    6.3274610597E-01    6.3390590548E-01    6.3500605310E-01
    6.3604705060E-01    6.3702942326E-01    6.3795371887E-01    6.3882050663E-01
    6.3963037618E-01    6.4038393645E-01    6.4108181456E-01    6.4172465480E-01
    6.4231311741E-01    6.4284787756E-01    6.4332962417E-01    6.4375905880E-01
    6.4413689456E-01    6.4446385498E-01    6.4474067288E-01    6.4496808933E-01
    6.4514685251E-01    6.4527771668E-01    6.4536144110E-01    6.4539878903E-01
    6.4539052669E-01    6.4533742226E-01    6.4524024498E-01    6.4509976414E-01
    6.4491674821E-01    6.4469196397E-01    6.4442617566E-01    6.4412014415E-01
    6.4377462620E-01    6.4339037369E-01    6.4296813295E-01    6.4250864408E-01
    6.4201264030E-01    6.4148084744E-01    6.4091398332E-01    6.4031275730E-01
    6.3967786980E-01    6.3901001187E-01    6.3830986482E-01    6.3757809992E-01
    6.3681537803E-01    6.3602234940E-01    6.3519965344E-01    6.3434791853E-01
    6.3346776191E-01    6.3255978954E-01    6.3162459606E-01    6.3066276476E-01
    6.2967486756E-01    6.2866146507E-01    6.2762310666E-01    6.2656033053E-01
    6.2547366385E-01    6.2436362292E-01    6.2323071330E-01    6.2207543006E-01
    6.2089825797E-01    6.1969967173E-01    6.1848013622E-01    6.1724010677E-01
    6.1598002943E-01    6.1470034128E-01    6.1340147069E-01    6.1208383763E-01
    6.1074785398E-01    6.0939392383E-01    6.0802244381E-01    6.0663380332E-01
    6.0522838491E-01    6.0380656452E-01    6.0236871178E-01    6.0091519026E-01
    5.9944635777E-01    5.9796256656E-01    5.9646416358E-01    5.9495149066E-01
    5.9342488475E-01    5.9188467808E-01    5.9033119829E-01    5.8876476861E-01
    5.8718570793E-01    5.8559433092E-01    5.8399094806E-01    5.8237586571E-01
    5.8074938611E-01    5.7911180736E-01    5.7746342341E-01    5.7580452401E-01
    5.7413539474E-01    5.7245631705E-01    5.7076756833E-01    5.6906942197E-01
    5.6736214738E-01    5.6564601007E-01    5.6392127170E-01    5.6218819007E-01
    5.6044701925E-01    5.5869800957E-01    5.5694140769E-01    5.5517745665E-01
    5.5340639588E-01    5.5162846131E-01    5.4984388534E-01    5.4805289697E-01
    5.4625572175E-01    5.4445258191E-01    5.4264369633E-01    5.4082928065E-01
    5.3900954727E-01    5.3718470538E-01    5.3535496105E-01    5.3352051724E-01
    5.3168157384E-01    5.2983832772E-01    5.2799097275E-01    5.2613969987E-01
    5.2428469711E-01    5.2242614963E-01    5.2056423976E-01    5.1869914703E-01
    5.1683104823E-01    5.1496011739E-01    5.1308652591E-01    5.1121044250E-01
    5.0933203327E-01    5.0745146175E-01    5.0556888892E-01    5.0368447327E-01
    5.0179837078E-01    4.9991073500E-01    4.9802171708E-01    4.9613146576E-01
    4.9424012745E-01    4.9234784624E-01    4.9045476393E-01    4.8856102007E-01
    4.8666675196E-01    4.8477209473E-01    4.8287718131E-01    4.8098214253E-01
    4.7908710707E-01    4.7719220154E-01    4.7529755050E-01    4.7340327646E-01
    4.7150949995E-01    4.6961633951E-01    4.6772391172E-01    4.6583233125E-01
    4.6394171085E-01    4.6205216143E-01    4.6016379200E-01    4.5827670977E-01
    4.5639102015E-01    4.5450682675E-01    4.5262423142E-01    4.5074333431E-01
    4.4886423380E-01    4.4698702663E-01    4.4511180784E-01    4.4323867083E-01
    4.4136770737E-01    4.3949900762E-01    4.3763266016E-01    4.3576875200E-01
    4.3390736858E-01    4.3204859386E-01    4.3019251023E-01    4.2833919865E-01
    4.2648873856E-01    4.2464120797E-01    4.2279668345E-01    4.2095524015E-01
    4.1911695181E-01    4.1728189080E-01    4.1545012813E-01    4.1362173342E-01
    4.1179677500E-01    4.0997531987E-01    4.0815743370E-01    4.0634318092E-01
    4.0453262466E-01    4.0272582679E-01    4.0092284797E-01    3.9912374759E-01
    3.9732858386E-01    3.9553741379E-01    3.9375029320E-01    3.9196727676E-01
    3.9018841794E-01    3.8841376913E-01    3.8664338154E-01    3.8487730531E-01
    3.8311558943E-01    3.8135828185E-01    3.7960542942E-01    3.7785707793E-01
    3.7611327212E-01    3.7437405570E-01    3.7263947135E-01    3.7090956072E-01
    3.6918436450E-01    3.6746392235E-01    3.6574827297E-01    3.6403745409E-01
    3.6233150250E-01    3.6063045403E-01    3.5893434358E-01    3.5724320513E-01
    3.5555707175E-01    3.5387597562E-01    3.5219994803E-01    3.5052901938E-01
    3.4886321921E-01    3.4720257622E-01    3.4554711823E-01    3.4389687226E-01
    3.4225186448E-01    3.4061212026E-01    3.3897766416E-01    3.3734851994E-01
    3.3572471058E-01    3.3410625828E-01    3.3249318449E-01    3.3088550989E-01
    3.2928325442E-01    3.2768643728E-01    3.2609507694E-01    3.2450919116E-01
    3.2292879699E-01    3.2135391078E-01    3.1978454819E-01    3.1822072419E-01
    3.1666245311E-01    3.1510974858E-01    3.1356262360E-01    3.1202109051E-01
    3.1048516103E-01    3.0895484625E-01    3.0743015663E-01    3.0591110203E-01
    3.0439769171E-01    3.0288993434E-01    3.0138783799E-01    2.9989141017E-01
    2.9840065783E-01    2.9691558734E-01    2.9543620454E-01    2.9396251471E-01
    2.9249452261E-01    2.9103223247E-01    2.8957564799E-01    2.8812477239E-01
    2.8667960835E-01    2.8524015809E-01    2.8380642333E-01    2.8237840530E-01
    2.8095610478E-01    2.7953952208E-01    2.7812865704E-01    2.7672350907E-01
    2.7532407713E-01    2.7393035976E-01    2.7254235505E-01    2.7116006070E-01
    2.6978347399E-01    2.6841259177E-01    2.6704741053E-01    2.6568792635E-01
    2.6433413493E-01    2.6298603160E-01    2.6164361132E-01    2.6030686867E-01
    2.5897579791E-01    2.5765039291E-01    2.5633064723E-01    2.5501655408E-01
    2.5370810635E-01    2.5240529659E-01    2.5110811705E-01    2.4981655967E-01
    2.4853061608E-01    2.4725027760E-01    2.4597553529E-01    2.4470637991E-01
    2.4344280192E-01    2.4218479153E-01    2.4093233868E-01    2.3968543306E-01
    2.3844406407E-01    2.3720822088E-01    2.3597789243E-01    2.3475306739E-01
    2.3353373423E-01    2.3231988116E-01    2.3111149618E-01    2.2990856708E-01
    2.2871108144E-01    2.2751902661E-01    2.2633238976E-01    2.2515115786E-01
    2.2397531767E-01    2.2280485580E-01    2.2163975863E-01    2.2048001240E-01
    2.1932560316E-01    2.1817651681E-01    2.1703273905E-01    2.1589425547E-01
    2.1476105146E-01    2.1363311229E-01    2.1251042307E-01    2.1139296878E-01
    2.1028073425E-01    2.0917370418E-01    2.0807186315E-01    2.0697519561E-01
    2.0588368589E-01    2.0479731820E-01    2.0371607663E-01    2.0263994519E-01
    2.0156890774E-01    2.0050294808E-01    1.9944204988E-01    1.9838619674E-01
    1.9733537216E-01    1.9628955954E-01    1.9524874222E-01    1.9421290344E-01
    1.9318202636E-01    1.9215609409E-01    1.9113508964E-01    1.9011899597E-01
    1.8910779597E-01    1.8810147247E-01    1.8710000824E-01    1.8610338598E-01
    1.8511158837E-01    1.8412459801E-01    1.8314239746E-01    1.8216496923E-01
    1.8119229582E-01    1.8022435964E-01    1.7926114310E-01    1.7830262856E-01
    1.7734879835E-01    1.7639963478E-01    1.7545512012E-01    1.7451523662E-01
    1.7357996651E-01    1.7264929200E-01    1.7172319527E-01    1.7080165849E-01
    1.6988466383E-01    1.6897219344E-01    1.6806422944E-01    1.6716075397E-01
    1.6626174915E-01    1.6536719710E-01    1.6447707994E-01    1.6359137979E-01
    1.6271007875E-01    1.6183315895E-01    1.6096060253E-01    1.6009239160E-01
    1.5922850831E-01    1.5836893481E-01    1.5751365326E-01    1.5666264584E-01
    1.5581589472E-01    1.5497338212E-01    1.5413509026E-01    1.5330100137E-01
    1.5247109772E-01    1.5164536157E-01    1.5082377524E-01    1.5000632105E-01
    1.4919298135E-01    1.4838373852E-01    1.4757857496E-01    1.4677747310E-01
    1.4598041540E-01    1.4518738436E-01    1.4439836249E-01    1.4361333235E-01
    1.4283227653E-01    1.4205517766E-01    1.4128201838E-01    1.4051278140E-01
    1.3974744944E-01    1.3898600528E-01    1.3822843173E-01    1.3747471162E-01
    1.3672482785E-01    1.3597876334E-01    1.3523650107E-01    1.3449802405E-01
    1.3376331533E-01    1.3303235801E-01    1.3230513524E-01    1.3158163021E-01
    1.3086182615E-01    1.3014570634E-01    1.2943325411E-01    1.2872445283E-01
    1.2801928592E-01    1.2731773687E-01    1.2661978917E-01    1.2592542642E-01
    1.2523463221E-01    1.2454739023E-01    1.2386368419E-01    1.2318349786E-01
    1.2250681506E-01    1.2183361966E-01    1.2116389559E-01    1.2049762683E-01
    1.1983479741E-01    1.1917539140E-01    1.1851939294E-01    1.1786678623E-01
    1.1721755550E-01    1.1657168506E-01    1.1592915925E-01    1.1528996247E-01
    1.1465407920E-01    1.1402149394E-01    1.1339219126E-01    1.1276615579E-01
    1.1214337221E-01    1.1152382525E-01    1.1090749971E-01    1.1029438043E-01
    1.0968445231E-01    1.0907770032E-01    1.0847410947E-01    1.0787366483E-01
    1.0727635152E-01    1.0668215473E-01    1.0609105970E-01    1.0550305173E-01
    1.0491811616E-01    1.0433623841E-01    1.0375740394E-01    1.0318159828E-01
    1.0260880699E-01    1.0203901573E-01    1.0147221017E-01    1.0090837606E-01
    1.0034749922E-01    9.9789565492E-02    9.9234560802E-02    9.8682471123E-02
    9.8133282483E-02    9.7586980968E-02    9.7043552721E-02    9.6502983939E-02
    9.5965260878E-02    9.5430369846E-02    9.4898297212E-02    9.4369029395E-02
    9.3842552876E-02    9.3318854187E-02    9.2797919917E-02    9.2279736711E-02
    9.1764291269E-02    9.1251570346E-02    9.0741560754E-02    9.0234249357E-02
    8.9729623077E-02    8.9227668887E-02    8.8728373820E-02    8.8231724959E-02
    8.7737709443E-02    8.7246314466E-02    8.6757527275E-02    8.6271335173E-02
    8.5787725515E-02    8.5306685709E-02    8.4828203220E-02    8.4352265563E-02
    8.3878860308E-02    8.3407975078E-02    8.2939597550E-02    8.2473715452E-02
    8.2010316565E-02    8.1549388724E-02    8.1090919815E-02    8.0634897776E-02
    8.0181310600E-02    7.9730146328E-02    7.9281393054E-02    7.8835038926E-02
    7.8391072140E-02    7.7949480944E-02    7.7510253639E-02    7.7073378576E-02
    7.6638844154E-02    7.6206638828E-02    7.5776751098E-02    7.5349169517E-02
    7.4923882688E-02    7.4500879263E-02    7.4080147944E-02    7.3661677483E-02
    7.3245456681E-02    7.2831474387E-02    7.2419719501E-02    7.2010180970E-02
    7.1602847791E-02    7.1197709010E-02    7.0794753718E-02    7.0393971057E-02
    6.9995350217E-02    6.9598880434E-02    6.9204550993E-02    6.8812351226E-02
    6.8422270511E-02    6.8034298274E-02    6.7648423990E-02    6.7264637176E-02
    6.6882927399E-02    6.6503284272E-02    6.6125697453E-02    6.5750156647E-02
    6.5376651602E-02    6.5005172117E-02    6.4635708031E-02    6.4268249231E-02
    6.3902785649E-02    6.3539307262E-02    6.3177804090E-02    6.2818266199E-02
    6.2460683700E-02    6.2105046747E-02    6.1751345538E-02    6.1399570316E-02
    6.1049711367E-02    6.0701759019E-02    6.0355703646E-02    6.0011535665E-02
    5.9669245533E-02    5.9328823753E-02    5.8990260870E-02    5.8653547470E-02
    5.8318674183E-02    5.7985631681E-02    5.7654410676E-02    5.7325001926E-02
    5.6997396226E-02    5.6671584415E-02    5.6347557374E-02    5.6025306023E-02
    5.5704821324E-02    5.5386094282E-02    5.5069115939E-02    5.4753877379E-02
    5.4440369728E-02    5.4128584151E-02    5.3818511852E-02    5.3510144075E-02
    5.3203472107E-02    5.2898487271E-02    5.2595180930E-02    5.2293544488E-02
    5.1993569386E-02    5.1695247106E-02    5.1398569167E-02    5.1103527129E-02
    5.0810112587E-02    5.0518317178E-02    5.0228132574E-02    4.9939550488E-02
    4.9652562669E-02    4.9367160905E-02    4.9083337020E-02    4.8801082876E-02
    4.8520390374E-02    4.8241251450E-02    4.7963658079E-02    4.7687602270E-02
    4.7413076072E-02    4.7140071568E-02    4.6868580879E-02    4.6598596162E-02
    4.6330109610E-02    4.6063113453E-02    4.5797599953E-02    4.5533561414E-02
    4.5270990170E-02    4.5009878593E-02    4.4750219091E-02    4.4492004105E-02
    4.4235226114E-02    4.3979877628E-02    4.3725951195E-02    4.3473439396E-02
    4.3222334848E-02    4.2972630201E-02    4.2724318138E-02    4.2477391381E-02
    4.2231842679E-02    4.1987664821E-02    4.1744850627E-02    4.1503392950E-02
    4.1263284677E-02    4.1024518729E-02    4.0787088059E-02    4.0550985655E-02
    4.0316204535E-02    4.0082737753E-02    3.9850578392E-02    3.9619719572E-02
    3.9390154441E-02    3.9161876181E-02    3.8934878008E-02    3.8709153168E-02
    3.8484694938E-02    3.8261496630E-02    3.8039551584E-02    3.7818853173E-02
    3.7599394803E-02    3.7381169909E-02    3.7164171958E-02    3.6948394448E-02
    3.6733830909E-02    3.6520474899E-02    3.6308320009E-02    3.6097359861E-02
    3.5887588104E-02    3.5678998422E-02    3.5471584525E-02    3.5265340156E-02
    3.5060259087E-02    3.4856335118E-02    3.4653562082E-02    3.4451933839E-02
    3.4251444279E-02    3.4052087323E-02    3.3853856919E-02    3.3656747045E-02
    3.3460751709E-02    3.3265864946E-02    3.3072080821E-02    3.2879393427E-02
    3.2687796887E-02    3.2497285351E-02    3.2307852997E-02    3.2119494032E-02
    3.1932202692E-02    3.1745973239E-02    3.1560799964E-02    3.1376677186E-02
    3.1193599251E-02    3.1011560532E-02    3.0830555431E-02    3.0650578376E-02
    3.0471623824E-02    3.0293686256E-02    3.0116760182E-02    2.9940840139E-02
    2.9765920691E-02    2.9591996428E-02    2.9419061965E-02    2.9247111947E-02
    2.9076141042E-02    2.8906143946E-02    2.8737115381E-02    2.8569050094E-02
    2.8401942859E-02    2.8235788476E-02    2.8070581769E-02    2.7906317589E-02
    2.7742990813E-02    2.7580596342E-02    2.7419129102E-02    2.7258584046E-02
    2.7098956150E-02    2.6940240418E-02    2.6782431875E-02    2.6625525573E-02
    2.6469516589E-02    2.6314400023E-02    2.6160171000E-02    2.6006824671E-02
    2.5854356209E-02    2.5702760812E-02    2.5552033702E-02    2.5402170125E-02
    2.5253165351E-02    2.5105014674E-02    2.4957713410E-02    2.4811256901E-02
    2.4665640510E-02    2.4520859626E-02    2.4376909659E-02    2.4233786043E-02
    2.4091484234E-02    2.3949999714E-02    2.3809327984E-02    2.3669464570E-02
    2.3530405021E-02    2.3392144907E-02    2.3254679822E-02    2.3118005381E-02
    2.2982117221E-02    2.2847011004E-02    2.2712682411E-02    2.2579127146E-02
    2.2446340936E-02    2.2314319528E-02    2.2183058692E-02    2.2052554218E-02
    2.1922801921E-02    2.1793797633E-02    2.1665537210E-02    2.1538016529E-02
    2.1411231488E-02    2.1285178005E-02    2.1159852021E-02    2.1035249495E-02
    2.0911366411E-02    2.0788198769E-02    2.0665742593E-02    2.0543993925E-02
    2.0422948830E-02    2.0302603392E-02    2.0182953715E-02    2.0063995922E-02
    1.9945726160E-02    1.9828140592E-02    1.9711235402E-02    1.9595006795E-02
    1.9479450995E-02    1.9364564244E-02    1.9250342806E-02    1.9136782964E-02
    1.9023881019E-02    1.8911633291E-02    1.8800036122E-02    1.8689085871E-02
    1.8578778916E-02    1.8469111653E-02    1.8360080500E-02    1.8251681891E-02
    1.8143912280E-02    1.8036768138E-02    1.7930245956E-02    1.7824342244E-02
    1.7719053528E-02    1.7614376354E-02    1.7510307285E-02    1.7406842905E-02
    1.7303979812E-02    1.7201714624E-02    1.7100043976E-02    1.6998964523E-02
    1.6898472934E-02    1.6798565899E-02    1.6699240123E-02    1.6600492331E-02
    1.6502319262E-02    1.6404717676E-02    1.6307684346E-02    1.6211216066E-02
    1.6115309645E-02    1.6019961910E-02    1.5925169703E-02    1.5830929884E-02
    1.5737239331E-02    1.5644094937E-02    1.5551493611E-02    1.5459432280E-02
    1.5367907886E-02    1.5276917390E-02    1.5186457765E-02    1.5096526004E-02
    1.5007119114E-02    1.4918234119E-02    1.4829868058E-02    1.4742017986E-02
    1.4654680976E-02    1.4567854113E-02    1.4481534501E-02    1.4395719256E-02
    1.4310405514E-02    1.4225590423E-02    1.4141271147E-02    1.4057444865E-02
    1.3974108774E-02    1.3891260082E-02    1.3808896014E-02    1.3727013811E-02
    1.3645610728E-02    1.3564684033E-02    1.3484231011E-02    1.3404248962E-02
    1.3324735200E-02    1.3245687052E-02    1.3167101861E-02    1.3088976985E-02
    1.3011309794E-02    1.2934097675E-02    1.2857338028E-02    1.2781028267E-02
    1.2705165820E-02    1.2629748128E-02    1.2554772649E-02    1.2480236852E-02
    1.2406138220E-02    1.2332474251E-02    1.2259242457E-02    1.2186440361E-02
    1.2114065502E-02    1.2042115431E-02    1.1970587714E-02    1.1899479929E-02
    1.1828789667E-02    1.1758514533E-02    1.1688652144E-02    1.1619200133E-02
    1.1550156142E-02    1.1481517828E-02    1.1413282861E-02    1.1345448924E-02
    1.1278013712E-02    1.1210974932E-02    1.1144330305E-02    1.1078077564E-02
    1.1012214454E-02    1.0946738734E-02    1.0881648173E-02    1.0816940555E-02
    1.0752613673E-02    1.0688665335E-02    1.0625093360E-02    1.0561895579E-02
    1.0499069834E-02    1.0436613982E-02    1.0374525888E-02    1.0312803432E-02
    1.0251444504E-02    1.0190447005E-02    1.0129808850E-02    1.0069527964E-02
    1.0009602283E-02    9.9500297562E-03    9.8908083427E-03    9.8319360135E-03
    9.7734107508E-03    9.7152305481E-03    9.6573934098E-03    9.5998973517E-03
    9.5427404004E-03    9.4859205938E-03    9.4294359803E-03    9.3732846195E-03
    9.3174645818E-03    9.2619739481E-03    9.2068108104E-03    9.1519732710E-03
    9.0974594430E-03    9.0432674499E-03    8.9893954258E-03    8.9358415152E-03
    8.8826038730E-03    8.8296806643E-03    8.7770700647E-03    8.7247702599E-03
    8.6727794455E-03    8.6210958278E-03    8.5697176225E-03    8.5186430559E-03
    8.4678703638E-03    8.4173977921E-03    8.3672235966E-03    8.3173460428E-03
    8.2677634059E-03    8.2184739710E-03    8.1694760327E-03    8.1207678951E-03
    8.0723478720E-03    8.0242142868E-03    7.9763654720E-03    7.9287997698E-03
    7.8815155315E-03    7.8345111180E-03    7.7877848992E-03    7.7413352543E-03
    7.6951605716E-03    7.6492592485E-03    7.6036296915E-03    7.5582703161E-03
    7.5131795467E-03    7.4683558167E-03    7.4237975683E-03    7.3795032525E-03
    7.3354713291E-03    7.2917002666E-03    7.2481885423E-03    7.2049346419E-03
    7.1619370598E-03    7.1191942990E-03    7.0767048709E-03    7.0344672955E-03
    6.9924801009E-03    6.9507418238E-03    6.9092510091E-03    6.8680062102E-03
    6.8270059883E-03    6.7862489132E-03    6.7457335626E-03    6.7054585223E-03
    6.6654223862E-03    6.6256237562E-03    6.5860612422E-03    6.5467334619E-03
    6.5076390410E-03    6.4687766130E-03    6.4301448192E-03    6.3917423085E-03
    6.3535677377E-03    6.3156197712E-03    6.2778970811E-03    6.2403983469E-03
    6.2031222557E-03    6.1660675023E-03    6.1292327887E-03    6.0926168244E-03
    6.0562183264E-03    6.0200360189E-03    5.9840686335E-03    5.9483149089E-03
    5.9127735912E-03    5.8774434336E-03    5.8423231964E-03    5.8074116471E-03
    5.7727075603E-03    5.7382097173E-03    5.7039169069E-03    5.6698279244E-03
    5.6359415722E-03    5.6022566597E-03    5.5687720028E-03    5.5354864246E-03
    5.5023987547E-03    5.4695078294E-03    5.4368124918E-03    5.4043115917E-03
    5.3720039853E-03    5.3398885357E-03    5.3079641122E-03    5.2762295909E-03
    5.2446838540E-03    5.2133257906E-03    5.1821542959E-03    5.1511682715E-03
    5.1203666254E-03    5.0897482718E-03    5.0593121312E-03    5.0290571304E-03
    4.9989822023E-03    4.9690862860E-03    4.9393683266E-03    4.9098272755E-03
    4.8804620901E-03    4.8512717336E-03    4.8222551755E-03    4.7934113910E-03
    4.7647393614E-03    4.7362380738E-03    4.7079065211E-03    4.6797437023E-03
    4.6517486218E-03    4.6239202900E-03    4.5962577229E-03    4.5687599425E-03
    4.5414259760E-03    4.5142548565E-03    4.4872456228E-03    4.4603973190E-03
    4.4337089949E-03    4.4071797058E-03    4.3808085125E-03    4.3545944811E-03
    4.3285366833E-03    4.3026341961E-03    4.2768861018E-03    4.2512914881E-03
    4.2258494480E-03    4.2005590797E-03    4.1754194867E-03    4.1504297777E-03
    4.1255890666E-03    4.1008964724E-03    4.0763511192E-03    4.0519521362E-03
    4.0276986577E-03    4.0035898231E-03    3.9796247766E-03    3.9558026676E-03
    3.9321226504E-03    3.9085838840E-03    3.8851855326E-03    3.8619267651E-03
    3.8388067554E-03    3.8158246818E-03    3.7929797280E-03    3.7702710819E-03
    3.7476979365E-03    3.7252594893E-03    3.7029549425E-03    3.6807835031E-03
    3.6587443826E-03    3.6368367970E-03    3.6150599672E-03    3.5934131182E-03
    3.5718954800E-03    3.5505062868E-03    3.5292447772E-03    3.5081101944E-03
    3.4871017861E-03    3.4662188043E-03    3.4454605052E-03    3.4248261497E-03
    3.4043150027E-03    3.3839263335E-03    3.3636594158E-03    3.3435135273E-03
    3.3234879502E-03    3.3035819707E-03    3.2837948792E-03    3.2641259704E-03
    3.2445745429E-03    3.2251398996E-03    3.2058213474E-03    3.1866181973E-03
    3.1675297641E-03    3.1485553670E-03    3.1296943290E-03    3.1109459770E-03
    3.0923096419E-03    3.0737846585E-03    3.0553703657E-03    3.0370661059E-03
    3.0188712256E-03    3.0007850752E-03    2.9828070087E-03    2.9649363840E-03
    2.9471725629E-03    2.9295149106E-03    2.9119627963E-03    2.8945155929E-03
    2.8771726768E-03    2.8599334283E-03    2.8427972311E-03    2.8257634727E-03
    2.8088315441E-03    2.7920008400E-03    2.7752707584E-03    2.7586407011E-03
    2.7421100732E-03    2.7256782836E-03    2.7093447444E-03    2.6931088712E-03
    2.6769700832E-03    2.6609278027E-03    2.6449814558E-03    2.6291304717E-03
    2.6133742830E-03    2.5977123256E-03    2.5821440390E-03    2.5666688656E-03
    2.5512862513E-03    2.5359956453E-03    2.5207964999E-03    2.5056882708E-03
    2.4906704167E-03    2.4757423996E-03    2.4609036847E-03    2.4461537403E-03
    2.4314920379E-03    2.4169180520E-03    2.4024312603E-03    2.3880311436E-03
    2.3737171855E-03    2.3594888730E-03    2.3453456959E-03    2.3312871472E-03
    2.3173127226E-03    2.3034219211E-03    2.2896142444E-03    2.2758891972E-03
    2.2622462873E-03    2.2486850252E-03    2.2352049243E-03    2.2218055010E-03
    2.2084862745E-03    2.1952467667E-03    2.1820865027E-03    2.1690050099E-03
    2.1560018188E-03    2.1430764627E-03    2.1302284775E-03    2.1174574019E-03
    2.1047627775E-03    2.0921441483E-03    2.0796010611E-03    2.0671330656E-03
    2.0547397138E-03    2.0424205607E-03    2.0301751637E-03    2.0180030828E-03
    2.0059038809E-03    1.9938771230E-03    1.9819223772E-03    1.9700392137E-03
    1.9582272056E-03    1.9464859283E-03    1.9348149597E-03    1.9232138805E-03
    1.9116822734E-03    1.9002197240E-03    1.8888258202E-03    1.8775001522E-03
    1.8662423129E-03    1.8550518973E-03    1.8439285031E-03    1.8328717302E-03
    1.8218811809E-03    1.8109564599E-03    1.8000971741E-03    1.7893029331E-03
    1.7785733483E-03    1.7679080337E-03    1.7573066057E-03    1.7467686827E-03
    1.7362938855E-03    1.7258818371E-03    1.7155321628E-03    1.7052444901E-03
    1.6950184487E-03    1.6848536705E-03    1.6747497896E-03    1.6647064421E-03
    1.6547232666E-03    1.6447999035E-03    1.6349359955E-03    1.6251311875E-03
    1.6153851263E-03    1.6056974611E-03    1.5960678427E-03    1.5864959245E-03
    1.5769813616E-03    1.5675238113E-03    1.5581229329E-03    1.5487783877E-03
    1.5394898391E-03    1.5302569524E-03    1.5210793949E-03    1.5119568360E-03
    1.5028889468E-03    1.4938754006E-03    1.4849158725E-03    1.4760100397E-03
    1.4671575811E-03    1.4583581777E-03    1.4496115123E-03    1.4409172696E-03
    1.4322751360E-03    1.4236848002E-03    1.4151459522E-03    1.4066582844E-03
    1.3982214906E-03    1.3898352666E-03    1.3814993100E-03    1.3732133201E-03
    1.3649769982E-03    1.3567900472E-03    1.3486521719E-03    1.3405630785E-03
    1.3325224755E-03    1.3245300728E-03    1.3165855820E-03    1.3086887165E-03
    1.3008391914E-03    1.2930367235E-03    1.2852810314E-03    1.2775718351E-03
    1.2699088565E-03    1.2622918190E-03    1.2547204479E-03    1.2471944698E-03
    1.2397136131E-03    1.2322776078E-03    1.2248861856E-03    1.2175390797E-03
    1.2102360248E-03    1.2029767574E-03    1.1957610153E-03    1.1885885382E-03
    1.1814590670E-03    1.1743723444E-03    1.1673281144E-03    1.1603261229E-03
    1.1533661168E-03    1.1464478450E-03    1.1395710576E-03    1.1327355063E-03
    1.1259409442E-03    1.1191871259E-03
   </PP_CHI.3>
 </PP_PSWFC>
 <PP_RHOATOM type="real"  size="1426" columns="4">
    0.0000000000E+00    4.4006284919E-06    1.7655111290E-05    3.9937763630E-05
    7.1594023703E-05    1.1322224651E-04    1.6578706923E-04    2.3076321324E-04
    3.1030827893E-04    4.0746279277E-04    5.2637548251E-04    6.7255148960E-04
    8.5312097917E-04    1.0771253795E-03    1.3558182770E-03    1.7029778096E-03
    2.1352272461E-03    2.6723603055E-03    3.3376676718E-03    4.1582610805E-03
    5.1653913127E-03    6.3947564133E-03    7.8867964660E-03    9.6869713012E-03
    1.1846017586E-02    1.4420181846E-02    1.7471426107E-02    2.1067602987E-02
    2.5282597266E-02    3.0196431174E-02    3.5895330844E-02    4.2471751665E-02
    5.0024360517E-02    5.8657973176E-02    6.8483445469E-02    7.9617517104E-02
    9.2182607411E-02    1.0630656257E-01    1.2212235426E-01    1.3976773001E-01
    1.5938481593E-01    1.8111967267E-01    2.0512180611E-01    2.3154363432E-01
    2.6053991291E-01    2.9226712097E-01    3.2688281028E-01    3.6454492085E-01
    4.0541106575E-01    4.4963778888E-01    4.9737979931E-01    5.4878918610E-01
    6.0401461768E-01    6.6320053011E-01    7.2648630854E-01    7.9400546637E-01
    8.6588482685E-01    9.4224371151E-01    1.0231931403E+00    1.1088350478E+00
    1.1992615209E+00    1.2945540609E+00    1.3947828764E+00    1.5000062101E+00
    1.6102697039E+00    1.7256058064E+00    1.8460332266E+00    1.9715564377E+00
    2.1021652337E+00    2.2378343418E+00    2.3785230948E+00    2.5241751636E+00
    2.6747183542E+00    2.8300644698E+00    2.9901092394E+00    3.1547323147E+00
    3.3237973353E+00    3.4971520636E+00    3.6746285875E+00    3.8560435932E+00
    4.0411987051E+00    4.2298808927E+00    4.4218629427E+00    4.6169039955E+00
    4.8147501419E+00    5.0151350800E+00    5.2177808277E+00    5.4223984883E+00
    5.6286890660E+00    5.8363443281E+00    6.0450477090E+00    6.2544752524E+00
    6.4642965885E+00    6.6741759399E+00    6.8837731532E+00    7.0927447514E+00
    7.3007450011E+00    7.5074269919E+00    7.7124437211E+00    7.9154491801E+00
    8.1160994371E+00    8.3140537119E+00    8.5089754377E+00    8.7005333046E+00
    8.8884022824E+00    9.0722646161E+00    9.2518107909E+00    9.4267404637E+00
    9.5967633550E+00    9.7616001003E+00    9.9209830555E+00    1.0074657054E+01
    1.0222380116E+01    1.0363924098E+01    1.0499075294E+01    1.0627634974E+01
    1.0749419867E+01    1.0864262579E+01    1.0972011957E+01    1.1072533383E+01
    1.1165709010E+01    1.1251437938E+01    1.1329636320E+01    1.1400237413E+01
    1.1463191568E+01    1.1518466155E+01    1.1566045437E+01    1.1605930378E+01
    1.1638138405E+01    1.1662703113E+01    1.1679673917E+01    1.1689115661E+01
    1.1691108175E+01    1.1685745796E+01    1.1673136844E+01    1.1653403062E+01
    1.1626679023E+01    1.1593111508E+01    1.1552858850E+01    1.1506090260E+01
    1.1452985134E+01    1.1393732333E+01    1.1328529456E+01    1.1257582102E+01
    1.1181103121E+01    1.1099311863E+01    1.1012433420E+01    1.0920697880E+01
    1.0824339573E+01    1.0723596334E+01    1.0618708769E+01    1.0509919536E+01
    1.0397472643E+01    1.0281612758E+01    1.0162584541E+01    1.0040631998E+01
    9.9159978543E+00    9.7889229536E+00    9.6596456853E+00    9.5284014358E+00
    9.3954220685E+00    9.2609354342E+00    9.1251649102E+00    8.9883289704E+00
    8.8506407869E+00    8.7123078616E+00    8.5735316913E+00    8.4345074622E+00
    8.2954237774E+00    8.1564624151E+00    8.0177981176E+00    7.8795984108E+00
    7.7420234534E+00    7.6052259153E+00    7.4693508846E+00    7.3345358015E+00
    7.2009104197E+00    7.0685967922E+00    6.9377092829E+00    6.8083546005E+00
    6.6806318550E+00    6.5546326359E+00    6.4304411089E+00    6.3081341323E+00
    6.1877813902E+00    6.0694455414E+00    5.9531823837E+00    5.8390410312E+00
    5.7270641035E+00    5.6172879265E+00    5.5097427422E+00    5.4044529273E+00
    5.3014372188E+00    5.2007089460E+00    5.1022762667E+00    5.0061424086E+00
    4.9123059118E+00    4.8207608748E+00    4.7314971999E+00    4.6445008394E+00
    4.5597540409E+00    4.4772355902E+00    4.3969210521E+00    4.3187830083E+00
    4.2427912909E+00    4.1689132114E+00    4.0971137852E+00    4.0273559501E+00
    3.9596007786E+00    3.8938076847E+00    3.8299346230E+00    3.7679382810E+00
    3.7077742644E+00    3.6493972744E+00    3.5927612775E+00    3.5378196674E+00
    3.4845254190E+00    3.4328312342E+00    3.3826896798E+00    3.3340533171E+00
    3.2868748240E+00    3.2411071087E+00    3.1967034157E+00    3.1536174239E+00
    3.1118033375E+00    3.0712159692E+00    3.0318108162E+00    2.9935441286E+00
    2.9563729725E+00    2.9202552842E+00    2.8851499203E+00    2.8510166997E+00
    2.8178164411E+00    2.7855109941E+00    2.7540632650E+00    2.7234372376E+00
    2.6935979890E+00    2.6645117012E+00    2.6361456674E+00    2.6084682951E+00
    2.5814491053E+00    2.5550587275E+00    2.5292688923E+00    2.5040524202E+00
    2.4793832080E+00    2.4552362126E+00    2.4315874319E+00    2.4084138847E+00
    2.3856935874E+00    2.3634055300E+00    2.3415296504E+00    2.3200468076E+00
    2.2989387548E+00    2.2781881117E+00    2.2577783375E+00    2.2376937021E+00
    2.2179192585E+00    2.1984408146E+00    2.1792449053E+00    2.1603187644E+00
    2.1416502978E+00    2.1232280562E+00    2.1050412084E+00    2.0870795152E+00
    2.0693333044E+00    2.0517934451E+00    2.0344513241E+00    2.0172988220E+00
    2.0003282904E+00    1.9835325296E+00    1.9669047671E+00    1.9504386371E+00
    1.9341281603E+00    1.9179677246E+00    1.9019520667E+00    1.8860762542E+00
    1.8703356685E+00    1.8547259884E+00    1.8392431744E+00    1.8238834536E+00
    1.8086433054E+00    1.7935194475E+00    1.7785088232E+00    1.7636085885E+00
    1.7488160998E+00    1.7341289033E+00    1.7195447233E+00    1.7050614521E+00
    1.6906771400E+00    1.6763899857E+00    1.6621983276E+00    1.6481006345E+00
    1.6340954981E+00    1.6201816244E+00    1.6063578268E+00    1.5926230184E+00
    1.5789762054E+00    1.5654164803E+00    1.5519430156E+00    1.5385550582E+00
    1.5252519229E+00    1.5120329871E+00    1.4988976858E+00    1.4858455061E+00
    1.4728759829E+00    1.4599886947E+00    1.4471832594E+00    1.4344593313E+00
    1.4218165969E+00    1.4092547721E+00    1.3967735990E+00    1.3843728431E+00
    1.3720522907E+00    1.3598117465E+00    1.3476510313E+00    1.3355699795E+00
    1.3235684377E+00    1.3116462627E+00    1.2998033194E+00    1.2880394799E+00
    1.2763546215E+00    1.2647486257E+00    1.2532213770E+00    1.2417727614E+00
    1.2304026661E+00    1.2191109777E+00    1.2078975821E+00    1.1967623633E+00
    1.1857052030E+00    1.1747259798E+00    1.1638245687E+00    1.1530008405E+00
    1.1422546618E+00    1.1315858940E+00    1.1209943934E+00    1.1104800108E+00
    1.1000425913E+00    1.0896819741E+00    1.0793979921E+00    1.0691904721E+00
    1.0590592347E+00    1.0490040938E+00    1.0390248571E+00    1.0291213257E+00
    1.0192932941E+00    1.0095405507E+00    9.9986287706E-01    9.9026004865E-01
    9.8073183451E-01    9.7127799748E-01    9.6189829426E-01    9.5259247551E-01
    9.4336028596E-01    9.3420146452E-01    9.2511574446E-01    9.1610285345E-01
    9.0716251378E-01    8.9829444247E-01    8.8949835141E-01    8.8077394750E-01
    8.7212093287E-01    8.6353900493E-01    8.5502785659E-01    8.4658717638E-01
    8.3821664860E-01    8.2991595344E-01    8.2168476713E-01    8.1352276212E-01
    8.0542960713E-01    7.9740496737E-01    7.8944850460E-01    7.8155987733E-01
    7.7373874088E-01    7.6598474756E-01    7.5829754674E-01    7.5067678504E-01
    7.4312210638E-01    7.3563315216E-01    7.2820956131E-01    7.2085097046E-01
    7.1355701404E-01    7.0632732437E-01    6.9916153178E-01    6.9205926470E-01
    6.8502014982E-01    6.7804381210E-01    6.7112987497E-01    6.6427796034E-01
    6.5748768875E-01    6.5075867947E-01    6.4409055055E-01    6.3748291893E-01
    6.3093540055E-01    6.2444761041E-01    6.1801916268E-01    6.1164967074E-01
    6.0533874734E-01    5.9908600457E-01    5.9289105406E-01    5.8675350696E-01
    5.8067297407E-01    5.7464906588E-01    5.6868139267E-01    5.6276956459E-01
    5.5691319167E-01    5.5111188394E-01    5.4536525150E-01    5.3967290455E-01
    5.3403445346E-01    5.2844950887E-01    5.2291768170E-01    5.1743858323E-01
    5.1201182516E-01    5.0663701968E-01    5.0131377949E-01    4.9604171787E-01
    4.9082044875E-01    4.8564958674E-01    4.8052874718E-01    4.7545754619E-01
    4.7043560073E-01    4.6546252863E-01    4.6053794866E-01    4.5566148052E-01
    4.5083274496E-01    4.4605136374E-01    4.4131695974E-01    4.3662915695E-01
    4.3198758054E-01    4.2739185688E-01    4.2284161359E-01    4.1833647955E-01
    4.1387608495E-01    4.0946006136E-01    4.0508804168E-01    4.0075966025E-01
    3.9647455283E-01    3.9223235665E-01    3.8803271045E-01    3.8387525449E-01
    3.7975963056E-01    3.7568548207E-01    3.7165245398E-01    3.6766019292E-01
    3.6370834715E-01    3.5979656660E-01    3.5592450293E-01    3.5209180947E-01
    3.4829814133E-01    3.4454315533E-01    3.4082651010E-01    3.3714786604E-01
    3.3350688537E-01    3.2990323217E-01    3.2633657231E-01    3.2280657356E-01
    3.1931290556E-01    3.1585523981E-01    3.1243324976E-01    3.0904661073E-01
    3.0569499999E-01    3.0237809675E-01    2.9909558215E-01    2.9584713933E-01
    2.9263245335E-01    2.8945121130E-01    2.8630310221E-01    2.8318781714E-01
    2.8010504914E-01    2.7705449327E-01    2.7403584662E-01    2.7104880829E-01
    2.6809307941E-01    2.6516836314E-01    2.6227436470E-01    2.5941079132E-01
    2.5657735230E-01    2.5377375899E-01    2.5099972476E-01    2.4825496506E-01
    2.4553919741E-01    2.4285214134E-01    2.4019351848E-01    2.3756305250E-01
    2.3496046913E-01    2.3238549615E-01    2.2983786341E-01    2.2731730280E-01
    2.2482354829E-01    2.2235633587E-01    2.1991540360E-01    2.1750049158E-01
    2.1511134197E-01    2.1274769894E-01    2.1040930873E-01    2.0809591960E-01
    2.0580728183E-01    2.0354314775E-01    2.0130327168E-01    1.9908740999E-01
    1.9689532103E-01    1.9472676517E-01    1.9258150477E-01    1.9045930420E-01
    1.8835992979E-01    1.8628314987E-01    1.8422873474E-01    1.8219645666E-01
    1.8018608985E-01    1.7819741048E-01    1.7623019667E-01    1.7428422846E-01
    1.7235928784E-01    1.7045515869E-01    1.6857162683E-01    1.6670847996E-01
    1.6486550769E-01    1.6304250149E-01    1.6123925472E-01    1.5945556262E-01
    1.5769122225E-01    1.5594603255E-01    1.5421979428E-01    1.5251231003E-01
    1.5082338419E-01    1.4915282299E-01    1.4750043443E-01    1.4586602830E-01
    1.4424941618E-01    1.4265041139E-01    1.4106882902E-01    1.3950448591E-01
    1.3795720062E-01    1.3642679343E-01    1.3491308634E-01    1.3341590304E-01
    1.3193506891E-01    1.3047041103E-01    1.2902175810E-01    1.2758894052E-01
    1.2617179031E-01    1.2477014112E-01    1.2338382823E-01    1.2201268853E-01
    1.2065656049E-01    1.1931528419E-01    1.1798870127E-01    1.1667665493E-01
    1.1537898994E-01    1.1409555258E-01    1.1282619068E-01    1.1157075357E-01
    1.1032909211E-01    1.0910105863E-01    1.0788650694E-01    1.0668529233E-01
    1.0549727154E-01    1.0432230277E-01    1.0316024564E-01    1.0201096119E-01
    1.0087431188E-01    9.9750161571E-02    9.8638375500E-02    9.7538820289E-02
    9.6451363923E-02    9.5375875738E-02    9.4312226414E-02    9.3260287958E-02
    9.2219933697E-02    9.1191038265E-02    9.0173477590E-02    8.9167128887E-02
    8.8171870641E-02    8.7187582600E-02    8.6214145763E-02    8.5251442367E-02
    8.4299355877E-02    8.3357770977E-02    8.2426573553E-02    8.1505650690E-02
    8.0594890655E-02    7.9694182887E-02    7.8803417990E-02    7.7922487715E-02
    7.7051284959E-02    7.6189703745E-02    7.5337639217E-02    7.4494987626E-02
    7.3661646324E-02    7.2837513749E-02    7.2022489417E-02    7.1216473910E-02
    7.0419368869E-02    6.9631076979E-02    6.8851501963E-02    6.8080548570E-02
    6.7318122566E-02    6.6564130723E-02    6.5818480809E-02    6.5081081580E-02
    6.4351842768E-02    6.3630675073E-02    6.2917490152E-02    6.2212200611E-02
    6.1514719994E-02    6.0824962775E-02    6.0142844348E-02    5.9468281016E-02
    5.8801189987E-02    5.8141489359E-02    5.7489098113E-02    5.6843936105E-02
    5.6205924058E-02    5.5574983550E-02    5.4951037007E-02    5.4334007694E-02
    5.3723819708E-02    5.3120397967E-02    5.2523668201E-02    5.1933556949E-02
    5.1349991542E-02    5.0772900104E-02    5.0202211536E-02    4.9637855512E-02
    4.9079762472E-02    4.8527863609E-02    4.7982090866E-02    4.7442376928E-02
    4.6908655208E-02    4.6380859847E-02    4.5858925704E-02    4.5342788346E-02
    4.4832384041E-02    4.4327649755E-02    4.3828523139E-02    4.3334942523E-02
    4.2846846913E-02    4.2364175979E-02    4.1886870048E-02    4.1414870102E-02
    4.0948117764E-02    4.0486555296E-02    4.0030125593E-02    3.9578772171E-02
    3.9132439165E-02    3.8691071319E-02    3.8254613984E-02    3.7823013107E-02
    3.7396215226E-02    3.6974167464E-02    3.6556817523E-02    3.6144113678E-02
    3.5736004769E-02    3.5332440195E-02    3.4933369912E-02    3.4538744421E-02
    3.4148514766E-02    3.3762632529E-02    3.3381049818E-02    3.3003719270E-02
    3.2630594038E-02    3.2261627789E-02    3.1896774699E-02    3.1535989443E-02
    3.1179227195E-02    3.0826443620E-02    3.0477594868E-02    3.0132637570E-02
    2.9791528833E-02    2.9454226231E-02    2.9120687808E-02    2.8790872063E-02
    2.8464737953E-02    2.8142244883E-02    2.7823352705E-02    2.7508021709E-02
    2.7196212621E-02    2.6887886599E-02    2.6583005223E-02    2.6281530498E-02
    2.5983424844E-02    2.5688651092E-02    2.5397172482E-02    2.5108952656E-02
    2.4823955655E-02    2.4542145913E-02    2.4263488256E-02    2.3987947894E-02
    2.3715490418E-02    2.3446081796E-02    2.3179688372E-02    2.2916276855E-02
    2.2655814320E-02    2.2398268204E-02    2.2143606301E-02    2.1891796755E-02
    2.1642808063E-02    2.1396609064E-02    2.1153168941E-02    2.0912457212E-02
    2.0674443732E-02    2.0439098684E-02    2.0206392579E-02    1.9976296251E-02
    1.9748780852E-02    1.9523817852E-02    1.9301379033E-02    1.9081436485E-02
    1.8863962606E-02    1.8648930093E-02    1.8436311947E-02    1.8226081460E-02
    1.8018212218E-02    1.7812678099E-02    1.7609453263E-02    1.7408512156E-02
    1.7209829503E-02    1.7013380305E-02    1.6819139838E-02    1.6627083648E-02
    1.6437187549E-02    1.6249427621E-02    1.6063780205E-02    1.5880221900E-02
    1.5698729563E-02    1.5519280305E-02    1.5341851485E-02    1.5166420712E-02
    1.4992965841E-02    1.4821464967E-02    1.4651896426E-02    1.4484238793E-02
    1.4318470875E-02    1.4154571713E-02    1.3992520576E-02    1.3832296961E-02
    1.3673880590E-02    1.3517251406E-02    1.3362389573E-02    1.3209275471E-02
    1.3057889695E-02    1.2908213053E-02    1.2760226565E-02    1.2613911454E-02
    1.2469249155E-02    1.2326221301E-02    1.2184809729E-02    1.2044996474E-02
    1.1906763770E-02    1.1770094042E-02    1.1634969910E-02    1.1501374185E-02
    1.1369289864E-02    1.1238700132E-02    1.1109588359E-02    1.0981938094E-02
    1.0855733071E-02    1.0730957198E-02    1.0607594562E-02    1.0485629424E-02
    1.0365046217E-02    1.0245829545E-02    1.0127964181E-02    1.0011435064E-02
    9.8962272996E-03    9.7823261561E-03    9.6697170635E-03    9.5583856115E-03
    9.4483175480E-03    9.3394987772E-03    9.2319153581E-03    9.1255535027E-03
    9.0203995741E-03    8.9164400854E-03    8.8136616976E-03    8.7120512181E-03
    8.6115955993E-03    8.5122819368E-03    8.4140974679E-03    8.3170295701E-03
    8.2210657597E-03    8.1261936900E-03    8.0324011499E-03    7.9396760628E-03
    7.8480064845E-03    7.7573806024E-03    7.6677867334E-03    7.5792133232E-03
    7.4916489443E-03    7.4050822952E-03    7.3195021985E-03    7.2348975996E-03
    7.1512575660E-03    7.0685712850E-03    6.9868280634E-03    6.9060173253E-03
    6.8261286115E-03    6.7471515779E-03    6.6690759943E-03    6.5918917431E-03
    6.5155888185E-03    6.4401573244E-03    6.3655874744E-03    6.2918695895E-03
    6.2189940975E-03    6.1469515320E-03    6.0757325307E-03    6.0053278346E-03
    5.9357282871E-03    5.8669248323E-03    5.7989085146E-03    5.7316704768E-03
    5.6652019600E-03    5.5994943017E-03    5.5345389350E-03    5.4703273879E-03
    5.4068512819E-03    5.3441023311E-03    5.2820723411E-03    5.2207532081E-03
    5.1601369180E-03    5.1002155454E-03    5.0409812523E-03    4.9824262876E-03
    4.9245429861E-03    4.8673237672E-03    4.8107611344E-03    4.7548476741E-03
    4.6995760548E-03    4.6449390263E-03    4.5909294188E-03    4.5375401417E-03
    4.4847641833E-03    4.4325946095E-03    4.3810245630E-03    4.3300472628E-03
    4.2796560029E-03    4.2298441520E-03    4.1806051520E-03    4.1319325180E-03
    4.0838198368E-03    4.0362607668E-03    3.9892490365E-03    3.9427784442E-03
    3.8968428572E-03    3.8514362110E-03    3.8065525084E-03    3.7621858190E-03
    3.7183302783E-03    3.6749800872E-03    3.6321295110E-03    3.5897728789E-03
    3.5479045833E-03    3.5065190789E-03    3.4656108824E-03    3.4251745714E-03
    3.3852047841E-03    3.3456962183E-03    3.3066436310E-03    3.2680418379E-03
    3.2298857121E-03    3.1921701843E-03    3.1548902416E-03    3.1180409272E-03
    3.0816173393E-03    3.0456146314E-03    3.0100280107E-03    2.9748527382E-03
    2.9400841278E-03    2.9057175457E-03    2.8717484100E-03    2.8381721903E-03
    2.8049844064E-03    2.7721806286E-03    2.7397564768E-03    2.7077076197E-03
    2.6760297746E-03    2.6447187070E-03    2.6137702296E-03    2.5831802021E-03
    2.5529445306E-03    2.5230591672E-03    2.4935201094E-03    2.4643233994E-03
    2.4354651241E-03    2.4069414141E-03    2.3787484435E-03    2.3508824296E-03
    2.3233396318E-03    2.2961163518E-03    2.2692089328E-03    2.2426137590E-03
    2.2163272556E-03    2.1903458876E-03    2.1646661599E-03    2.1392846168E-03
    2.1141978416E-03    2.0894024557E-03    2.0648951190E-03    2.0406725287E-03
    2.0167314193E-03    1.9930685622E-03    1.9696807650E-03    1.9465648715E-03
    1.9237177610E-03    1.9011363479E-03    1.8788175816E-03    1.8567584459E-03
    1.8349559586E-03    1.8134071711E-03    1.7921091682E-03    1.7710590677E-03
    1.7502540199E-03    1.7296912072E-03    1.7093678440E-03    1.6892811762E-03
    1.6694284807E-03    1.6498070655E-03    1.6304142687E-03    1.6112474589E-03
    1.5923040341E-03    1.5735814222E-03    1.5550770799E-03    1.5367884928E-03
    1.5187131751E-03    1.5008486691E-03    1.4831925450E-03    1.4657424006E-03
    1.4484958607E-03    1.4314505773E-03    1.4146042291E-03    1.3979545210E-03
    1.3814991840E-03    1.3652359748E-03    1.3491626757E-03    1.3332770942E-03
    1.3175770627E-03    1.3020604381E-03    1.2867251020E-03    1.2715689596E-03
    1.2565899405E-03    1.2417859975E-03    1.2271551066E-03    1.2126952673E-03
    1.1984045014E-03    1.1842808535E-03    1.1703223905E-03    1.1565272011E-03
    1.1428933960E-03    1.1294191073E-03    1.1161024886E-03    1.1029417143E-03
    1.0899349798E-03    1.0770805010E-03    1.0643765143E-03    1.0518212760E-03
    1.0394130626E-03    1.0271501700E-03    1.0150309138E-03    1.0030536286E-03
    9.9121666841E-04    9.7951840565E-04    9.6795723159E-04    9.5653155582E-04
    9.4523980614E-04    9.3408042833E-04    9.2305188597E-04    9.1215266022E-04
    9.0138124962E-04    8.9073616991E-04    8.8021595384E-04    8.6981915096E-04
    8.5954432744E-04    8.4939006589E-04    8.3935496515E-04    8.2943764016E-04
    8.1963672172E-04    8.0995085633E-04    8.0037870605E-04    7.9091894826E-04
    7.8157027554E-04    7.7233139549E-04    7.6320103052E-04    7.5417791774E-04
    7.4526080876E-04    7.3644846954E-04    7.2773968020E-04    7.1913323492E-04
    7.1062794172E-04    7.0222262232E-04    6.9391611201E-04    6.8570725947E-04
    6.7759492663E-04    6.6957798853E-04    6.6165533313E-04    6.5382586123E-04
    6.4608848627E-04    6.3844213419E-04    6.3088574333E-04    6.2341826426E-04
    6.1603865963E-04    6.0874590406E-04    6.0153898398E-04    5.9441689752E-04
    5.8737865436E-04    5.8042327562E-04    5.7354979368E-04    5.6675725212E-04
    5.6004470555E-04    5.5341121949E-04    5.4685587025E-04    5.4037774481E-04
    5.3397594071E-04    5.2764956589E-04    5.2139773862E-04    5.1521958735E-04
    5.0911425062E-04    5.0308087691E-04    4.9711862457E-04    4.9122666166E-04
    4.8540416587E-04    4.7965032443E-04    4.7396433396E-04    4.6834540035E-04
    4.6279273874E-04    4.5730557331E-04    4.5188313725E-04    4.4652467261E-04
    4.4122943026E-04    4.3599666971E-04    4.3082565908E-04    4.2571567495E-04
    4.2066600230E-04    4.1567593440E-04    4.1074477271E-04    4.0587182681E-04
    4.0105641427E-04    3.9629786059E-04    3.9159549909E-04    3.8694867083E-04
    3.8235672452E-04    3.7781901644E-04    3.7333491033E-04    3.6890377733E-04
    3.6452499590E-04    3.6019795169E-04    3.5592203750E-04    3.5169665321E-04
    3.4752120565E-04    3.4339510854E-04    3.3931778246E-04    3.3528865468E-04
    3.3130715915E-04    3.2737273642E-04    3.2348483353E-04    3.1964290396E-04
    3.1584640756E-04    3.1209481045E-04    3.0838758499E-04    3.0472420966E-04
    3.0110416903E-04    2.9752695367E-04    2.9399206007E-04    2.9049899061E-04
    2.8704725346E-04    2.8363636252E-04    2.8026583736E-04    2.7693520314E-04
    2.7364399058E-04    2.7039173584E-04    2.6717798052E-04    2.6400227156E-04
    2.6086416117E-04    2.5776320680E-04    2.5469897107E-04    2.5167102170E-04
    2.4867893144E-04    2.4572227805E-04    2.4280064421E-04    2.3991361748E-04
    2.3706079024E-04    2.3424175961E-04    2.3145612745E-04    2.2870350025E-04
    2.2598348909E-04    2.2329570964E-04    2.2063978201E-04    2.1801533078E-04
    2.1542198493E-04    2.1285937774E-04    2.1032714683E-04    2.0782493401E-04
    2.0535238532E-04    2.0290915092E-04    2.0049488507E-04    1.9810924607E-04
    1.9575189623E-04    1.9342250182E-04    1.9112073300E-04    1.8884626379E-04
    1.8659877205E-04    1.8437793940E-04    1.8218345119E-04    1.8001499646E-04
    1.7787226788E-04    1.7575496174E-04    1.7366277789E-04    1.7159541968E-04
    1.6955259396E-04    1.6753401099E-04    1.6553938446E-04    1.6356843139E-04
    1.6162087214E-04    1.5969643034E-04    1.5779483286E-04    1.5591580978E-04
    1.5405909435E-04    1.5222442293E-04    1.5041153501E-04    1.4862017312E-04
    1.4685008280E-04    1.4510101259E-04    1.4337271400E-04    1.4166494142E-04
    1.3997745216E-04    1.3831000636E-04    1.3666236700E-04    1.3503429981E-04
    1.3342557330E-04    1.3183595870E-04    1.3026522992E-04    1.2871316352E-04
    1.2717953872E-04    1.2566413729E-04    1.2416674360E-04    1.2268714454E-04
    1.2122512952E-04    1.1978049041E-04    1.1835302154E-04    1.1694251966E-04
    1.1554878391E-04    1.1417161578E-04    1.1281081912E-04    1.1146620007E-04
    1.1013756707E-04    1.0882473079E-04    1.0752750414E-04    1.0624570226E-04
    1.0497914242E-04    1.0372764408E-04    1.0249102880E-04    1.0126912026E-04
    1.0006174421E-04    9.8868728459E-05    9.7689902831E-05    9.6525099167E-05
    9.5374151288E-05    9.4236894972E-05    9.3113167934E-05    9.2002809802E-05
    9.0905662094E-05    8.9821568197E-05    8.8750373346E-05    8.7691924598E-05
    8.6646070817E-05    8.5612662649E-05    8.4591552501E-05    8.3582594522E-05
    8.2585644583E-05    8.1600560252E-05    8.0627200782E-05    7.9665427083E-05
    7.8715101711E-05    7.7776088842E-05    7.6848254255E-05    7.5931465314E-05
    7.5025590951E-05    7.4130501643E-05    7.3246069397E-05    7.2372167732E-05
    7.1508671663E-05    7.0655457678E-05    6.9812403726E-05    6.8979389198E-05
    6.8156294908E-05    6.7343003080E-05    6.6539397331E-05    6.5745362650E-05
    6.4960785389E-05    6.4185553242E-05    6.3419555228E-05    6.2662681682E-05
    6.1914824233E-05    6.1175875793E-05    6.0445730538E-05    5.9724283898E-05
    5.9011432538E-05    5.8307074347E-05    5.7611108419E-05    5.6923435044E-05
    5.6243955690E-05    5.5572572993E-05    5.4909190740E-05    5.4253713855E-05
    5.3606048388E-05    5.2966101502E-05    5.2333781457E-05    5.1708997601E-05
    5.1091660353E-05    5.0481681194E-05    4.9878972652E-05    4.9283448291E-05
    4.8695022700E-05    4.8113611475E-05    4.7539131217E-05    4.6971499510E-05
    4.6410634919E-05    4.5856456970E-05    4.5308886142E-05    4.4767843859E-05
    4.4233252474E-05    4.3705035259E-05    4.3183116397E-05    4.2667420970E-05
    4.2157874946E-05    4.1654405170E-05    4.1156939357E-05    4.0665406075E-05
    4.0179734742E-05    3.9699855611E-05    3.9225699763E-05    3.8757199094E-05
    3.8294286310E-05    3.7836894914E-05    3.7384959196E-05    3.6938414229E-05
    3.6497195851E-05    3.6061240666E-05    3.5630486027E-05    3.5204870030E-05
    3.4784331508E-05    3.4368810017E-05    3.3958245830E-05    3.3552579931E-05
    3.3151754002E-05    3.2755710419E-05    3.2364392241E-05    3.1977743201E-05
    3.1595707703E-05    3.1218230809E-05    3.0845258233E-05    3.0476736333E-05
    3.0112612107E-05    2.9752833178E-05    2.9397347793E-05    2.9046104814E-05
    2.8699053710E-05    2.8356144547E-05    2.8017327989E-05    2.7682555282E-05
    2.7351778253E-05    2.7024949301E-05    2.6702021389E-05    2.6382948041E-05
    2.6067683331E-05    2.5756181880E-05    2.5448398847E-05    2.5144289925E-05
    2.4843811333E-05    2.4546919809E-05    2.4253572607E-05    2.3963727488E-05
    2.3677342715E-05    2.3394377047E-05    2.3114789734E-05    2.2838540509E-05
    2.2565589584E-05    2.2295897645E-05    2.2029425845E-05    2.1766135798E-05
    2.1505989574E-05    2.1248949696E-05    2.0994979131E-05    2.0744041287E-05
    2.0496100007E-05    2.0251119564E-05    2.0009064655E-05    1.9769900399E-05
    1.9533592327E-05    1.9300106382E-05    1.9069408912E-05    1.8841466665E-05
    1.8616246783E-05    1.8393716803E-05    1.8173844643E-05    1.7956598607E-05
    1.7741947373E-05    1.7529859994E-05    1.7320305890E-05    1.7113254845E-05
    1.6908677003E-05    1.6706542863E-05    1.6506823275E-05    1.6309489437E-05
    1.6114512887E-05    1.5921865504E-05    1.5731519503E-05    1.5543447427E-05
    1.5357622147E-05    1.5174016857E-05    1.4992605070E-05    1.4813360615E-05
    1.4636257631E-05    1.4461270566E-05    1.4288374173E-05    1.4117543504E-05
    1.3948753910E-05    1.3781981032E-05    1.3617200806E-05    1.3454389451E-05
    1.3293523470E-05    1.3134579646E-05    1.2977535039E-05    1.2822366983E-05
    1.2669053079E-05    1.2517571198E-05    1.2367899473E-05    1.2220016297E-05
    1.2073900322E-05    1.1929530454E-05    1.1786885849E-05    1.1645945913E-05
    1.1506690295E-05    1.1369098891E-05    1.1233151831E-05    1.1098829485E-05
    1.0966112458E-05    1.0834981582E-05    1.0705417922E-05    1.0577402765E-05
    1.0450917624E-05    1.0325944230E-05    1.0202464533E-05    1.0080460698E-05
    9.9599151026E-06    9.8408103338E-06    9.7231291870E-06    9.6068546624E-06
    9.4919699628E-06    9.3784584914E-06    9.2663038491E-06    9.1554898323E-06
    9.0460004307E-06    8.9378198251E-06    8.8309323846E-06    8.7253226648E-06
    8.6209754055E-06    8.5178755285E-06    8.4160081353E-06    8.3153585049E-06
    8.2159120923E-06    8.1176545258E-06    8.0205716050E-06    7.9246492990E-06
    7.8298737441E-06    7.7362312421E-06    7.6437082582E-06    7.5522914187E-06
    7.4619675099E-06    7.3727234755E-06    7.2845464151E-06    7.1974235820E-06
    7.1113423817E-06    7.0262903700E-06    6.9422552509E-06    6.8592248754E-06
    6.7771872392E-06    6.6961304814E-06    6.6160428828E-06    6.5369128636E-06
    6.4587289826E-06    6.3814799349E-06    6.3051545504E-06    6.2297417926E-06
    6.1552307563E-06    6.0816106669E-06    6.0088708780E-06    5.9370008707E-06
    5.8659902512E-06    5.7958287499E-06    5.7265062200E-06    5.6580126354E-06
    5.5903380899E-06    5.5234727956E-06    5.4574070814E-06    5.3921313916E-06
    5.3276362845E-06    5.2639124313E-06    5.2009506145E-06    5.1387417264E-06
    5.0772767684E-06    5.0165468489E-06    4.9565431830E-06    4.8972570903E-06
    4.8386799941E-06    4.7808034202E-06    4.7236189956E-06    4.6671184470E-06
    4.6112936003E-06    4.5561363785E-06    4.5016388015E-06    4.4477929843E-06
    4.3945911362E-06    4.3420255594E-06    4.2900886479E-06    4.2387728869E-06
    4.1880708509E-06    4.1379752034E-06    4.0884786953E-06    4.0395741644E-06
    3.9912545337E-06    3.9435128110E-06    3.8963420875E-06    3.8497355367E-06
    3.8036864141E-06    3.7581880553E-06
 </PP_RHOATOM>
</UPF>

END_PSP
