Begin PSP_UPF
<UPF version="2.0.1">
  <PP_INFO>

 This pseudopotential file has been produced using the code
 ONCVPSP  (Optimized Norm-Conservinng Vanderbilt PSeudopotential)
 scalar-relativistic version 4.0.1 06/04/2019 by D. R. Hamann
 The code is available through a link at URL www.mat-simresearch.com.
 Documentation with the package provides a full discription of the
 input data below.


 While it is not required under the terms of the GNU GPL, it is
 suggested that you cite D. R. Hamann, Phys. Rev. B 88, 085117 (2013)
 in any publication using these pseudopotentials.

    <PP_INPUTFILE>
# ATOM AND REFERENCE CONFIGURATION
# atsym  z   nc   nv     iexc    psfile
  Sn 50.00    8    3 -116133      upf
#
#   n    l    f        energy (Ha)
    1    0    2.00
    2    0    2.00
    2    1    6.00
    3    0    2.00
    3    1    6.00
    3    2   10.00
    4    0    2.00
    4    1    6.00
    4    2   10.00
    5    0    2.00
    5    1    2.00
#
# PSEUDOPOTENTIAL AND OPTIMIZATION
# lmax
    2
#
#   l,   rc,      ep,       ncon, nbas, qcut
    0   2.78432  -0.38768    5    8   2.52914
    1   2.92039  -0.13576    5    8   4.90513
    2   3.36982  -0.94957    5    8   6.53914
#
# LOCAL POTENTIAL
# lloc, lpopt,  rc(5),   dvloc0
    4    5   1.92364      0.00000
#
# VANDERBILT-KLEINMAN-BYLANDER PROJECTORs
# l, nproj, debl
    0    2   0.99967
    1    2   0.85384
    2    2   1.34528
#
# MODEL CORE CHARGE
# icmod, fcfact, rcfact
    0   0.00000   0.00000
#
# LOG DERIVATIVE ANALYSIS
# epsh1, epsh2, depsh
   -5.00    3.00    0.02
#
# OUTPUT GRID
# rlmax, drl
    6.00    0.01
#
# TEST CONFIGURATIONS
# ncnf
    0
# nvcnf
#   n    l    f
    </PP_INPUTFILE>
  </PP_INFO>
  <!--                               -->
  <!-- END OF HUMAN READABLE SECTION -->
  <!--                               -->
    <PP_HEADER
       generated="Generated using ONCVPSP code by D. R. Hamann"
       author="anonymous"
       date="251029"
       comment=""
       element="Sn"
       pseudo_type="NC"
       relativistic="scalar"
       is_ultrasoft="F"
       is_paw="F"
       is_coulomb="F"
       has_so="F"
       has_wfc="F"
       has_gipaw="F"
       core_correction="F"
       functional="PBESOL"
       z_valence="   14.00"
       total_psenergy="  -1.20315889759E+02"
       rho_cutoff="   1.62900000000E+01"
       l_max="2"
       l_local="-1"
       mesh_size="  1630"
       number_of_wfc="3"
       number_of_proj="6"/>
 <PP_MESH>
   <PP_R type="real"  size="1630" columns="8">
    0.0000    0.0100    0.0200    0.0300    0.0400    0.0500    0.0600    0.0700
    0.0800    0.0900    0.1000    0.1100    0.1200    0.1300    0.1400    0.1500
    0.1600    0.1700    0.1800    0.1900    0.2000    0.2100    0.2200    0.2300
    0.2400    0.2500    0.2600    0.2700    0.2800    0.2900    0.3000    0.3100
    0.3200    0.3300    0.3400    0.3500    0.3600    0.3700    0.3800    0.3900
    0.4000    0.4100    0.4200    0.4300    0.4400    0.4500    0.4600    0.4700
    0.4800    0.4900    0.5000    0.5100    0.5200    0.5300    0.5400    0.5500
    0.5600    0.5700    0.5800    0.5900    0.6000    0.6100    0.6200    0.6300
    0.6400    0.6500    0.6600    0.6700    0.6800    0.6900    0.7000    0.7100
    0.7200    0.7300    0.7400    0.7500    0.7600    0.7700    0.7800    0.7900
    0.8000    0.8100    0.8200    0.8300    0.8400    0.8500    0.8600    0.8700
    0.8800    0.8900    0.9000    0.9100    0.9200    0.9300    0.9400    0.9500
    0.9600    0.9700    0.9800    0.9900    1.0000    1.0100    1.0200    1.0300
    1.0400    1.0500    1.0600    1.0700    1.0800    1.0900    1.1000    1.1100
    1.1200    1.1300    1.1400    1.1500    1.1600    1.1700    1.1800    1.1900
    1.2000    1.2100    1.2200    1.2300    1.2400    1.2500    1.2600    1.2700
    1.2800    1.2900    1.3000    1.3100    1.3200    1.3300    1.3400    1.3500
    1.3600    1.3700    1.3800    1.3900    1.4000    1.4100    1.4200    1.4300
    1.4400    1.4500    1.4600    1.4700    1.4800    1.4900    1.5000    1.5100
    1.5200    1.5300    1.5400    1.5500    1.5600    1.5700    1.5800    1.5900
    1.6000    1.6100    1.6200    1.6300    1.6400    1.6500    1.6600    1.6700
    1.6800    1.6900    1.7000    1.7100    1.7200    1.7300    1.7400    1.7500
    1.7600    1.7700    1.7800    1.7900    1.8000    1.8100    1.8200    1.8300
    1.8400    1.8500    1.8600    1.8700    1.8800    1.8900    1.9000    1.9100
    1.9200    1.9300    1.9400    1.9500    1.9600    1.9700    1.9800    1.9900
    2.0000    2.0100    2.0200    2.0300    2.0400    2.0500    2.0600    2.0700
    2.0800    2.0900    2.1000    2.1100    2.1200    2.1300    2.1400    2.1500
    2.1600    2.1700    2.1800    2.1900    2.2000    2.2100    2.2200    2.2300
    2.2400    2.2500    2.2600    2.2700    2.2800    2.2900    2.3000    2.3100
    2.3200    2.3300    2.3400    2.3500    2.3600    2.3700    2.3800    2.3900
    2.4000    2.4100    2.4200    2.4300    2.4400    2.4500    2.4600    2.4700
    2.4800    2.4900    2.5000    2.5100    2.5200    2.5300    2.5400    2.5500
    2.5600    2.5700    2.5800    2.5900    2.6000    2.6100    2.6200    2.6300
    2.6400    2.6500    2.6600    2.6700    2.6800    2.6900    2.7000    2.7100
    2.7200    2.7300    2.7400    2.7500    2.7600    2.7700    2.7800    2.7900
    2.8000    2.8100    2.8200    2.8300    2.8400    2.8500    2.8600    2.8700
    2.8800    2.8900    2.9000    2.9100    2.9200    2.9300    2.9400    2.9500
    2.9600    2.9700    2.9800    2.9900    3.0000    3.0100    3.0200    3.0300
    3.0400    3.0500    3.0600    3.0700    3.0800    3.0900    3.1000    3.1100
    3.1200    3.1300    3.1400    3.1500    3.1600    3.1700    3.1800    3.1900
    3.2000    3.2100    3.2200    3.2300    3.2400    3.2500    3.2600    3.2700
    3.2800    3.2900    3.3000    3.3100    3.3200    3.3300    3.3400    3.3500
    3.3600    3.3700    3.3800    3.3900    3.4000    3.4100    3.4200    3.4300
    3.4400    3.4500    3.4600    3.4700    3.4800    3.4900    3.5000    3.5100
    3.5200    3.5300    3.5400    3.5500    3.5600    3.5700    3.5800    3.5900
    3.6000    3.6100    3.6200    3.6300    3.6400    3.6500    3.6600    3.6700
    3.6800    3.6900    3.7000    3.7100    3.7200    3.7300    3.7400    3.7500
    3.7600    3.7700    3.7800    3.7900    3.8000    3.8100    3.8200    3.8300
    3.8400    3.8500    3.8600    3.8700    3.8800    3.8900    3.9000    3.9100
    3.9200    3.9300    3.9400    3.9500    3.9600    3.9700    3.9800    3.9900
    4.0000    4.0100    4.0200    4.0300    4.0400    4.0500    4.0600    4.0700
    4.0800    4.0900    4.1000    4.1100    4.1200    4.1300    4.1400    4.1500
    4.1600    4.1700    4.1800    4.1900    4.2000    4.2100    4.2200    4.2300
    4.2400    4.2500    4.2600    4.2700    4.2800    4.2900    4.3000    4.3100
    4.3200    4.3300    4.3400    4.3500    4.3600    4.3700    4.3800    4.3900
    4.4000    4.4100    4.4200    4.4300    4.4400    4.4500    4.4600    4.4700
    4.4800    4.4900    4.5000    4.5100    4.5200    4.5300    4.5400    4.5500
    4.5600    4.5700    4.5800    4.5900    4.6000    4.6100    4.6200    4.6300
    4.6400    4.6500    4.6600    4.6700    4.6800    4.6900    4.7000    4.7100
    4.7200    4.7300    4.7400    4.7500    4.7600    4.7700    4.7800    4.7900
    4.8000    4.8100    4.8200    4.8300    4.8400    4.8500    4.8600    4.8700
    4.8800    4.8900    4.9000    4.9100    4.9200    4.9300    4.9400    4.9500
    4.9600    4.9700    4.9800    4.9900    5.0000    5.0100    5.0200    5.0300
    5.0400    5.0500    5.0600    5.0700    5.0800    5.0900    5.1000    5.1100
    5.1200    5.1300    5.1400    5.1500    5.1600    5.1700    5.1800    5.1900
    5.2000    5.2100    5.2200    5.2300    5.2400    5.2500    5.2600    5.2700
    5.2800    5.2900    5.3000    5.3100    5.3200    5.3300    5.3400    5.3500
    5.3600    5.3700    5.3800    5.3900    5.4000    5.4100    5.4200    5.4300
    5.4400    5.4500    5.4600    5.4700    5.4800    5.4900    5.5000    5.5100
    5.5200    5.5300    5.5400    5.5500    5.5600    5.5700    5.5800    5.5900
    5.6000    5.6100    5.6200    5.6300    5.6400    5.6500    5.6600    5.6700
    5.6800    5.6900    5.7000    5.7100    5.7200    5.7300    5.7400    5.7500
    5.7600    5.7700    5.7800    5.7900    5.8000    5.8100    5.8200    5.8300
    5.8400    5.8500    5.8600    5.8700    5.8800    5.8900    5.9000    5.9100
    5.9200    5.9300    5.9400    5.9500    5.9600    5.9700    5.9800    5.9900
    6.0000    6.0100    6.0200    6.0300    6.0400    6.0500    6.0600    6.0700
    6.0800    6.0900    6.1000    6.1100    6.1200    6.1300    6.1400    6.1500
    6.1600    6.1700    6.1800    6.1900    6.2000    6.2100    6.2200    6.2300
    6.2400    6.2500    6.2600    6.2700    6.2800    6.2900    6.3000    6.3100
    6.3200    6.3300    6.3400    6.3500    6.3600    6.3700    6.3800    6.3900
    6.4000    6.4100    6.4200    6.4300    6.4400    6.4500    6.4600    6.4700
    6.4800    6.4900    6.5000    6.5100    6.5200    6.5300    6.5400    6.5500
    6.5600    6.5700    6.5800    6.5900    6.6000    6.6100    6.6200    6.6300
    6.6400    6.6500    6.6600    6.6700    6.6800    6.6900    6.7000    6.7100
    6.7200    6.7300    6.7400    6.7500    6.7600    6.7700    6.7800    6.7900
    6.8000    6.8100    6.8200    6.8300    6.8400    6.8500    6.8600    6.8700
    6.8800    6.8900    6.9000    6.9100    6.9200    6.9300    6.9400    6.9500
    6.9600    6.9700    6.9800    6.9900    7.0000    7.0100    7.0200    7.0300
    7.0400    7.0500    7.0600    7.0700    7.0800    7.0900    7.1000    7.1100
    7.1200    7.1300    7.1400    7.1500    7.1600    7.1700    7.1800    7.1900
    7.2000    7.2100    7.2200    7.2300    7.2400    7.2500    7.2600    7.2700
    7.2800    7.2900    7.3000    7.3100    7.3200    7.3300    7.3400    7.3500
    7.3600    7.3700    7.3800    7.3900    7.4000    7.4100    7.4200    7.4300
    7.4400    7.4500    7.4600    7.4700    7.4800    7.4900    7.5000    7.5100
    7.5200    7.5300    7.5400    7.5500    7.5600    7.5700    7.5800    7.5900
    7.6000    7.6100    7.6200    7.6300    7.6400    7.6500    7.6600    7.6700
    7.6800    7.6900    7.7000    7.7100    7.7200    7.7300    7.7400    7.7500
    7.7600    7.7700    7.7800    7.7900    7.8000    7.8100    7.8200    7.8300
    7.8400    7.8500    7.8600    7.8700    7.8800    7.8900    7.9000    7.9100
    7.9200    7.9300    7.9400    7.9500    7.9600    7.9700    7.9800    7.9900
    8.0000    8.0100    8.0200    8.0300    8.0400    8.0500    8.0600    8.0700
    8.0800    8.0900    8.1000    8.1100    8.1200    8.1300    8.1400    8.1500
    8.1600    8.1700    8.1800    8.1900    8.2000    8.2100    8.2200    8.2300
    8.2400    8.2500    8.2600    8.2700    8.2800    8.2900    8.3000    8.3100
    8.3200    8.3300    8.3400    8.3500    8.3600    8.3700    8.3800    8.3900
    8.4000    8.4100    8.4200    8.4300    8.4400    8.4500    8.4600    8.4700
    8.4800    8.4900    8.5000    8.5100    8.5200    8.5300    8.5400    8.5500
    8.5600    8.5700    8.5800    8.5900    8.6000    8.6100    8.6200    8.6300
    8.6400    8.6500    8.6600    8.6700    8.6800    8.6900    8.7000    8.7100
    8.7200    8.7300    8.7400    8.7500    8.7600    8.7700    8.7800    8.7900
    8.8000    8.8100    8.8200    8.8300    8.8400    8.8500    8.8600    8.8700
    8.8800    8.8900    8.9000    8.9100    8.9200    8.9300    8.9400    8.9500
    8.9600    8.9700    8.9800    8.9900    9.0000    9.0100    9.0200    9.0300
    9.0400    9.0500    9.0600    9.0700    9.0800    9.0900    9.1000    9.1100
    9.1200    9.1300    9.1400    9.1500    9.1600    9.1700    9.1800    9.1900
    9.2000    9.2100    9.2200    9.2300    9.2400    9.2500    9.2600    9.2700
    9.2800    9.2900    9.3000    9.3100    9.3200    9.3300    9.3400    9.3500
    9.3600    9.3700    9.3800    9.3900    9.4000    9.4100    9.4200    9.4300
    9.4400    9.4500    9.4600    9.4700    9.4800    9.4900    9.5000    9.5100
    9.5200    9.5300    9.5400    9.5500    9.5600    9.5700    9.5800    9.5900
    9.6000    9.6100    9.6200    9.6300    9.6400    9.6500    9.6600    9.6700
    9.6800    9.6900    9.7000    9.7100    9.7200    9.7300    9.7400    9.7500
    9.7600    9.7700    9.7800    9.7900    9.8000    9.8100    9.8200    9.8300
    9.8400    9.8500    9.8600    9.8700    9.8800    9.8900    9.9000    9.9100
    9.9200    9.9300    9.9400    9.9500    9.9600    9.9700    9.9800    9.9900
   10.0000   10.0100   10.0200   10.0300   10.0400   10.0500   10.0600   10.0700
   10.0800   10.0900   10.1000   10.1100   10.1200   10.1300   10.1400   10.1500
   10.1600   10.1700   10.1800   10.1900   10.2000   10.2100   10.2200   10.2300
   10.2400   10.2500   10.2600   10.2700   10.2800   10.2900   10.3000   10.3100
   10.3200   10.3300   10.3400   10.3500   10.3600   10.3700   10.3800   10.3900
   10.4000   10.4100   10.4200   10.4300   10.4400   10.4500   10.4600   10.4700
   10.4800   10.4900   10.5000   10.5100   10.5200   10.5300   10.5400   10.5500
   10.5600   10.5700   10.5800   10.5900   10.6000   10.6100   10.6200   10.6300
   10.6400   10.6500   10.6600   10.6700   10.6800   10.6900   10.7000   10.7100
   10.7200   10.7300   10.7400   10.7500   10.7600   10.7700   10.7800   10.7900
   10.8000   10.8100   10.8200   10.8300   10.8400   10.8500   10.8600   10.8700
   10.8800   10.8900   10.9000   10.9100   10.9200   10.9300   10.9400   10.9500
   10.9600   10.9700   10.9800   10.9900   11.0000   11.0100   11.0200   11.0300
   11.0400   11.0500   11.0600   11.0700   11.0800   11.0900   11.1000   11.1100
   11.1200   11.1300   11.1400   11.1500   11.1600   11.1700   11.1800   11.1900
   11.2000   11.2100   11.2200   11.2300   11.2400   11.2500   11.2600   11.2700
   11.2800   11.2900   11.3000   11.3100   11.3200   11.3300   11.3400   11.3500
   11.3600   11.3700   11.3800   11.3900   11.4000   11.4100   11.4200   11.4300
   11.4400   11.4500   11.4600   11.4700   11.4800   11.4900   11.5000   11.5100
   11.5200   11.5300   11.5400   11.5500   11.5600   11.5700   11.5800   11.5900
   11.6000   11.6100   11.6200   11.6300   11.6400   11.6500   11.6600   11.6700
   11.6800   11.6900   11.7000   11.7100   11.7200   11.7300   11.7400   11.7500
   11.7600   11.7700   11.7800   11.7900   11.8000   11.8100   11.8200   11.8300
   11.8400   11.8500   11.8600   11.8700   11.8800   11.8900   11.9000   11.9100
   11.9200   11.9300   11.9400   11.9500   11.9600   11.9700   11.9800   11.9900
   12.0000   12.0100   12.0200   12.0300   12.0400   12.0500   12.0600   12.0700
   12.0800   12.0900   12.1000   12.1100   12.1200   12.1300   12.1400   12.1500
   12.1600   12.1700   12.1800   12.1900   12.2000   12.2100   12.2200   12.2300
   12.2400   12.2500   12.2600   12.2700   12.2800   12.2900   12.3000   12.3100
   12.3200   12.3300   12.3400   12.3500   12.3600   12.3700   12.3800   12.3900
   12.4000   12.4100   12.4200   12.4300   12.4400   12.4500   12.4600   12.4700
   12.4800   12.4900   12.5000   12.5100   12.5200   12.5300   12.5400   12.5500
   12.5600   12.5700   12.5800   12.5900   12.6000   12.6100   12.6200   12.6300
   12.6400   12.6500   12.6600   12.6700   12.6800   12.6900   12.7000   12.7100
   12.7200   12.7300   12.7400   12.7500   12.7600   12.7700   12.7800   12.7900
   12.8000   12.8100   12.8200   12.8300   12.8400   12.8500   12.8600   12.8700
   12.8800   12.8900   12.9000   12.9100   12.9200   12.9300   12.9400   12.9500
   12.9600   12.9700   12.9800   12.9900   13.0000   13.0100   13.0200   13.0300
   13.0400   13.0500   13.0600   13.0700   13.0800   13.0900   13.1000   13.1100
   13.1200   13.1300   13.1400   13.1500   13.1600   13.1700   13.1800   13.1900
   13.2000   13.2100   13.2200   13.2300   13.2400   13.2500   13.2600   13.2700
   13.2800   13.2900   13.3000   13.3100   13.3200   13.3300   13.3400   13.3500
   13.3600   13.3700   13.3800   13.3900   13.4000   13.4100   13.4200   13.4300
   13.4400   13.4500   13.4600   13.4700   13.4800   13.4900   13.5000   13.5100
   13.5200   13.5300   13.5400   13.5500   13.5600   13.5700   13.5800   13.5900
   13.6000   13.6100   13.6200   13.6300   13.6400   13.6500   13.6600   13.6700
   13.6800   13.6900   13.7000   13.7100   13.7200   13.7300   13.7400   13.7500
   13.7600   13.7700   13.7800   13.7900   13.8000   13.8100   13.8200   13.8300
   13.8400   13.8500   13.8600   13.8700   13.8800   13.8900   13.9000   13.9100
   13.9200   13.9300   13.9400   13.9500   13.9600   13.9700   13.9800   13.9900
   14.0000   14.0100   14.0200   14.0300   14.0400   14.0500   14.0600   14.0700
   14.0800   14.0900   14.1000   14.1100   14.1200   14.1300   14.1400   14.1500
   14.1600   14.1700   14.1800   14.1900   14.2000   14.2100   14.2200   14.2300
   14.2400   14.2500   14.2600   14.2700   14.2800   14.2900   14.3000   14.3100
   14.3200   14.3300   14.3400   14.3500   14.3600   14.3700   14.3800   14.3900
   14.4000   14.4100   14.4200   14.4300   14.4400   14.4500   14.4600   14.4700
   14.4800   14.4900   14.5000   14.5100   14.5200   14.5300   14.5400   14.5500
   14.5600   14.5700   14.5800   14.5900   14.6000   14.6100   14.6200   14.6300
   14.6400   14.6500   14.6600   14.6700   14.6800   14.6900   14.7000   14.7100
   14.7200   14.7300   14.7400   14.7500   14.7600   14.7700   14.7800   14.7900
   14.8000   14.8100   14.8200   14.8300   14.8400   14.8500   14.8600   14.8700
   14.8800   14.8900   14.9000   14.9100   14.9200   14.9300   14.9400   14.9500
   14.9600   14.9700   14.9800   14.9900   15.0000   15.0100   15.0200   15.0300
   15.0400   15.0500   15.0600   15.0700   15.0800   15.0900   15.1000   15.1100
   15.1200   15.1300   15.1400   15.1500   15.1600   15.1700   15.1800   15.1900
   15.2000   15.2100   15.2200   15.2300   15.2400   15.2500   15.2600   15.2700
   15.2800   15.2900   15.3000   15.3100   15.3200   15.3300   15.3400   15.3500
   15.3600   15.3700   15.3800   15.3900   15.4000   15.4100   15.4200   15.4300
   15.4400   15.4500   15.4600   15.4700   15.4800   15.4900   15.5000   15.5100
   15.5200   15.5300   15.5400   15.5500   15.5600   15.5700   15.5800   15.5900
   15.6000   15.6100   15.6200   15.6300   15.6400   15.6500   15.6600   15.6700
   15.6800   15.6900   15.7000   15.7100   15.7200   15.7300   15.7400   15.7500
   15.7600   15.7700   15.7800   15.7900   15.8000   15.8100   15.8200   15.8300
   15.8400   15.8500   15.8600   15.8700   15.8800   15.8900   15.9000   15.9100
   15.9200   15.9300   15.9400   15.9500   15.9600   15.9700   15.9800   15.9900
   16.0000   16.0100   16.0200   16.0300   16.0400   16.0500   16.0600   16.0700
   16.0800   16.0900   16.1000   16.1100   16.1200   16.1300   16.1400   16.1500
   16.1600   16.1700   16.1800   16.1900   16.2000   16.2100   16.2200   16.2300
   16.2400   16.2500   16.2600   16.2700   16.2800   16.2900
   </PP_R>
   <PP_RAB type="real"  size="1630" columns="8">
    0.0100    0.0100    0.0100    0.0100    0.0100    0.0100    0.0100    0.0100
    0.0100    0.0100    0.0100    0.0100    0.0100    0.0100    0.0100    0.0100
    0.0100    0.0100    0.0100    0.0100    0.0100    0.0100    0.0100    0.0100
    0.0100    0.0100    0.0100    0.0100    0.0100    0.0100    0.0100    0.0100
    0.0100    0.0100    0.0100    0.0100    0.0100    0.0100    0.0100    0.0100
    0.0100    0.0100    0.0100    0.0100    0.0100    0.0100    0.0100    0.0100
    0.0100    0.0100    0.0100    0.0100    0.0100    0.0100    0.0100    0.0100
    0.0100    0.0100    0.0100    0.0100    0.0100    0.0100    0.0100    0.0100
    0.0100    0.0100    0.0100    0.0100    0.0100    0.0100    0.0100    0.0100
    0.0100    0.0100    0.0100    0.0100    0.0100    0.0100    0.0100    0.0100
    0.0100    0.0100    0.0100    0.0100    0.0100    0.0100    0.0100    0.0100
    0.0100    0.0100    0.0100    0.0100    0.0100    0.0100    0.0100    0.0100
    0.0100    0.0100    0.0100    0.0100    0.0100    0.0100    0.0100    0.0100
    0.0100    0.0100    0.0100    0.0100    0.0100    0.0100    0.0100    0.0100
    0.0100    0.0100    0.0100    0.0100    0.0100    0.0100    0.0100    0.0100
    0.0100    0.0100    0.0100    0.0100    0.0100    0.0100    0.0100    0.0100
    0.0100    0.0100    0.0100    0.0100    0.0100    0.0100    0.0100    0.0100
    0.0100    0.0100    0.0100    0.0100    0.0100    0.0100    0.0100    0.0100
    0.0100    0.0100    0.0100    0.0100    0.0100    0.0100    0.0100    0.0100
    0.0100    0.0100    0.0100    0.0100    0.0100    0.0100    0.0100    0.0100
    0.0100    0.0100    0.0100    0.0100    0.0100    0.0100    0.0100    0.0100
    0.0100    0.0100    0.0100    0.0100    0.0100    0.0100    0.0100    0.0100
    0.0100    0.0100    0.0100    0.0100    0.0100    0.0100    0.0100    0.0100
    0.0100    0.0100    0.0100    0.0100    0.0100    0.0100    0.0100    0.0100
    0.0100    0.0100    0.0100    0.0100    0.0100    0.0100    0.0100    0.0100
    0.0100    0.0100    0.0100    0.0100    0.0100    0.0100    0.0100    0.0100
    0.0100    0.0100    0.0100    0.0100    0.0100    0.0100    0.0100    0.0100
    0.0100    0.0100    0.0100    0.0100    0.0100    0.0100    0.0100    0.0100
    0.0100    0.0100    0.0100    0.0100    0.0100    0.0100    0.0100    0.0100
    0.0100    0.0100    0.0100    0.0100    0.0100    0.0100    0.0100    0.0100
    0.0100    0.0100    0.0100    0.0100    0.0100    0.0100    0.0100    0.0100
    0.0100    0.0100    0.0100    0.0100    0.0100    0.0100    0.0100    0.0100
    0.0100    0.0100    0.0100    0.0100    0.0100    0.0100    0.0100    0.0100
    0.0100    0.0100    0.0100    0.0100    0.0100    0.0100    0.0100    0.0100
    0.0100    0.0100    0.0100    0.0100    0.0100    0.0100    0.0100    0.0100
    0.0100    0.0100    0.0100    0.0100    0.0100    0.0100    0.0100    0.0100
    0.0100    0.0100    0.0100    0.0100    0.0100    0.0100    0.0100    0.0100
    0.0100    0.0100    0.0100    0.0100    0.0100    0.0100    0.0100    0.0100
    0.0100    0.0100    0.0100    0.0100    0.0100    0.0100    0.0100    0.0100
    0.0100    0.0100    0.0100    0.0100    0.0100    0.0100    0.0100    0.0100
    0.0100    0.0100    0.0100    0.0100    0.0100    0.0100    0.0100    0.0100
    0.0100    0.0100    0.0100    0.0100    0.0100    0.0100    0.0100    0.0100
    0.0100    0.0100    0.0100    0.0100    0.0100    0.0100    0.0100    0.0100
    0.0100    0.0100    0.0100    0.0100    0.0100    0.0100    0.0100    0.0100
    0.0100    0.0100    0.0100    0.0100    0.0100    0.0100    0.0100    0.0100
    0.0100    0.0100    0.0100    0.0100    0.0100    0.0100    0.0100    0.0100
    0.0100    0.0100    0.0100    0.0100    0.0100    0.0100    0.0100    0.0100
    0.0100    0.0100    0.0100    0.0100    0.0100    0.0100    0.0100    0.0100
    0.0100    0.0100    0.0100    0.0100    0.0100    0.0100    0.0100    0.0100
    0.0100    0.0100    0.0100    0.0100    0.0100    0.0100    0.0100    0.0100
    0.0100    0.0100    0.0100    0.0100    0.0100    0.0100    0.0100    0.0100
    0.0100    0.0100    0.0100    0.0100    0.0100    0.0100    0.0100    0.0100
    0.0100    0.0100    0.0100    0.0100    0.0100    0.0100    0.0100    0.0100
    0.0100    0.0100    0.0100    0.0100    0.0100    0.0100    0.0100    0.0100
    0.0100    0.0100    0.0100    0.0100    0.0100    0.0100    0.0100    0.0100
    0.0100    0.0100    0.0100    0.0100    0.0100    0.0100    0.0100    0.0100
    0.0100    0.0100    0.0100    0.0100    0.0100    0.0100    0.0100    0.0100
    0.0100    0.0100    0.0100    0.0100    0.0100    0.0100    0.0100    0.0100
    0.0100    0.0100    0.0100    0.0100    0.0100    0.0100    0.0100    0.0100
    0.0100    0.0100    0.0100    0.0100    0.0100    0.0100    0.0100    0.0100
    0.0100    0.0100    0.0100    0.0100    0.0100    0.0100    0.0100    0.0100
    0.0100    0.0100    0.0100    0.0100    0.0100    0.0100    0.0100    0.0100
    0.0100    0.0100    0.0100    0.0100    0.0100    0.0100    0.0100    0.0100
    0.0100    0.0100    0.0100    0.0100    0.0100    0.0100    0.0100    0.0100
    0.0100    0.0100    0.0100    0.0100    0.0100    0.0100    0.0100    0.0100
    0.0100    0.0100    0.0100    0.0100    0.0100    0.0100    0.0100    0.0100
    0.0100    0.0100    0.0100    0.0100    0.0100    0.0100    0.0100    0.0100
    0.0100    0.0100    0.0100    0.0100    0.0100    0.0100    0.0100    0.0100
    0.0100    0.0100    0.0100    0.0100    0.0100    0.0100    0.0100    0.0100
    0.0100    0.0100    0.0100    0.0100    0.0100    0.0100    0.0100    0.0100
    0.0100    0.0100    0.0100    0.0100    0.0100    0.0100    0.0100    0.0100
    0.0100    0.0100    0.0100    0.0100    0.0100    0.0100    0.0100    0.0100
    0.0100    0.0100    0.0100    0.0100    0.0100    0.0100    0.0100    0.0100
    0.0100    0.0100    0.0100    0.0100    0.0100    0.0100    0.0100    0.0100
    0.0100    0.0100    0.0100    0.0100    0.0100    0.0100    0.0100    0.0100
    0.0100    0.0100    0.0100    0.0100    0.0100    0.0100    0.0100    0.0100
    0.0100    0.0100    0.0100    0.0100    0.0100    0.0100    0.0100    0.0100
    0.0100    0.0100    0.0100    0.0100    0.0100    0.0100    0.0100    0.0100
    0.0100    0.0100    0.0100    0.0100    0.0100    0.0100    0.0100    0.0100
    0.0100    0.0100    0.0100    0.0100    0.0100    0.0100    0.0100    0.0100
    0.0100    0.0100    0.0100    0.0100    0.0100    0.0100    0.0100    0.0100
    0.0100    0.0100    0.0100    0.0100    0.0100    0.0100    0.0100    0.0100
    0.0100    0.0100    0.0100    0.0100    0.0100    0.0100    0.0100    0.0100
    0.0100    0.0100    0.0100    0.0100    0.0100    0.0100    0.0100    0.0100
    0.0100    0.0100    0.0100    0.0100    0.0100    0.0100    0.0100    0.0100
    0.0100    0.0100    0.0100    0.0100    0.0100    0.0100    0.0100    0.0100
    0.0100    0.0100    0.0100    0.0100    0.0100    0.0100    0.0100    0.0100
    0.0100    0.0100    0.0100    0.0100    0.0100    0.0100    0.0100    0.0100
    0.0100    0.0100    0.0100    0.0100    0.0100    0.0100    0.0100    0.0100
    0.0100    0.0100    0.0100    0.0100    0.0100    0.0100    0.0100    0.0100
    0.0100    0.0100    0.0100    0.0100    0.0100    0.0100    0.0100    0.0100
    0.0100    0.0100    0.0100    0.0100    0.0100    0.0100    0.0100    0.0100
    0.0100    0.0100    0.0100    0.0100    0.0100    0.0100    0.0100    0.0100
    0.0100    0.0100    0.0100    0.0100    0.0100    0.0100    0.0100    0.0100
    0.0100    0.0100    0.0100    0.0100    0.0100    0.0100    0.0100    0.0100
    0.0100    0.0100    0.0100    0.0100    0.0100    0.0100    0.0100    0.0100
    0.0100    0.0100    0.0100    0.0100    0.0100    0.0100    0.0100    0.0100
    0.0100    0.0100    0.0100    0.0100    0.0100    0.0100    0.0100    0.0100
    0.0100    0.0100    0.0100    0.0100    0.0100    0.0100    0.0100    0.0100
    0.0100    0.0100    0.0100    0.0100    0.0100    0.0100    0.0100    0.0100
    0.0100    0.0100    0.0100    0.0100    0.0100    0.0100    0.0100    0.0100
    0.0100    0.0100    0.0100    0.0100    0.0100    0.0100    0.0100    0.0100
    0.0100    0.0100    0.0100    0.0100    0.0100    0.0100    0.0100    0.0100
    0.0100    0.0100    0.0100    0.0100    0.0100    0.0100    0.0100    0.0100
    0.0100    0.0100    0.0100    0.0100    0.0100    0.0100    0.0100    0.0100
    0.0100    0.0100    0.0100    0.0100    0.0100    0.0100    0.0100    0.0100
    0.0100    0.0100    0.0100    0.0100    0.0100    0.0100    0.0100    0.0100
    0.0100    0.0100    0.0100    0.0100    0.0100    0.0100    0.0100    0.0100
    0.0100    0.0100    0.0100    0.0100    0.0100    0.0100    0.0100    0.0100
    0.0100    0.0100    0.0100    0.0100    0.0100    0.0100    0.0100    0.0100
    0.0100    0.0100    0.0100    0.0100    0.0100    0.0100    0.0100    0.0100
    0.0100    0.0100    0.0100    0.0100    0.0100    0.0100    0.0100    0.0100
    0.0100    0.0100    0.0100    0.0100    0.0100    0.0100    0.0100    0.0100
    0.0100    0.0100    0.0100    0.0100    0.0100    0.0100    0.0100    0.0100
    0.0100    0.0100    0.0100    0.0100    0.0100    0.0100    0.0100    0.0100
    0.0100    0.0100    0.0100    0.0100    0.0100    0.0100    0.0100    0.0100
    0.0100    0.0100    0.0100    0.0100    0.0100    0.0100    0.0100    0.0100
    0.0100    0.0100    0.0100    0.0100    0.0100    0.0100    0.0100    0.0100
    0.0100    0.0100    0.0100    0.0100    0.0100    0.0100    0.0100    0.0100
    0.0100    0.0100    0.0100    0.0100    0.0100    0.0100    0.0100    0.0100
    0.0100    0.0100    0.0100    0.0100    0.0100    0.0100    0.0100    0.0100
    0.0100    0.0100    0.0100    0.0100    0.0100    0.0100    0.0100    0.0100
    0.0100    0.0100    0.0100    0.0100    0.0100    0.0100    0.0100    0.0100
    0.0100    0.0100    0.0100    0.0100    0.0100    0.0100    0.0100    0.0100
    0.0100    0.0100    0.0100    0.0100    0.0100    0.0100    0.0100    0.0100
    0.0100    0.0100    0.0100    0.0100    0.0100    0.0100    0.0100    0.0100
    0.0100    0.0100    0.0100    0.0100    0.0100    0.0100    0.0100    0.0100
    0.0100    0.0100    0.0100    0.0100    0.0100    0.0100    0.0100    0.0100
    0.0100    0.0100    0.0100    0.0100    0.0100    0.0100    0.0100    0.0100
    0.0100    0.0100    0.0100    0.0100    0.0100    0.0100    0.0100    0.0100
    0.0100    0.0100    0.0100    0.0100    0.0100    0.0100    0.0100    0.0100
    0.0100    0.0100    0.0100    0.0100    0.0100    0.0100    0.0100    0.0100
    0.0100    0.0100    0.0100    0.0100    0.0100    0.0100    0.0100    0.0100
    0.0100    0.0100    0.0100    0.0100    0.0100    0.0100    0.0100    0.0100
    0.0100    0.0100    0.0100    0.0100    0.0100    0.0100    0.0100    0.0100
    0.0100    0.0100    0.0100    0.0100    0.0100    0.0100    0.0100    0.0100
    0.0100    0.0100    0.0100    0.0100    0.0100    0.0100    0.0100    0.0100
    0.0100    0.0100    0.0100    0.0100    0.0100    0.0100    0.0100    0.0100
    0.0100    0.0100    0.0100    0.0100    0.0100    0.0100    0.0100    0.0100
    0.0100    0.0100    0.0100    0.0100    0.0100    0.0100    0.0100    0.0100
    0.0100    0.0100    0.0100    0.0100    0.0100    0.0100    0.0100    0.0100
    0.0100    0.0100    0.0100    0.0100    0.0100    0.0100    0.0100    0.0100
    0.0100    0.0100    0.0100    0.0100    0.0100    0.0100    0.0100    0.0100
    0.0100    0.0100    0.0100    0.0100    0.0100    0.0100    0.0100    0.0100
    0.0100    0.0100    0.0100    0.0100    0.0100    0.0100    0.0100    0.0100
    0.0100    0.0100    0.0100    0.0100    0.0100    0.0100    0.0100    0.0100
    0.0100    0.0100    0.0100    0.0100    0.0100    0.0100    0.0100    0.0100
    0.0100    0.0100    0.0100    0.0100    0.0100    0.0100    0.0100    0.0100
    0.0100    0.0100    0.0100    0.0100    0.0100    0.0100    0.0100    0.0100
    0.0100    0.0100    0.0100    0.0100    0.0100    0.0100    0.0100    0.0100
    0.0100    0.0100    0.0100    0.0100    0.0100    0.0100    0.0100    0.0100
    0.0100    0.0100    0.0100    0.0100    0.0100    0.0100    0.0100    0.0100
    0.0100    0.0100    0.0100    0.0100    0.0100    0.0100    0.0100    0.0100
    0.0100    0.0100    0.0100    0.0100    0.0100    0.0100    0.0100    0.0100
    0.0100    0.0100    0.0100    0.0100    0.0100    0.0100    0.0100    0.0100
    0.0100    0.0100    0.0100    0.0100    0.0100    0.0100    0.0100    0.0100
    0.0100    0.0100    0.0100    0.0100    0.0100    0.0100    0.0100    0.0100
    0.0100    0.0100    0.0100    0.0100    0.0100    0.0100    0.0100    0.0100
    0.0100    0.0100    0.0100    0.0100    0.0100    0.0100    0.0100    0.0100
    0.0100    0.0100    0.0100    0.0100    0.0100    0.0100    0.0100    0.0100
    0.0100    0.0100    0.0100    0.0100    0.0100    0.0100    0.0100    0.0100
    0.0100    0.0100    0.0100    0.0100    0.0100    0.0100    0.0100    0.0100
    0.0100    0.0100    0.0100    0.0100    0.0100    0.0100    0.0100    0.0100
    0.0100    0.0100    0.0100    0.0100    0.0100    0.0100    0.0100    0.0100
    0.0100    0.0100    0.0100    0.0100    0.0100    0.0100    0.0100    0.0100
    0.0100    0.0100    0.0100    0.0100    0.0100    0.0100    0.0100    0.0100
    0.0100    0.0100    0.0100    0.0100    0.0100    0.0100    0.0100    0.0100
    0.0100    0.0100    0.0100    0.0100    0.0100    0.0100    0.0100    0.0100
    0.0100    0.0100    0.0100    0.0100    0.0100    0.0100    0.0100    0.0100
    0.0100    0.0100    0.0100    0.0100    0.0100    0.0100    0.0100    0.0100
    0.0100    0.0100    0.0100    0.0100    0.0100    0.0100    0.0100    0.0100
    0.0100    0.0100    0.0100    0.0100    0.0100    0.0100    0.0100    0.0100
    0.0100    0.0100    0.0100    0.0100    0.0100    0.0100    0.0100    0.0100
    0.0100    0.0100    0.0100    0.0100    0.0100    0.0100    0.0100    0.0100
    0.0100    0.0100    0.0100    0.0100    0.0100    0.0100    0.0100    0.0100
    0.0100    0.0100    0.0100    0.0100    0.0100    0.0100    0.0100    0.0100
    0.0100    0.0100    0.0100    0.0100    0.0100    0.0100    0.0100    0.0100
    0.0100    0.0100    0.0100    0.0100    0.0100    0.0100    0.0100    0.0100
    0.0100    0.0100    0.0100    0.0100    0.0100    0.0100    0.0100    0.0100
    0.0100    0.0100    0.0100    0.0100    0.0100    0.0100    0.0100    0.0100
    0.0100    0.0100    0.0100    0.0100    0.0100    0.0100    0.0100    0.0100
    0.0100    0.0100    0.0100    0.0100    0.0100    0.0100    0.0100    0.0100
    0.0100    0.0100    0.0100    0.0100    0.0100    0.0100    0.0100    0.0100
    0.0100    0.0100    0.0100    0.0100    0.0100    0.0100    0.0100    0.0100
    0.0100    0.0100    0.0100    0.0100    0.0100    0.0100    0.0100    0.0100
    0.0100    0.0100    0.0100    0.0100    0.0100    0.0100    0.0100    0.0100
    0.0100    0.0100    0.0100    0.0100    0.0100    0.0100    0.0100    0.0100
    0.0100    0.0100    0.0100    0.0100    0.0100    0.0100    0.0100    0.0100
    0.0100    0.0100    0.0100    0.0100    0.0100    0.0100    0.0100    0.0100
    0.0100    0.0100    0.0100    0.0100    0.0100    0.0100    0.0100    0.0100
    0.0100    0.0100    0.0100    0.0100    0.0100    0.0100    0.0100    0.0100
    0.0100    0.0100    0.0100    0.0100    0.0100    0.0100    0.0100    0.0100
    0.0100    0.0100    0.0100    0.0100    0.0100    0.0100    0.0100    0.0100
    0.0100    0.0100    0.0100    0.0100    0.0100    0.0100    0.0100    0.0100
    0.0100    0.0100    0.0100    0.0100    0.0100    0.0100    0.0100    0.0100
    0.0100    0.0100    0.0100    0.0100    0.0100    0.0100    0.0100    0.0100
    0.0100    0.0100    0.0100    0.0100    0.0100    0.0100    0.0100    0.0100
    0.0100    0.0100    0.0100    0.0100    0.0100    0.0100    0.0100    0.0100
    0.0100    0.0100    0.0100    0.0100    0.0100    0.0100    0.0100    0.0100
    0.0100    0.0100    0.0100    0.0100    0.0100    0.0100    0.0100    0.0100
    0.0100    0.0100    0.0100    0.0100    0.0100    0.0100    0.0100    0.0100
    0.0100    0.0100    0.0100    0.0100    0.0100    0.0100    0.0100    0.0100
    0.0100    0.0100    0.0100    0.0100    0.0100    0.0100    0.0100    0.0100
    0.0100    0.0100    0.0100    0.0100    0.0100    0.0100
   </PP_RAB>
 </PP_MESH>
  <PP_LOCAL type="real"  size="1630" columns="4">
   -2.4249090229E+01   -2.9615354472E+01   -2.9598809029E+01   -2.9581591971E+01
   -2.9586439988E+01   -2.9657594812E+01   -2.9859800136E+01   -3.0239612185E+01
   -3.0732167783E+01   -3.1107167510E+01   -3.1128840601E+01   -3.0809697454E+01
   -3.0375641133E+01   -3.0017282162E+01   -2.9788094233E+01   -2.9661087700E+01
   -2.9594264655E+01   -2.9556704098E+01   -2.9530933524E+01   -2.9508595982E+01
   -2.9486300546E+01   -2.9463024358E+01   -2.9438746890E+01   -2.9413802130E+01
   -2.9388593495E+01   -2.9363476107E+01   -2.9338710738E+01   -2.9314446295E+01
   -2.9290713046E+01   -2.9267420353E+01   -2.9244357557E+01   -2.9221198541E+01
   -2.9197510935E+01   -2.9172770740E+01   -2.9146382603E+01   -2.9117705330E+01
   -2.9086081554E+01   -2.9050869890E+01   -2.9011477522E+01   -2.8967390940E+01
   -2.8918202671E+01   -2.8863632075E+01   -2.8803538816E+01   -2.8737928184E+01
   -2.8666948114E+01   -2.8590878375E+01   -2.8510112978E+01   -2.8425137303E+01
   -2.8336501764E+01   -2.8244794017E+01   -2.8150611683E+01   -2.8054537407E+01
   -2.7957117697E+01   -2.7858846576E+01   -2.7760154497E+01   -2.7661402494E+01
   -2.7562881075E+01   -2.7464813018E+01   -2.7367359098E+01   -2.7270625669E+01
   -2.7174673176E+01   -2.7079524782E+01   -2.6985174521E+01   -2.6891594594E+01
   -2.6798741582E+01   -2.6706561537E+01   -2.6614993964E+01   -2.6523974830E+01
   -2.6433438718E+01   -2.6343320290E+01   -2.6253555206E+01   -2.6164080630E+01
   -2.6074835433E+01   -2.5985760199E+01   -2.5896797097E+01   -2.5807889684E+01
   -2.5718982685E+01   -2.5630021780E+01   -2.5540953425E+01   -2.5451724722E+01
   -2.5362283348E+01   -2.5272577547E+01   -2.5182556198E+01   -2.5092168942E+01
   -2.5001366374E+01   -2.4910100293E+01   -2.4818323994E+01   -2.4725992607E+01
   -2.4633063456E+01   -2.4539496435E+01   -2.4445254385E+01   -2.4350303467E+01
   -2.4254613501E+01   -2.4158158286E+01   -2.4060915866E+01   -2.3962868749E+01
   -2.3864004071E+01   -2.3764313697E+01   -2.3663794252E+01   -2.3562447099E+01
   -2.3460278246E+01   -2.3357298203E+01   -2.3253521784E+01   -2.3148967857E+01
   -2.3043659068E+01   -2.2937621528E+01   -2.2830884476E+01   -2.2723479937E+01
   -2.2615442366E+01   -2.2506808299E+01   -2.2397616008E+01   -2.2287905172E+01
   -2.2177716565E+01   -2.2067091763E+01   -2.1956072877E+01   -2.1844702308E+01
   -2.1733022534E+01   -2.1621075912E+01   -2.1508904519E+01   -2.1396550002E+01
   -2.1284053465E+01   -2.1171455366E+01   -2.1058795440E+01   -2.0946112633E+01
   -2.0833445059E+01   -2.0720829961E+01   -2.0608303688E+01   -2.0495901682E+01
   -2.0383658470E+01   -2.0271607663E+01   -2.0159781961E+01   -2.0048213156E+01
   -1.9936932147E+01   -1.9825968947E+01   -1.9715352698E+01   -1.9605111678E+01
   -1.9495273317E+01   -1.9385864206E+01   -1.9276910106E+01   -1.9168435957E+01
   -1.9060465886E+01   -1.8953023208E+01   -1.8846130433E+01   -1.8739809269E+01
   -1.8634080617E+01   -1.8528964575E+01   -1.8424480434E+01   -1.8320646672E+01
   -1.8217480951E+01   -1.8115000109E+01   -1.8013220155E+01   -1.7912156259E+01
   -1.7811822745E+01   -1.7712233081E+01   -1.7613399873E+01   -1.7515334851E+01
   -1.7418048867E+01   -1.7321551880E+01   -1.7225852954E+01   -1.7130960253E+01
   -1.7036881028E+01   -1.6943621624E+01   -1.6851187470E+01   -1.6759583083E+01
   -1.6668812072E+01   -1.6578877138E+01   -1.6489780086E+01   -1.6401521831E+01
   -1.6314102414E+01   -1.6227521015E+01   -1.6141775972E+01   -1.6056864802E+01
   -1.5972784222E+01   -1.5889530178E+01   -1.5807097870E+01   -1.5725481780E+01
   -1.5644675706E+01   -1.5564672791E+01   -1.5485465555E+01   -1.5407045926E+01
   -1.5329405273E+01   -1.5252534431E+01   -1.5176423736E+01   -1.5101063042E+01
   -1.5026441752E+01   -1.4952548830E+01   -1.4879372821E+01   -1.4806901863E+01
   -1.4735123690E+01   -1.4664025640E+01   -1.4593594651E+01   -1.4523817254E+01
   -1.4454679574E+01   -1.4386167281E+01   -1.4318265884E+01   -1.4250961212E+01
   -1.4184239643E+01   -1.4118088053E+01   -1.4052493792E+01   -1.3987444663E+01
   -1.3922928897E+01   -1.3858935126E+01   -1.3795452361E+01   -1.3732469972E+01
   -1.3669977669E+01   -1.3607965485E+01   -1.3546423764E+01   -1.3485343154E+01
   -1.3424714600E+01   -1.3364529343E+01   -1.3304778922E+01   -1.3245455181E+01
   -1.3186550278E+01   -1.3128056694E+01   -1.3069967248E+01   -1.3012275108E+01
   -1.2954973814E+01   -1.2898057282E+01   -1.2841519827E+01   -1.2785356172E+01
   -1.2729561453E+01   -1.2674131235E+01   -1.2619061509E+01   -1.2564348691E+01
   -1.2509989622E+01   -1.2455981553E+01   -1.2402322138E+01   -1.2349009412E+01
   -1.2296041769E+01   -1.2243417942E+01   -1.2191136967E+01   -1.2139198161E+01
   -1.2087601082E+01   -1.2036345500E+01   -1.1985431358E+01   -1.1934858740E+01
   -1.1884627834E+01   -1.1834738902E+01   -1.1785192245E+01   -1.1735988173E+01
   -1.1687126979E+01   -1.1638608912E+01   -1.1590434157E+01   -1.1542602811E+01
   -1.1495114870E+01   -1.1447970216E+01   -1.1401168601E+01   -1.1354709643E+01
   -1.1308592818E+01   -1.1262817459E+01   -1.1217382750E+01   -1.1172287733E+01
   -1.1127531301E+01   -1.1083112212E+01   -1.1039029085E+01   -1.0995280409E+01
   -1.0951864549E+01   -1.0908779753E+01   -1.0866024159E+01   -1.0823595799E+01
   -1.0781492612E+01   -1.0739712446E+01   -1.0698253064E+01   -1.0657112158E+01
   -1.0616287345E+01   -1.0575776179E+01   -1.0535576154E+01   -1.0495684708E+01
   -1.0456099232E+01   -1.0416817070E+01   -1.0377835523E+01   -1.0339151853E+01
   -1.0300763282E+01   -1.0262666993E+01   -1.0224860139E+01   -1.0187339835E+01
   -1.0150103167E+01   -1.0113147186E+01   -1.0076468912E+01   -1.0040065342E+01
   -1.0003933467E+01   -9.9680702928E+00   -9.9324728465E+00   -9.8971381848E+00
   -9.8620633826E+00   -9.8272455328E+00   -9.7926817453E+00   -9.7583691513E+00
   -9.7243049044E+00   -9.6904861800E+00   -9.6569101757E+00   -9.6235741104E+00
   -9.5904752292E+00   -9.5576108068E+00   -9.5249781578E+00   -9.4925746396E+00
   -9.4603976515E+00   -9.4284446305E+00   -9.3967130423E+00   -9.3652003839E+00
   -9.3339041837E+00   -9.3028220035E+00   -9.2719514394E+00   -9.2412901205E+00
   -9.2108357090E+00   -9.1805859006E+00   -9.1505384245E+00   -9.1206910432E+00
   -9.0910415529E+00   -9.0615877832E+00   -9.0323275967E+00   -9.0032588898E+00
   -8.9743795915E+00   -8.9456876641E+00   -8.9171811025E+00   -8.8888579344E+00
   -8.8607162196E+00   -8.8327540503E+00   -8.8049695502E+00   -8.7773608748E+00
   -8.7499262108E+00   -8.7226637759E+00   -8.6955718182E+00   -8.6686486161E+00
   -8.6418924775E+00   -8.6153017398E+00   -8.5888747689E+00   -8.5626099594E+00
   -8.5365057340E+00   -8.5105605428E+00   -8.4847728631E+00   -8.4591411989E+00
   -8.4336640801E+00   -8.4083400625E+00   -8.3831677268E+00   -8.3581456782E+00
   -8.3332725463E+00   -8.3085469847E+00   -8.2839676705E+00   -8.2595333029E+00
   -8.2352426020E+00   -8.2110943060E+00   -8.1870871685E+00   -8.1632199575E+00
   -8.1394914542E+00   -8.1159004533E+00   -8.0924457638E+00   -8.0691262085E+00
   -8.0459406238E+00   -8.0228878597E+00   -7.9999667788E+00   -7.9771762569E+00
   -7.9545151826E+00   -7.9319824568E+00   -7.9095769932E+00   -7.8872977173E+00
   -7.8651435668E+00   -7.8431134915E+00   -7.8212064525E+00   -7.7994214229E+00
   -7.7777573867E+00   -7.7562133395E+00   -7.7347882879E+00   -7.7134812494E+00
   -7.6922912522E+00   -7.6712173351E+00   -7.6502585476E+00   -7.6294139494E+00
   -7.6086826104E+00   -7.5880636106E+00   -7.5675560398E+00   -7.5471589978E+00
   -7.5268715938E+00   -7.5066929469E+00   -7.4866221852E+00   -7.4666584464E+00
   -7.4468008772E+00   -7.4270486334E+00   -7.4074008796E+00   -7.3878567894E+00
   -7.3684155448E+00   -7.3490763367E+00   -7.3298383642E+00   -7.3107008349E+00
   -7.2916629646E+00   -7.2727239772E+00   -7.2538831047E+00   -7.2351395869E+00
   -7.2164926715E+00   -7.1979416140E+00   -7.1794856775E+00   -7.1611241324E+00
   -7.1428562568E+00   -7.1246813360E+00   -7.1065986627E+00   -7.0886075366E+00
   -7.0707072644E+00   -7.0528971600E+00   -7.0351765440E+00   -7.0175447440E+00
   -7.0000010940E+00   -6.9825449349E+00   -6.9651756141E+00   -6.9478924855E+00
   -6.9306949091E+00   -6.9135822516E+00   -6.8965538858E+00   -6.8796091906E+00
   -6.8627475509E+00   -6.8459683578E+00   -6.8292710083E+00   -6.8126549051E+00
   -6.7961194569E+00   -6.7796640780E+00   -6.7632881884E+00   -6.7469912136E+00
   -6.7307725847E+00   -6.7146317382E+00   -6.6985681161E+00   -6.6825811657E+00
   -6.6666703394E+00   -6.6508350950E+00   -6.6350748953E+00   -6.6193892082E+00
   -6.6037775063E+00   -6.5882392677E+00   -6.5727739752E+00   -6.5573811163E+00
   -6.5420601838E+00   -6.5268106745E+00   -6.5116320905E+00   -6.4965239380E+00
   -6.4814857280E+00   -6.4665169760E+00   -6.4516172019E+00   -6.4367859303E+00
   -6.4220226898E+00   -6.4073270134E+00   -6.3926984385E+00   -6.3781365067E+00
   -6.3636407635E+00   -6.3492107588E+00   -6.3348460466E+00   -6.3205461846E+00
   -6.3063107348E+00   -6.2921392630E+00   -6.2780313389E+00   -6.2639865361E+00
   -6.2500044320E+00   -6.2360846077E+00   -6.2222266480E+00   -6.2084301414E+00
   -6.1946946802E+00   -6.1810198601E+00   -6.1674052805E+00   -6.1538505442E+00
   -6.1403552575E+00   -6.1269190302E+00   -6.1135414755E+00   -6.1002222100E+00
   -6.0869608535E+00   -6.0737570292E+00   -6.0606103636E+00   -6.0475204864E+00
   -6.0344870304E+00   -6.0215096316E+00   -6.0085879292E+00   -5.9957215654E+00
   -5.9829101855E+00   -5.9701534378E+00   -5.9574509736E+00   -5.9448024472E+00
   -5.9322075159E+00   -5.9196658396E+00   -5.9071770813E+00   -5.8947409069E+00
   -5.8823569849E+00   -5.8700249868E+00   -5.8577445866E+00   -5.8455154613E+00
   -5.8333372904E+00   -5.8212097560E+00   -5.8091325431E+00   -5.7971053391E+00
   -5.7851278340E+00   -5.7731997204E+00   -5.7613206935E+00   -5.7494904509E+00
   -5.7377086927E+00   -5.7259751215E+00   -5.7142894422E+00   -5.7026513622E+00
   -5.6910605914E+00   -5.6795168418E+00   -5.6680198278E+00   -5.6565692663E+00
   -5.6451648764E+00   -5.6338063792E+00   -5.6224934983E+00   -5.6112259596E+00
   -5.6000034909E+00   -5.5888258225E+00   -5.5776926864E+00   -5.5666038173E+00
   -5.5555589515E+00   -5.5445578277E+00   -5.5336001866E+00   -5.5226857708E+00
   -5.5118143252E+00   -5.5009855963E+00   -5.4901993331E+00   -5.4794552861E+00
   -5.4687532080E+00   -5.4580928533E+00   -5.4474739787E+00   -5.4368963424E+00
   -5.4263597047E+00   -5.4158638276E+00   -5.4054084752E+00   -5.3949934131E+00
   -5.3846184090E+00   -5.3742832322E+00   -5.3639876538E+00   -5.3537314466E+00
   -5.3435143852E+00   -5.3333362461E+00   -5.3231968071E+00   -5.3130958479E+00
   -5.3030331500E+00   -5.2930084964E+00   -5.2830216717E+00   -5.2730724622E+00
   -5.2631606557E+00   -5.2532860419E+00   -5.2434484116E+00   -5.2336475576E+00
   -5.2238832739E+00   -5.2141553564E+00   -5.2044636022E+00   -5.1948078100E+00
   -5.1851877801E+00   -5.1756033141E+00   -5.1660542152E+00   -5.1565402880E+00
   -5.1470613385E+00   -5.1376171742E+00   -5.1282076040E+00   -5.1188324381E+00
   -5.1094914883E+00   -5.1001845674E+00   -5.0909114900E+00   -5.0816720718E+00
   -5.0724661297E+00   -5.0632934823E+00   -5.0541539492E+00   -5.0450473515E+00
   -5.0359735113E+00   -5.0269322524E+00   -5.0179233994E+00   -5.0089467786E+00
   -5.0000022172E+00   -4.9910895438E+00   -4.9822085882E+00   -4.9733591814E+00
   -4.9645411555E+00   -4.9557543440E+00   -4.9469985813E+00   -4.9382737033E+00
   -4.9295795467E+00   -4.9209159497E+00   -4.9122827513E+00   -4.9036797919E+00
   -4.8951069129E+00   -4.8865639567E+00   -4.8780507670E+00   -4.8695671885E+00
   -4.8611130669E+00   -4.8526882492E+00   -4.8442925832E+00   -4.8359259178E+00
   -4.8275881031E+00   -4.8192789901E+00   -4.8109984308E+00   -4.8027462783E+00
   -4.7945223867E+00   -4.7863266111E+00   -4.7781588075E+00   -4.7700188330E+00
   -4.7619065456E+00   -4.7538218042E+00   -4.7457644688E+00   -4.7377344003E+00
   -4.7297314604E+00   -4.7217555121E+00   -4.7138064189E+00   -4.7058840454E+00
   -4.6979882571E+00   -4.6901189205E+00   -4.6822759029E+00   -4.6744590723E+00
   -4.6666682980E+00   -4.6589034498E+00   -4.6511643985E+00   -4.6434510158E+00
   -4.6357631742E+00   -4.6281007470E+00   -4.6204636085E+00   -4.6128516336E+00
   -4.6052646982E+00   -4.5977026790E+00   -4.5901654533E+00   -4.5826528995E+00
   -4.5751648966E+00   -4.5677013245E+00   -4.5602620638E+00   -4.5528469958E+00
   -4.5454560029E+00   -4.5380889679E+00   -4.5307457745E+00   -4.5234263072E+00
   -4.5161304512E+00   -4.5088580923E+00   -4.5016091174E+00   -4.4943834137E+00
   -4.4871808694E+00   -4.4800013734E+00   -4.4728448151E+00   -4.4657110848E+00
   -4.4586000735E+00   -4.4515116728E+00   -4.4444457751E+00   -4.4374022733E+00
   -4.4303810611E+00   -4.4233820330E+00   -4.4164050839E+00   -4.4094501095E+00
   -4.4025170062E+00   -4.3956056709E+00   -4.3887160014E+00   -4.3818478958E+00
   -4.3750012532E+00   -4.3681759730E+00   -4.3613719554E+00   -4.3545891013E+00
   -4.3478273120E+00   -4.3410864896E+00   -4.3343665366E+00   -4.3276673564E+00
   -4.3209888528E+00   -4.3143309301E+00   -4.3076934934E+00   -4.3010764483E+00
   -4.2944797009E+00   -4.2879031581E+00   -4.2813467270E+00   -4.2748103157E+00
   -4.2682938325E+00   -4.2617971865E+00   -4.2553202872E+00   -4.2488630447E+00
   -4.2424253696E+00   -4.2360071732E+00   -4.2296083672E+00   -4.2232288639E+00
   -4.2168685760E+00   -4.2105274168E+00   -4.2042053002E+00   -4.1979021406E+00
   -4.1916178527E+00   -4.1853523520E+00   -4.1791055544E+00   -4.1728773761E+00
   -4.1666677342E+00   -4.1604765460E+00   -4.1543037292E+00   -4.1481492024E+00
   -4.1420128843E+00   -4.1358946942E+00   -4.1297945519E+00   -4.1237123777E+00
   -4.1176480923E+00   -4.1116016168E+00   -4.1055728731E+00   -4.0995617830E+00
   -4.0935682694E+00   -4.0875922550E+00   -4.0816336636E+00   -4.0756924188E+00
   -4.0697684452E+00   -4.0638616674E+00   -4.0579720108E+00   -4.0520994010E+00
   -4.0462437642E+00   -4.0404050267E+00   -4.0345831156E+00   -4.0287779583E+00
   -4.0229894825E+00   -4.0172176164E+00   -4.0114622886E+00   -4.0057234282E+00
   -4.0000009646E+00   -3.9942948276E+00   -3.9886049474E+00   -3.9829312547E+00
   -3.9772736805E+00   -3.9716321562E+00   -3.9660066135E+00   -3.9603969848E+00
   -3.9548032024E+00   -3.9492251995E+00   -3.9436629093E+00   -3.9381162655E+00
   -3.9325852022E+00   -3.9270696538E+00   -3.9215695551E+00   -3.9160848414E+00
   -3.9106154481E+00   -3.9051613112E+00   -3.8997223669E+00   -3.8942985519E+00
   -3.8888898030E+00   -3.8834960575E+00   -3.8781172533E+00   -3.8727533282E+00
   -3.8674042205E+00   -3.8620698691E+00   -3.8567502129E+00   -3.8514451912E+00
   -3.8461547438E+00   -3.8408788107E+00   -3.8356173322E+00   -3.8303702490E+00
   -3.8251375021E+00   -3.8199190329E+00   -3.8147147829E+00   -3.8095246942E+00
   -3.8043487090E+00   -3.7991867699E+00   -3.7940388198E+00   -3.7889048020E+00
   -3.7837846598E+00   -3.7786783373E+00   -3.7735857784E+00   -3.7685069277E+00
   -3.7634417298E+00   -3.7583901297E+00   -3.7533520728E+00   -3.7483275047E+00
   -3.7433163713E+00   -3.7383186188E+00   -3.7333341936E+00   -3.7283630425E+00
   -3.7234051126E+00   -3.7184603512E+00   -3.7135287059E+00   -3.7086101245E+00
   -3.7037045552E+00   -3.6988119466E+00   -3.6939322471E+00   -3.6890654060E+00
   -3.6842113723E+00   -3.6793700956E+00   -3.6745415257E+00   -3.6697256125E+00
   -3.6649223065E+00   -3.6601315582E+00   -3.6553533183E+00   -3.6505875380E+00
   -3.6458341686E+00   -3.6410931617E+00   -3.6363644691E+00   -3.6316480429E+00
   -3.6269438354E+00   -3.6222517992E+00   -3.6175718871E+00   -3.6129040522E+00
   -3.6082482478E+00   -3.6036044275E+00   -3.5989725450E+00   -3.5943525544E+00
   -3.5897444100E+00   -3.5851480661E+00   -3.5805634776E+00   -3.5759905995E+00
   -3.5714293868E+00   -3.5668797950E+00   -3.5623417799E+00   -3.5578152971E+00
   -3.5533003029E+00   -3.5487967536E+00   -3.5443046056E+00   -3.5398238158E+00
   -3.5353543411E+00   -3.5308961388E+00   -3.5264491661E+00   -3.5220133808E+00
   -3.5175887407E+00   -3.5131752039E+00   -3.5087727285E+00   -3.5043812731E+00
   -3.5000007963E+00   -3.4956312571E+00   -3.4912726144E+00   -3.4869248277E+00
   -3.4825878563E+00   -3.4782616600E+00   -3.4739461987E+00   -3.4696414324E+00
   -3.4653473215E+00   -3.4610638265E+00   -3.4567909080E+00   -3.4525285269E+00
   -3.4482766442E+00   -3.4440352213E+00   -3.4398042196E+00   -3.4355836007E+00
   -3.4313733264E+00   -3.4271733588E+00   -3.4229836601E+00   -3.4188041926E+00
   -3.4146349189E+00   -3.4104758019E+00   -3.4063268043E+00   -3.4021878893E+00
   -3.3980590202E+00   -3.3939401605E+00   -3.3898312738E+00   -3.3857323240E+00
   -3.3816432750E+00   -3.3775640910E+00   -3.3734947364E+00   -3.3694351756E+00
   -3.3653853734E+00   -3.3613452946E+00   -3.3573149043E+00   -3.3532941675E+00
   -3.3492830497E+00   -3.3452815165E+00   -3.3412895334E+00   -3.3373070664E+00
   -3.3333340814E+00   -3.3293705447E+00   -3.3254164225E+00   -3.3214716815E+00
   -3.3175362881E+00   -3.3136102093E+00   -3.3096934119E+00   -3.3057858632E+00
   -3.3018875304E+00   -3.2979983810E+00   -3.2941183825E+00   -3.2902475026E+00
   -3.2863857093E+00   -3.2825329707E+00   -3.2786892548E+00   -3.2748545301E+00
   -3.2710287650E+00   -3.2672119282E+00   -3.2634039884E+00   -3.2596049146E+00
   -3.2558146759E+00   -3.2520332414E+00   -3.2482605805E+00   -3.2444966628E+00
   -3.2407414578E+00   -3.2369949354E+00   -3.2332570654E+00   -3.2295278180E+00
   -3.2258071633E+00   -3.2220950717E+00   -3.2183915136E+00   -3.2146964597E+00
   -3.2110098806E+00   -3.2073317473E+00   -3.2036620308E+00   -3.2000007022E+00
   -3.1963477328E+00   -3.1927030940E+00   -3.1890667573E+00   -3.1854386944E+00
   -3.1818188771E+00   -3.1782072773E+00   -3.1746038671E+00   -3.1710086187E+00
   -3.1674215042E+00   -3.1638424963E+00   -3.1602715673E+00   -3.1567086900E+00
   -3.1531538373E+00   -3.1496069819E+00   -3.1460680970E+00   -3.1425371558E+00
   -3.1390141314E+00   -3.1354989973E+00   -3.1319917271E+00   -3.1284922943E+00
   -3.1250006728E+00   -3.1215168364E+00   -3.1180407590E+00   -3.1145724149E+00
   -3.1111117782E+00   -3.1076588232E+00   -3.1042135245E+00   -3.1007758565E+00
   -3.0973457940E+00   -3.0939233118E+00   -3.0905083847E+00   -3.0871009877E+00
   -3.0837010960E+00   -3.0803086848E+00   -3.0769237295E+00   -3.0735462054E+00
   -3.0701760882E+00   -3.0668133535E+00   -3.0634579771E+00   -3.0601099349E+00
   -3.0567692027E+00   -3.0534357568E+00   -3.0501095733E+00   -3.0467906285E+00
   -3.0434788988E+00   -3.0401743606E+00   -3.0368769907E+00   -3.0335867656E+00
   -3.0303036623E+00   -3.0270276575E+00   -3.0237587284E+00   -3.0204968519E+00
   -3.0172420054E+00   -3.0139941660E+00   -3.0107533112E+00   -3.0075194186E+00
   -3.0042924656E+00   -3.0010724300E+00   -2.9978592895E+00   -2.9946530220E+00
   -2.9914536056E+00   -2.9882610182E+00   -2.9850752380E+00   -2.9818962433E+00
   -2.9787240124E+00   -2.9755585238E+00   -2.9723997559E+00   -2.9692476874E+00
   -2.9661022971E+00   -2.9629635636E+00   -2.9598314660E+00   -2.9567059831E+00
   -2.9535870941E+00   -2.9504747780E+00   -2.9473690142E+00   -2.9442697820E+00
   -2.9411770608E+00   -2.9380908300E+00   -2.9350110693E+00   -2.9319377584E+00
   -2.9288708771E+00   -2.9258104050E+00   -2.9227563223E+00   -2.9197086089E+00
   -2.9166672448E+00   -2.9136322104E+00   -2.9106034858E+00   -2.9075810513E+00
   -2.9045648875E+00   -2.9015549748E+00   -2.8985512938E+00   -2.8955538252E+00
   -2.8925625496E+00   -2.8895774481E+00   -2.8865985013E+00   -2.8836256904E+00
   -2.8806589964E+00   -2.8776984004E+00   -2.8747438837E+00   -2.8717954275E+00
   -2.8688530132E+00   -2.8659166223E+00   -2.8629862363E+00   -2.8600618368E+00
   -2.8571434054E+00   -2.8542309239E+00   -2.8513243742E+00   -2.8484237381E+00
   -2.8455289976E+00   -2.8426401347E+00   -2.8397571316E+00   -2.8368799705E+00
   -2.8340086336E+00   -2.8311431032E+00   -2.8282833617E+00   -2.8254293917E+00
   -2.8225811757E+00   -2.8197386962E+00   -2.8169019360E+00   -2.8140708778E+00
   -2.8112455045E+00   -2.8084257990E+00   -2.8056117441E+00   -2.8028033230E+00
   -2.8000005187E+00   -2.7972033145E+00   -2.7944116935E+00   -2.7916256390E+00
   -2.7888451344E+00   -2.7860701632E+00   -2.7833007088E+00   -2.7805367548E+00
   -2.7777782849E+00   -2.7750252826E+00   -2.7722777319E+00   -2.7695356165E+00
   -2.7667989203E+00   -2.7640676272E+00   -2.7613417213E+00   -2.7586211866E+00
   -2.7559060074E+00   -2.7531961677E+00   -2.7504916518E+00   -2.7477924441E+00
   -2.7450985290E+00   -2.7424098909E+00   -2.7397265144E+00   -2.7370483839E+00
   -2.7343754841E+00   -2.7317077998E+00   -2.7290453156E+00   -2.7263880164E+00
   -2.7237358870E+00   -2.7210889124E+00   -2.7184470776E+00   -2.7158103676E+00
   -2.7131787674E+00   -2.7105522624E+00   -2.7079308376E+00   -2.7053144783E+00
   -2.7027031700E+00   -2.7000968979E+00   -2.6974956475E+00   -2.6948994044E+00
   -2.6923081540E+00   -2.6897218820E+00   -2.6871405741E+00   -2.6845642160E+00
   -2.6819927934E+00   -2.6794262922E+00   -2.6768646982E+00   -2.6743079975E+00
   -2.6717561759E+00   -2.6692092196E+00   -2.6666671147E+00   -2.6641298472E+00
   -2.6615974035E+00   -2.6590697697E+00   -2.6565469322E+00   -2.6540288773E+00
   -2.6515155914E+00   -2.6490070611E+00   -2.6465032728E+00   -2.6440042130E+00
   -2.6415098685E+00   -2.6390202259E+00   -2.6365352718E+00   -2.6340549931E+00
   -2.6315793766E+00   -2.6291084092E+00   -2.6266420776E+00   -2.6241803691E+00
   -2.6217232704E+00   -2.6192707688E+00   -2.6168228513E+00   -2.6143795050E+00
   -2.6119407173E+00   -2.6095064753E+00   -2.6070767663E+00   -2.6046515777E+00
   -2.6022308969E+00   -2.5998147113E+00   -2.5974030084E+00   -2.5949957758E+00
   -2.5925930011E+00   -2.5901946718E+00   -2.5878007756E+00   -2.5854113003E+00
   -2.5830262336E+00   -2.5806455634E+00   -2.5782692775E+00   -2.5758973637E+00
   -2.5735298101E+00   -2.5711666046E+00   -2.5688077353E+00   -2.5664531902E+00
   -2.5641029574E+00   -2.5617570252E+00   -2.5594153817E+00   -2.5570780152E+00
   -2.5547449139E+00   -2.5524160663E+00   -2.5500914606E+00   -2.5477710854E+00
   -2.5454549290E+00   -2.5431429799E+00   -2.5408352268E+00   -2.5385316582E+00
   -2.5362322627E+00   -2.5339370290E+00   -2.5316459459E+00   -2.5293590020E+00
   -2.5270761861E+00   -2.5247974872E+00   -2.5225228940E+00   -2.5202523955E+00
   -2.5179859806E+00   -2.5157236383E+00   -2.5134653577E+00   -2.5112111279E+00
   -2.5089609379E+00   -2.5067147768E+00   -2.5044726340E+00   -2.5022344985E+00
   -2.5000003597E+00   -2.4977702069E+00   -2.4955440294E+00   -2.4933218166E+00
   -2.4911035579E+00   -2.4888892428E+00   -2.4866788608E+00   -2.4844724014E+00
   -2.4822698541E+00   -2.4800712086E+00   -2.4778764545E+00   -2.4756855814E+00
   -2.4734985792E+00   -2.4713154376E+00   -2.4691361462E+00   -2.4669606951E+00
   -2.4647890739E+00   -2.4626212727E+00   -2.4604572813E+00   -2.4582970898E+00
   -2.4561406880E+00   -2.4539880661E+00   -2.4518392141E+00   -2.4496941221E+00
   -2.4475527803E+00   -2.4454151788E+00   -2.4432813079E+00   -2.4411511578E+00
   -2.4390247187E+00   -2.4369019810E+00   -2.4347829350E+00   -2.4326675711E+00
   -2.4305558797E+00   -2.4284478513E+00   -2.4263434763E+00   -2.4242427452E+00
   -2.4221456486E+00   -2.4200521771E+00   -2.4179623213E+00   -2.4158760717E+00
   -2.4137934192E+00   -2.4117143543E+00   -2.4096388679E+00   -2.4075669506E+00
   -2.4054985934E+00   -2.4034337870E+00   -2.4013725222E+00   -2.3993147901E+00
   -2.3972605815E+00   -2.3952098873E+00   -2.3931626986E+00   -2.3911190064E+00
   -2.3890788018E+00   -2.3870420757E+00   -2.3850088194E+00   -2.3829790239E+00
   -2.3809526804E+00   -2.3789297802E+00   -2.3769103145E+00   -2.3748942745E+00
   -2.3728816515E+00   -2.3708724368E+00   -2.3688666218E+00   -2.3668641979E+00
   -2.3648651565E+00   -2.3628694890E+00   -2.3608771868E+00   -2.3588882415E+00
   -2.3569026447E+00   -2.3549203877E+00   -2.3529414623E+00   -2.3509658600E+00
   -2.3489935725E+00   -2.3470245915E+00   -2.3450589085E+00   -2.3430965154E+00
   -2.3411374039E+00   -2.3391815658E+00   -2.3372289928E+00   -2.3352796769E+00
   -2.3333336098E+00   -2.3313907835E+00   -2.3294511898E+00   -2.3275148207E+00
   -2.3255816681E+00   -2.3236517242E+00   -2.3217249808E+00   -2.3198014300E+00
   -2.3178810639E+00   -2.3159638745E+00   -2.3140498541E+00   -2.3121389948E+00
   -2.3102312887E+00   -2.3083267280E+00   -2.3064253050E+00   -2.3045270119E+00
   -2.3026318410E+00   -2.3007397846E+00   -2.2988508350E+00   -2.2969649846E+00
   -2.2950822257E+00   -2.2932025509E+00   -2.2913259524E+00   -2.2894524227E+00
   -2.2875819544E+00   -2.2857145399E+00   -2.2838501718E+00   -2.2819888426E+00
   -2.2801305448E+00   -2.2782752712E+00   -2.2764230142E+00   -2.2745737666E+00
   -2.2727275210E+00   -2.2708842702E+00   -2.2690440067E+00   -2.2672067235E+00
   -2.2653724132E+00   -2.2635410687E+00   -2.2617126827E+00   -2.2598872481E+00
   -2.2580647578E+00   -2.2562452046E+00   -2.2544285814E+00   -2.2526148812E+00
   -2.2508040969E+00   -2.2489962216E+00   -2.2471912480E+00   -2.2453891695E+00
   -2.2435899788E+00   -2.2417936692E+00   -2.2400002336E+00   -2.2382096653E+00
   -2.2364219573E+00   -2.2346371028E+00   -2.2328550949E+00   -2.2310759269E+00
   -2.2292995920E+00   -2.2275260834E+00   -2.2257553943E+00   -2.2239875181E+00
   -2.2222224481E+00   -2.2204601775E+00   -2.2187006997E+00   -2.2169440082E+00
   -2.2151900962E+00   -2.2134389572E+00   -2.2116905846E+00   -2.2099449719E+00
   -2.2082021125E+00   -2.2064620000E+00   -2.2047246277E+00   -2.2029899894E+00
   -2.2012580785E+00   -2.1995288885E+00   -2.1978024131E+00   -2.1960786460E+00
   -2.1943575807E+00   -2.1926392108E+00   -2.1909235301E+00   -2.1892105323E+00
   -2.1875002110E+00   -2.1857925600E+00   -2.1840875731E+00   -2.1823852439E+00
   -2.1806855664E+00   -2.1789885343E+00   -2.1772941414E+00   -2.1756023816E+00
   -2.1739132488E+00   -2.1722267368E+00   -2.1705428396E+00   -2.1688615510E+00
   -2.1671828651E+00   -2.1655067757E+00   -2.1638332769E+00   -2.1621623626E+00
   -2.1604940270E+00   -2.1588282639E+00   -2.1571650675E+00   -2.1555044318E+00
   -2.1538463509E+00   -2.1521908190E+00   -2.1505378301E+00   -2.1488873785E+00
   -2.1472394582E+00   -2.1455940635E+00   -2.1439511885E+00   -2.1423108275E+00
   -2.1406729746E+00   -2.1390376243E+00   -2.1374047706E+00   -2.1357744080E+00
   -2.1341465306E+00   -2.1325211329E+00   -2.1308982092E+00   -2.1292777538E+00
   -2.1276597611E+00   -2.1260442254E+00   -2.1244311413E+00   -2.1228205031E+00
   -2.1212123053E+00   -2.1196065422E+00   -2.1180032085E+00   -2.1164022986E+00
   -2.1148038069E+00   -2.1132077281E+00   -2.1116140566E+00   -2.1100227871E+00
   -2.1084339140E+00   -2.1068474320E+00   -2.1052633358E+00   -2.1036816198E+00
   -2.1021022787E+00   -2.1005253073E+00   -2.0989507002E+00   -2.0973784520E+00
   -2.0958085575E+00   -2.0942410113E+00   -2.0926758083E+00   -2.0911129432E+00
   -2.0895524107E+00   -2.0879942056E+00   -2.0864383227E+00   -2.0848847569E+00
   -2.0833335029E+00   -2.0817845556E+00   -2.0802379098E+00   -2.0786935605E+00
   -2.0771515025E+00   -2.0756117308E+00   -2.0740742401E+00   -2.0725390256E+00
   -2.0710060821E+00   -2.0694754046E+00   -2.0679469880E+00   -2.0664208274E+00
   -2.0648969178E+00   -2.0633752542E+00   -2.0618558317E+00   -2.0603386452E+00
   -2.0588236899E+00   -2.0573109608E+00   -2.0558004531E+00   -2.0542921618E+00
   -2.0527860820E+00   -2.0512822090E+00   -2.0497805379E+00   -2.0482810637E+00
   -2.0467837818E+00   -2.0452886874E+00   -2.0437957755E+00   -2.0423050415E+00
   -2.0408164805E+00   -2.0393300879E+00   -2.0378458589E+00   -2.0363637888E+00
   -2.0348838728E+00   -2.0334061063E+00   -2.0319304847E+00   -2.0304570031E+00
   -2.0289856571E+00   -2.0275164418E+00   -2.0260493528E+00   -2.0245843854E+00
   -2.0231215350E+00   -2.0216607971E+00   -2.0202021669E+00   -2.0187456401E+00
   -2.0172912120E+00   -2.0158388781E+00   -2.0143886339E+00   -2.0129404749E+00
   -2.0114943966E+00   -2.0100503945E+00   -2.0086084641E+00   -2.0071686011E+00
   -2.0057308008E+00   -2.0042950590E+00   -2.0028613711E+00   -2.0014297329E+00
   -2.0000001398E+00   -1.9985725876E+00   -1.9971470718E+00   -1.9957235882E+00
   -1.9943021322E+00   -1.9928826997E+00   -1.9914652863E+00   -1.9900498878E+00
   -1.9886364997E+00   -1.9872251178E+00   -1.9858157379E+00   -1.9844083558E+00
   -1.9830029670E+00   -1.9815995676E+00   -1.9801981531E+00   -1.9787987194E+00
   -1.9774012623E+00   -1.9760057776E+00   -1.9746122612E+00   -1.9732207089E+00
   -1.9718311165E+00   -1.9704434798E+00   -1.9690577949E+00   -1.9676740575E+00
   -1.9662922636E+00   -1.9649124090E+00   -1.9635344897E+00   -1.9621585016E+00
   -1.9607844407E+00   -1.9594123029E+00   -1.9580420842E+00   -1.9566737805E+00
   -1.9553073878E+00   -1.9539429022E+00   -1.9525803196E+00   -1.9512196362E+00
   -1.9498608478E+00   -1.9485039505E+00   -1.9471489405E+00   -1.9457958137E+00
   -1.9444445663E+00   -1.9430951943E+00   -1.9417476938E+00   -1.9404020610E+00
   -1.9390582919E+00   -1.9377163827E+00   -1.9363763296E+00   -1.9350381286E+00
   -1.9337017760E+00   -1.9323672679E+00   -1.9310346005E+00   -1.9297037700E+00
   -1.9283747726E+00   -1.9270476045E+00   -1.9257222619E+00   -1.9243987411E+00
   -1.9230770384E+00   -1.9217571499E+00   -1.9204390720E+00   -1.9191228009E+00
   -1.9178083329E+00   -1.9164956643E+00   -1.9151847915E+00   -1.9138757106E+00
   -1.9125684182E+00   -1.9112629104E+00   -1.9099591837E+00   -1.9086572344E+00
   -1.9073570589E+00   -1.9060586535E+00   -1.9047620146E+00   -1.9034671387E+00
   -1.9021740222E+00   -1.9008826614E+00   -1.8995930527E+00   -1.8983051927E+00
   -1.8970190778E+00   -1.8957347044E+00   -1.8944520690E+00   -1.8931711680E+00
   -1.8918919980E+00   -1.8906145555E+00   -1.8893388369E+00   -1.8880648387E+00
   -1.8867925575E+00   -1.8855219899E+00   -1.8842531322E+00   -1.8829859812E+00
   -1.8817205334E+00   -1.8804567852E+00   -1.8791947334E+00   -1.8779343745E+00
   -1.8766757051E+00   -1.8754187217E+00   -1.8741634211E+00   -1.8729097998E+00
   -1.8716578545E+00   -1.8704075817E+00   -1.8691589783E+00   -1.8679120407E+00
   -1.8666667657E+00   -1.8654231500E+00   -1.8641811903E+00   -1.8629408831E+00
   -1.8617022254E+00   -1.8604652137E+00   -1.8592298447E+00   -1.8579961153E+00
   -1.8567640221E+00   -1.8555335619E+00   -1.8543047315E+00   -1.8530775275E+00
   -1.8518519469E+00   -1.8506279863E+00   -1.8494056426E+00   -1.8481849126E+00
   -1.8469657930E+00   -1.8457482806E+00   -1.8445323724E+00   -1.8433180651E+00
   -1.8421053556E+00   -1.8408942407E+00   -1.8396847173E+00   -1.8384767822E+00
   -1.8372704324E+00   -1.8360656646E+00   -1.8348624759E+00   -1.8336608630E+00
   -1.8324608229E+00   -1.8312623525E+00   -1.8300654488E+00   -1.8288701086E+00
   -1.8276763289E+00   -1.8264841067E+00   -1.8252934388E+00   -1.8241043223E+00
   -1.8229167542E+00   -1.8217307313E+00   -1.8205462507E+00   -1.8193633095E+00
   -1.8181819045E+00   -1.8170020328E+00   -1.8158236914E+00   -1.8146468774E+00
   -1.8134715877E+00   -1.8122978194E+00   -1.8111255696E+00   -1.8099548354E+00
   -1.8087856137E+00   -1.8076179016E+00   -1.8064516963E+00   -1.8052869947E+00
   -1.8041237941E+00   -1.8029620915E+00   -1.8018018840E+00   -1.8006431688E+00
   -1.7994859428E+00   -1.7983302034E+00   -1.7971759476E+00   -1.7960231725E+00
   -1.7948718754E+00   -1.7937220534E+00   -1.7925737035E+00   -1.7914268231E+00
   -1.7902814094E+00   -1.7891374593E+00   -1.7879949703E+00   -1.7868539395E+00
   -1.7857143641E+00   -1.7845762412E+00   -1.7834395682E+00   -1.7823043423E+00
   -1.7811705607E+00   -1.7800382207E+00   -1.7789073194E+00   -1.7777778543E+00
   -1.7766498224E+00   -1.7755232212E+00   -1.7743980478E+00   -1.7732742996E+00
   -1.7721519739E+00   -1.7710310679E+00   -1.7699115791E+00   -1.7687935046E+00
   -1.7676768418E+00   -1.7665615881E+00   -1.7654477407E+00   -1.7643352971E+00
   -1.7632242545E+00   -1.7621146103E+00   -1.7610063619E+00   -1.7598995067E+00
   -1.7587940420E+00   -1.7576899651E+00   -1.7565872736E+00   -1.7554859648E+00
   -1.7543860360E+00   -1.7532874848E+00   -1.7521903084E+00   -1.7510945044E+00
   -1.7500000702E+00   -1.7489070031E+00   -1.7478153006E+00   -1.7467249603E+00
   -1.7456359794E+00   -1.7445483556E+00   -1.7434620861E+00   -1.7423771687E+00
   -1.7412936006E+00   -1.7402113794E+00   -1.7391305026E+00   -1.7380509676E+00
   -1.7369727720E+00   -1.7358959133E+00   -1.7348203890E+00   -1.7337461966E+00
   -1.7326733337E+00   -1.7316017978E+00   -1.7305315863E+00   -1.7294626970E+00
   -1.7283951272E+00   -1.7273288746E+00   -1.7262639368E+00   -1.7252003113E+00
   -1.7241379956E+00   -1.7230769874E+00   -1.7220172843E+00   -1.7209588838E+00
   -1.7199017836E+00   -1.7188459812E+00
  </PP_LOCAL>
 <PP_NONLOCAL>
   <PP_BETA.1
       type="real"
       size="1630"
       columns="4"
       index="1"
       angular_momentum="0"
       cutoff_radius_index=" 344"
       cutoff_radius="    3.4300000000E+00" >
   -6.1747273961E-12    1.5964631463E-02    3.1925199857E-02    4.7877676966E-02
    6.3818104009E-02    7.9742625657E-02    9.5647523236E-02    1.1152924682E-01
    1.2738444599E-01    1.4320999894E-01    1.5900303977E-01    1.7476098365E-01
    1.9048154971E-01    2.0616278136E-01    2.2180306390E-01    2.3740113926E-01
    2.5295611763E-01    2.6846748590E-01    2.8393511282E-01    2.9935925059E-01
    3.1474053301E-01    3.3007997007E-01    3.4537893876E-01    3.6063917036E-01
    3.7586273398E-01    3.9105201645E-01    4.0620969872E-01    4.2133872855E-01
    4.3644228991E-01    4.5152376899E-01    4.6658671700E-01    4.8163480994E-01
    4.9667180548E-01    5.1170149723E-01    5.2672766649E-01    5.4175403178E-01
    5.5678419642E-01    5.7182159439E-01    5.8686943477E-01    6.0193064505E-01
    6.1700781360E-01    6.3210313169E-01    6.4721833524E-01    6.6235464688E-01
    6.7751271833E-01    6.9269257383E-01    7.0789355460E-01    7.2311426498E-01
    7.3835252039E-01    7.5360529762E-01    7.6886868761E-01    7.8413785128E-01
    7.9940697850E-01    8.1466925074E-01    8.2991680753E-01    8.4514071713E-01
    8.6033095162E-01    8.7547636675E-01    8.9056468670E-01    9.0558249401E-01
    9.2051522495E-01    9.3534717031E-01    9.5006148203E-01    9.6464018560E-01
    9.7906419833E-01    9.9331335371E-01    1.0073664318E+00    1.0212011956E+00
    1.0347944335E+00    1.0481220080E+00    1.0611589097E+00    1.0738793178E+00
    1.0862566660E+00    1.0982637138E+00    1.1098726233E+00    1.1210550411E+00
    1.1317821851E+00    1.1420249355E+00    1.1517539305E+00    1.1609396657E+00
    1.1695525971E+00    1.1775632474E+00    1.1849423150E+00    1.1916607850E+00
    1.1976900429E+00    1.2030019890E+00    1.2075691541E+00    1.2113648159E+00
    1.2143631147E+00    1.2165391697E+00    1.2178691930E+00    1.2183306031E+00
    1.2179021358E+00    1.2165639528E+00    1.2142977469E+00    1.2110868441E+00
    1.2069163012E+00    1.2017729988E+00    1.1956457300E+00    1.1885252827E+00
    1.1804045164E+00    1.1712784326E+00    1.1611442389E+00    1.1500014051E+00
    1.1378517127E+00    1.1246992962E+00    1.1105506766E+00    1.0954147865E+00
    1.0793029867E+00    1.0622290743E+00    1.0442092817E+00    1.0252622670E+00
    1.0054090951E+00    9.8467321022E-01    9.6308039875E-01    9.4065874383E-01
    9.1743857065E-01    8.9345238318E-01    8.6873479227E-01    8.4332243541E-01
    8.1725388840E-01    7.9056956915E-01    7.6331163401E-01    7.3552386696E-01
    7.0725156196E-01    6.7854139905E-01    6.4944131453E-01    6.2000036566E-01
    5.9026859058E-01    5.6029686373E-01    5.3013674756E-01    4.9984034089E-01
    4.6946012467E-01    4.3904880567E-01    4.0865915867E-01    3.7834386794E-01
    3.4815536838E-01    3.1814568725E-01    2.8836628680E-01    2.5886790877E-01
    2.2970042109E-01    2.0091266753E-01    1.7255232096E-01    1.4466574064E-01
    1.1729783428E-01    9.0491925343E-02    6.4289626062E-02    3.8730716854E-02
    1.3853032414E-02   -1.0307644930E-02   -3.3717684239E-02   -5.6345696957E-02
   -7.8162619530E-02   -9.9141787330E-02   -1.1925899961E-01   -1.3849257526E-01
   -1.5682339913E-01   -1.7423495876E-01   -1.9071337152E-01   -2.0624740186E-01
   -2.2082846878E-01   -2.3445064360E-01   -2.4711063778E-01   -2.5880778127E-01
   -2.6954399119E-01   -2.7932373112E-01   -2.8815396127E-01   -2.9604407971E-01
   -3.0300585482E-01   -3.0905334952E-01   -3.1420283737E-01   -3.1847271107E-01
   -3.2188338366E-01   -3.2445718290E-01   -3.2621823927E-01   -3.2719236799E-01
   -3.2740694564E-01   -3.2689078185E-01   -3.2567398644E-01   -3.2378783283E-01
   -3.2126461792E-01   -3.1813751917E-01   -3.1444044943E-01   -3.1020790992E-01
   -3.0547484203E-01   -3.0027647842E-01   -2.9464819390E-01   -2.8862535668E-01
   -2.8224318044E-01   -2.7553657772E-01   -2.6854001505E-01   -2.6128737018E-01
   -2.5381179434E-01   -2.4614556699E-01   -2.3832004552E-01   -2.3036568937E-01
   -2.2231204566E-01   -2.1418766876E-01   -2.0602005694E-01   -1.9783559312E-01
   -1.8965949186E-01   -1.8151575273E-01   -1.7342712008E-01   -1.6541504919E-01
   -1.5749967876E-01   -1.4969980974E-01   -1.4203289040E-01   -1.3451500747E-01
   -1.2716088334E-01   -1.1998387900E-01   -1.1299600271E-01   -1.0620792403E-01
   -9.9628993095E-02   -9.3267264812E-02   -8.7129527794E-02   -8.1221337645E-02
   -7.5547054387E-02   -7.0109883673E-02   -6.4911921477E-02   -5.9954201930E-02
   -5.5236747968E-02   -5.0758624448E-02   -4.6517993377E-02   -4.2512170922E-02
   -3.8737685843E-02   -3.5190339011E-02   -3.1865263659E-02   -2.8756986049E-02
   -2.5859486212E-02   -2.3166258444E-02   -2.0670371266E-02   -1.8364526529E-02
   -1.6241117404E-02   -1.4292284973E-02   -1.2509973181E-02   -1.0885981916E-02
   -9.4120179952E-03   -8.0797438599E-03   -6.8808238167E-03   -5.8069676544E-03
   -4.8499715079E-03   -4.0017558554E-03   -3.2544005589E-03   -2.6001768718E-03
   -2.0315763701E-03   -1.5413367820E-03   -1.1224646979E-03   -7.6825518822E-04
   -4.7230836000E-04   -2.2854290075E-04   -3.1206686634E-05    1.2511545253E-04
    2.4549671039E-04    3.3466589611E-04    3.9700750238E-04    4.3656410645E-04
    4.5704093481E-04    4.6181241831E-04    4.5393056169E-04    4.3613493157E-04
    4.1086482058E-04    3.8026834235E-04    3.4621938129E-04    3.1034046356E-04
    2.7400044200E-04    2.3828741916E-04    2.0365914393E-04    1.7043689862E-04
    1.3936183859E-04    1.1103121343E-04    8.5820518921E-05    6.3981267406E-05
    4.5624172618E-05    3.0737118293E-05    1.9191798298E-05    1.0752701514E-05
    5.0763869045E-06    1.7499590964E-06    2.8413044435E-07   -7.4692590613E-08
   -4.2192632579E-08    1.9508446608E-08    6.8588890032E-09   -5.0193697178E-09
    3.3587075135E-11    1.2962995237E-10    0.0000000000E+00    0.0000000000E+00
    0.0000000000E+00    0.0000000000E+00    0.0000000000E+00    0.0000000000E+00
    0.0000000000E+00    0.0000000000E+00    0.0000000000E+00    0.0000000000E+00
    0.0000000000E+00    0.0000000000E+00    0.0000000000E+00    0.0000000000E+00
    0.0000000000E+00    0.0000000000E+00    0.0000000000E+00    0.0000000000E+00
    0.0000000000E+00    0.0000000000E+00    0.0000000000E+00    0.0000000000E+00
    0.0000000000E+00    0.0000000000E+00    0.0000000000E+00    0.0000000000E+00
    0.0000000000E+00    0.0000000000E+00    0.0000000000E+00    0.0000000000E+00
    0.0000000000E+00    0.0000000000E+00    0.0000000000E+00    0.0000000000E+00
    0.0000000000E+00    0.0000000000E+00    0.0000000000E+00    0.0000000000E+00
    0.0000000000E+00    0.0000000000E+00    0.0000000000E+00    0.0000000000E+00
    0.0000000000E+00    0.0000000000E+00    0.0000000000E+00    0.0000000000E+00
    0.0000000000E+00    0.0000000000E+00    0.0000000000E+00    0.0000000000E+00
    0.0000000000E+00    0.0000000000E+00    0.0000000000E+00    0.0000000000E+00
    0.0000000000E+00    0.0000000000E+00    0.0000000000E+00    0.0000000000E+00
 0. 0. 0. 0.
 0. 0. 0. 0.
 0. 0. 0. 0.
 0. 0. 0. 0.
 0. 0. 0. 0.
 0. 0. 0. 0.
 0. 0. 0. 0.
 0. 0. 0. 0.
 0. 0. 0. 0.
 0. 0. 0. 0.
 0. 0. 0. 0.
 0. 0. 0. 0.
 0. 0. 0. 0.
 0. 0. 0. 0.
 0. 0. 0. 0.
 0. 0. 0. 0.
 0. 0. 0. 0.
 0. 0. 0. 0.
 0. 0. 0. 0.
 0. 0. 0. 0.
 0. 0. 0. 0.
 0. 0. 0. 0.
 0. 0. 0. 0.
 0. 0. 0. 0.
 0. 0. 0. 0.
 0. 0. 0. 0.
 0. 0. 0. 0.
 0. 0. 0. 0.
 0. 0. 0. 0.
 0. 0. 0. 0.
 0. 0. 0. 0.
 0. 0. 0. 0.
 0. 0. 0. 0.
 0. 0. 0. 0.
 0. 0. 0. 0.
 0. 0. 0. 0.
 0. 0. 0. 0.
 0. 0. 0. 0.
 0. 0. 0. 0.
 0. 0. 0. 0.
 0. 0. 0. 0.
 0. 0. 0. 0.
 0. 0. 0. 0.
 0. 0. 0. 0.
 0. 0. 0. 0.
 0. 0. 0. 0.
 0. 0. 0. 0.
 0. 0. 0. 0.
 0. 0. 0. 0.
 0. 0. 0. 0.
 0. 0. 0. 0.
 0. 0. 0. 0.
 0. 0. 0. 0.
 0. 0. 0. 0.
 0. 0. 0. 0.
 0. 0. 0. 0.
 0. 0. 0. 0.
 0. 0. 0. 0.
 0. 0. 0. 0.
 0. 0. 0. 0.
 0. 0. 0. 0.
 0. 0. 0. 0.
 0. 0. 0. 0.
 0. 0. 0. 0.
 0. 0. 0. 0.
 0. 0. 0. 0.
 0. 0. 0. 0.
 0. 0. 0. 0.
 0. 0. 0. 0.
 0. 0. 0. 0.
 0. 0. 0. 0.
 0. 0. 0. 0.
 0. 0. 0. 0.
 0. 0. 0. 0.
 0. 0. 0. 0.
 0. 0. 0. 0.
 0. 0. 0. 0.
 0. 0. 0. 0.
 0. 0. 0. 0.
 0. 0. 0. 0.
 0. 0. 0. 0.
 0. 0. 0. 0.
 0. 0. 0. 0.
 0. 0. 0. 0.
 0. 0. 0. 0.
 0. 0. 0. 0.
 0. 0. 0. 0.
 0. 0. 0. 0.
 0. 0. 0. 0.
 0. 0. 0. 0.
 0. 0. 0. 0.
 0. 0. 0. 0.
 0. 0. 0. 0.
 0. 0. 0. 0.
 0. 0. 0. 0.
 0. 0. 0. 0.
 0. 0. 0. 0.
 0. 0. 0. 0.
 0. 0. 0. 0.
 0. 0. 0. 0.
 0. 0. 0. 0.
 0. 0. 0. 0.
 0. 0. 0. 0.
 0. 0. 0. 0.
 0. 0. 0. 0.
 0. 0. 0. 0.
 0. 0. 0. 0.
 0. 0. 0. 0.
 0. 0. 0. 0.
 0. 0. 0. 0.
 0. 0. 0. 0.
 0. 0. 0. 0.
 0. 0. 0. 0.
 0. 0. 0. 0.
 0. 0. 0. 0.
 0. 0. 0. 0.
 0. 0. 0. 0.
 0. 0. 0. 0.
 0. 0. 0. 0.
 0. 0. 0. 0.
 0. 0. 0. 0.
 0. 0. 0. 0.
 0. 0. 0. 0.
 0. 0. 0. 0.
 0. 0. 0. 0.
 0. 0. 0. 0.
 0. 0. 0. 0.
 0. 0. 0. 0.
 0. 0. 0. 0.
 0. 0. 0. 0.
 0. 0. 0. 0.
 0. 0. 0. 0.
 0. 0. 0. 0.
 0. 0. 0. 0.
 0. 0. 0. 0.
 0. 0. 0. 0.
 0. 0. 0. 0.
 0. 0. 0. 0.
 0. 0. 0. 0.
 0. 0. 0. 0.
 0. 0. 0. 0.
 0. 0. 0. 0.
 0. 0. 0. 0.
 0. 0. 0. 0.
 0. 0. 0. 0.
 0. 0. 0. 0.
 0. 0. 0. 0.
 0. 0. 0. 0.
 0. 0. 0. 0.
 0. 0. 0. 0.
 0. 0. 0. 0.
 0. 0. 0. 0.
 0. 0. 0. 0.
 0. 0. 0. 0.
 0. 0. 0. 0.
 0. 0. 0. 0.
 0. 0. 0. 0.
 0. 0. 0. 0.
 0. 0. 0. 0.
 0. 0. 0. 0.
 0. 0. 0. 0.
 0. 0. 0. 0.
 0. 0. 0. 0.
 0. 0. 0. 0.
 0. 0. 0. 0.
 0. 0. 0. 0.
 0. 0. 0. 0.
 0. 0. 0. 0.
 0. 0. 0. 0.
 0. 0. 0. 0.
 0. 0. 0. 0.
 0. 0. 0. 0.
 0. 0. 0. 0.
 0. 0. 0. 0.
 0. 0. 0. 0.
 0. 0. 0. 0.
 0. 0. 0. 0.
 0. 0. 0. 0.
 0. 0. 0. 0.
 0. 0. 0. 0.
 0. 0. 0. 0.
 0. 0. 0. 0.
 0. 0. 0. 0.
 0. 0. 0. 0.
 0. 0. 0. 0.
 0. 0. 0. 0.
 0. 0. 0. 0.
 0. 0. 0. 0.
 0. 0. 0. 0.
 0. 0. 0. 0.
 0. 0. 0. 0.
 0. 0. 0. 0.
 0. 0. 0. 0.
 0. 0. 0. 0.
 0. 0. 0. 0.
 0. 0. 0. 0.
 0. 0. 0. 0.
 0. 0. 0. 0.
 0. 0. 0. 0.
 0. 0. 0. 0.
 0. 0. 0. 0.
 0. 0. 0. 0.
 0. 0. 0. 0.
 0. 0. 0. 0.
 0. 0. 0. 0.
 0. 0. 0. 0.
 0. 0. 0. 0.
 0. 0. 0. 0.
 0. 0. 0. 0.
 0. 0. 0. 0.
 0. 0. 0. 0.
 0. 0. 0. 0.
 0. 0. 0. 0.
 0. 0. 0. 0.
 0. 0. 0. 0.
 0. 0. 0. 0.
 0. 0. 0. 0.
 0. 0. 0. 0.
 0. 0. 0. 0.
 0. 0. 0. 0.
 0. 0. 0. 0.
 0. 0. 0. 0.
 0. 0. 0. 0.
 0. 0. 0. 0.
 0. 0. 0. 0.
 0. 0. 0. 0.
 0. 0. 0. 0.
 0. 0. 0. 0.
 0. 0. 0. 0.
 0. 0. 0. 0.
 0. 0. 0. 0.
 0. 0. 0. 0.
 0. 0. 0. 0.
 0. 0. 0. 0.
 0. 0. 0. 0.
 0. 0. 0. 0.
 0. 0. 0. 0.
 0. 0. 0. 0.
 0. 0. 0. 0.
 0. 0. 0. 0.
 0. 0. 0. 0.
 0. 0. 0. 0.
 0. 0. 0. 0.
 0. 0. 0. 0.
 0. 0. 0. 0.
 0. 0. 0. 0.
 0. 0. 0. 0.
 0. 0. 0. 0.
 0. 0. 0. 0.
 0. 0. 0. 0.
 0. 0. 0. 0.
 0. 0. 0. 0.
 0. 0. 0. 0.
 0. 0. 0. 0.
 0. 0. 0. 0.
 0. 0. 0. 0.
 0. 0. 0. 0.
 0. 0. 0. 0.
 0. 0. 0. 0.
 0. 0. 0. 0.
 0. 0. 0. 0.
 0. 0. 0. 0.
 0. 0. 0. 0.
 0. 0. 0. 0.
 0. 0. 0. 0.
 0. 0. 0. 0.
 0. 0. 0. 0.
 0. 0. 0. 0.
 0. 0. 0. 0.
 0. 0. 0. 0.
 0. 0. 0. 0.
 0. 0. 0. 0.
 0. 0. 0. 0.
 0. 0. 0. 0.
 0. 0. 0. 0.
 0. 0. 0. 0.
 0. 0. 0. 0.
 0. 0. 0. 0.
 0. 0. 0. 0.
 0. 0. 0. 0.
 0. 0. 0. 0.
 0. 0. 0. 0.
 0. 0. 0. 0.
 0. 0. 0. 0.
 0. 0. 0. 0.
 0. 0. 0. 0.
 0. 0. 0. 0.
 0. 0. 0. 0.
 0. 0. 0. 0.
 0. 0. 0. 0.
 0. 0. 0. 0.
 0. 0. 0. 0.
 0. 0. 0. 0.
 0. 0. 0. 0.
 0. 0. 0. 0.
 0. 0. 0. 0.
 0. 0. 0. 0.
 0. 0. 0. 0.
 0. 0. 0. 0.
 0. 0. 0. 0.
 0. 0. 0. 0.
 0. 0. 0. 0.
 0. 0. 0. 0.
 0. 0. 0. 0.
 0. 0. 0. 0.
 0. 0. 0. 0.
 0. 0. 0. 0.
 0. 0. 0. 0.
 0. 0. 0. 0.
 0. 0. 0. 0.
 0. 0. 0. 0.
 0. 0. 0. 0.
 0. 0. 0. 0.
 0. 0. 0. 0.
 0. 0. 0. 0.
 0. 0. 0. 0.
 0. 0. 0. 0.
 0. 0. 0. 0.
 0. 0. 0. 0.
 0. 0. 0. 0.
 0. 0. 0. 0.
 0. 0.
   </PP_BETA.1>
   <PP_BETA.2
       type="real"
       size="1630"
       columns="4"
       index="2"
       angular_momentum="0"
       cutoff_radius_index=" 344"
       cutoff_radius="    3.4300000000E+00" >
    6.0900728904E-12    1.4525346113E-02    2.9010499864E-02    4.3415347050E-02
    5.7699929822E-02    7.1824524988E-02    8.5749722443E-02    9.9436503773E-02
    1.1284632107E-01    1.2594117598E-01    1.3868369898E-01    1.5103722893E-01
    1.6296589287E-01    1.7443468599E-01    1.8540955192E-01    1.9585746299E-01
    2.0574650075E-01    2.1504593636E-01    2.2372631099E-01    2.3175951594E-01
    2.3911887246E-01    2.4577921111E-01    2.5171695040E-01    2.5691017466E-01
    2.6133871083E-01    2.6498420402E-01    2.6783019153E-01    2.6986217515E-01
    2.7106769146E-01    2.7143637975E-01    2.7096004740E-01    2.6963273237E-01
    2.6745076235E-01    2.6441281050E-01    2.6051994715E-01    2.5577568736E-01
    2.5018603385E-01    2.4375951501E-01    2.3650721760E-01    2.2844281384E-01
    2.1958258255E-01    2.0994542391E-01    1.9955286767E-01    1.8842907434E-01
    1.7660082915E-01    1.6409752847E-01    1.5095115841E-01    1.3719626539E-01
    1.2286991835E-01    1.0801166257E-01    9.2663464789E-02    7.6869649478E-02
    6.0676826271E-02    4.4133808352E-02    2.7291521817E-02    1.0202905977E-02
   -7.0771953484E-03   -2.4492151507E-02   -4.1983671520E-02   -5.9491939290E-02
   -7.6955757310E-02   -9.4312698639E-02   -1.1149926686E-01   -1.2845106374E-01
   -1.4510296411E-01   -1.6138929775E-01   -1.7724403765E-01   -1.9260099422E-01
   -2.0739401495E-01   -2.2155718893E-01   -2.3502505558E-01   -2.4773281695E-01
   -2.5961655302E-01   -2.7061343912E-01   -2.8066196484E-01   -2.8970215364E-01
   -2.9767578229E-01   -3.0452659951E-01   -3.1020054274E-01   -3.1464595234E-01
   -3.1781378237E-01   -3.1965780699E-01   -3.2013482164E-01   -3.1920483823E-01
   -3.1683127328E-01   -3.1298112830E-01   -3.0762516155E-01   -3.0073805026E-01
   -2.9229854256E-01   -2.8228959834E-01   -2.7069851826E-01   -2.5751706017E-01
   -2.4274154230E-01   -2.2637293245E-01   -2.0841692279E-01   -1.8888398946E-01
   -1.6778943668E-01   -1.4515342473E-01   -1.2100098160E-01   -9.5361997763E-02
   -6.8271204043E-02   -3.9768132127E-02   -9.8970577731E-03    2.1293073453E-02
    5.3748737867E-02    8.7411942719E-02    1.2222035246E-01    1.5810743198E-01
    1.9500260658E-01    2.3283143815E-01    2.7151581737E-01    3.1097417115E-01
    3.5112168483E-01    3.9187053856E-01    4.3313015700E-01    4.7480747157E-01
    5.1680719450E-01    5.5903210361E-01    6.0138333701E-01    6.4376069650E-01
    6.8606295879E-01    7.2818819331E-01    7.7003408544E-01    8.1149826400E-01
    8.5247863182E-01    8.9287369801E-01    9.3258291074E-01    9.7150698929E-01
    1.0095482539E+00    1.0466109523E+00    1.0826015817E+00    1.1174292043E+00
    1.1510057562E+00    1.1832463472E+00    1.2140695512E+00    1.2433976857E+00
    1.2711570788E+00    1.2972783232E+00    1.3216965160E+00    1.3443514830E+00
    1.3651879867E+00    1.3841559170E+00    1.4012104642E+00    1.4163122729E+00
    1.4294275764E+00    1.4405283113E+00    1.4495922111E+00    1.4566028790E+00
    1.4615498393E+00    1.4644285666E+00    1.4652404942E+00    1.4639929989E+00
    1.4606993657E+00    1.4553787293E+00    1.4480559944E+00    1.4387617345E+00
    1.4275320699E+00    1.4144085250E+00    1.3994378653E+00    1.3826719155E+00
    1.3641673583E+00    1.3439855160E+00    1.3221921145E+00    1.2988570312E+00
    1.2740540283E+00    1.2478604711E+00    1.2203570342E+00    1.1916273955E+00
    1.1617579194E+00    1.1308373309E+00    1.0989563819E+00    1.0662075096E+00
    1.0326844908E+00    9.9848209121E-01    9.6369571181E-01    9.2842103448E-01
    8.9275366694E-01    8.5678878897E-01    8.2062080131E-01    7.8434297814E-01
    7.4804712471E-01    7.1182324122E-01    6.7575919403E-01    6.3994039550E-01
    6.0444949341E-01    5.6936607100E-01    5.3476635860E-01    5.0072295772E-01
    4.6730457839E-01    4.3457579056E-01    4.0259679003E-01    3.7142317929E-01
    3.4110577355E-01    3.1169037895E-01    2.8321797473E-01    2.5572516762E-01
    2.2924442955E-01    2.0380403182E-01    1.7942804781E-01    1.5613636332E-01
    1.3394470460E-01    1.1286468343E-01    9.2903858792E-02    7.4065814306E-02
    5.6350251082E-02    3.9753095083E-02    2.4266618372E-02    9.8795733837E-03
   -3.4226605885E-03   -1.5657919612E-02   -2.6847086960E-02   -3.7013915547E-02
   -4.6184841956E-02   -5.4388793090E-02   -6.1656986472E-02   -6.8022725268E-02
   -7.3521189101E-02   -7.8189221715E-02   -8.2065116587E-02   -8.5188401539E-02
   -8.7599623411E-02   -8.9340133847E-02   -9.0451877207E-02   -9.0977181617E-02
   -9.0958554107E-02   -9.0438480795E-02   -8.9459232985E-02   -8.8062680069E-02
   -8.6290109995E-02   -8.4182058106E-02   -8.1778145008E-02   -7.9116924137E-02
   -7.6235739621E-02   -7.3170594930E-02   -6.9956032796E-02   -6.6625026791E-02
   -6.3208884887E-02   -5.9737165261E-02   -5.6237604517E-02   -5.2736058452E-02
   -4.9256455426E-02   -4.5820762285E-02   -4.2448962763E-02   -3.9159048204E-02
   -3.5967020379E-02   -3.2886906082E-02   -2.9930783196E-02   -2.7108817786E-02
   -2.4429311741E-02   -2.1898760463E-02   -1.9521920027E-02   -1.7301883156E-02
   -1.5240163388E-02   -1.3336786704E-02   -1.1590389865E-02   -9.9983247245E-03
   -8.5567676827E-03   -7.2608334725E-03   -6.1046924535E-03   -5.0816905499E-03
   -4.1844721849E-03   -3.4050973180E-03   -2.7351694885E-03   -2.1659708408E-03
   -1.6885557949E-03   -1.2938009027E-03   -9.7193452746E-04   -7.1340858908E-04
   -5.0986640465E-04   -3.5332767626E-04   -2.3613712067E-04   -1.5118384193E-04
   -9.1934661249E-05   -5.2515956830E-05   -2.7771791707E-05   -1.3318134180E-05
   -5.5666686554E-06   -1.8340440923E-06   -3.0302961686E-07    1.2018867441E-07
    6.3188764856E-08   -2.3677690230E-08   -8.1494143653E-09    6.3534934885E-09
   -6.0069959593E-11   -2.3184114631E-10    0.0000000000E+00    0.0000000000E+00
    0.0000000000E+00    0.0000000000E+00    0.0000000000E+00    0.0000000000E+00
    0.0000000000E+00    0.0000000000E+00    0.0000000000E+00    0.0000000000E+00
    0.0000000000E+00    0.0000000000E+00    0.0000000000E+00    0.0000000000E+00
    0.0000000000E+00    0.0000000000E+00    0.0000000000E+00    0.0000000000E+00
    0.0000000000E+00    0.0000000000E+00    0.0000000000E+00    0.0000000000E+00
    0.0000000000E+00    0.0000000000E+00    0.0000000000E+00    0.0000000000E+00
    0.0000000000E+00    0.0000000000E+00    0.0000000000E+00    0.0000000000E+00
    0.0000000000E+00    0.0000000000E+00    0.0000000000E+00    0.0000000000E+00
    0.0000000000E+00    0.0000000000E+00    0.0000000000E+00    0.0000000000E+00
    0.0000000000E+00    0.0000000000E+00    0.0000000000E+00    0.0000000000E+00
    0.0000000000E+00    0.0000000000E+00    0.0000000000E+00    0.0000000000E+00
    0.0000000000E+00    0.0000000000E+00    0.0000000000E+00    0.0000000000E+00
    0.0000000000E+00    0.0000000000E+00    0.0000000000E+00    0.0000000000E+00
    0.0000000000E+00    0.0000000000E+00    0.0000000000E+00    0.0000000000E+00
 0. 0. 0. 0.
 0. 0. 0. 0.
 0. 0. 0. 0.
 0. 0. 0. 0.
 0. 0. 0. 0.
 0. 0. 0. 0.
 0. 0. 0. 0.
 0. 0. 0. 0.
 0. 0. 0. 0.
 0. 0. 0. 0.
 0. 0. 0. 0.
 0. 0. 0. 0.
 0. 0. 0. 0.
 0. 0. 0. 0.
 0. 0. 0. 0.
 0. 0. 0. 0.
 0. 0. 0. 0.
 0. 0. 0. 0.
 0. 0. 0. 0.
 0. 0. 0. 0.
 0. 0. 0. 0.
 0. 0. 0. 0.
 0. 0. 0. 0.
 0. 0. 0. 0.
 0. 0. 0. 0.
 0. 0. 0. 0.
 0. 0. 0. 0.
 0. 0. 0. 0.
 0. 0. 0. 0.
 0. 0. 0. 0.
 0. 0. 0. 0.
 0. 0. 0. 0.
 0. 0. 0. 0.
 0. 0. 0. 0.
 0. 0. 0. 0.
 0. 0. 0. 0.
 0. 0. 0. 0.
 0. 0. 0. 0.
 0. 0. 0. 0.
 0. 0. 0. 0.
 0. 0. 0. 0.
 0. 0. 0. 0.
 0. 0. 0. 0.
 0. 0. 0. 0.
 0. 0. 0. 0.
 0. 0. 0. 0.
 0. 0. 0. 0.
 0. 0. 0. 0.
 0. 0. 0. 0.
 0. 0. 0. 0.
 0. 0. 0. 0.
 0. 0. 0. 0.
 0. 0. 0. 0.
 0. 0. 0. 0.
 0. 0. 0. 0.
 0. 0. 0. 0.
 0. 0. 0. 0.
 0. 0. 0. 0.
 0. 0. 0. 0.
 0. 0. 0. 0.
 0. 0. 0. 0.
 0. 0. 0. 0.
 0. 0. 0. 0.
 0. 0. 0. 0.
 0. 0. 0. 0.
 0. 0. 0. 0.
 0. 0. 0. 0.
 0. 0. 0. 0.
 0. 0. 0. 0.
 0. 0. 0. 0.
 0. 0. 0. 0.
 0. 0. 0. 0.
 0. 0. 0. 0.
 0. 0. 0. 0.
 0. 0. 0. 0.
 0. 0. 0. 0.
 0. 0. 0. 0.
 0. 0. 0. 0.
 0. 0. 0. 0.
 0. 0. 0. 0.
 0. 0. 0. 0.
 0. 0. 0. 0.
 0. 0. 0. 0.
 0. 0. 0. 0.
 0. 0. 0. 0.
 0. 0. 0. 0.
 0. 0. 0. 0.
 0. 0. 0. 0.
 0. 0. 0. 0.
 0. 0. 0. 0.
 0. 0. 0. 0.
 0. 0. 0. 0.
 0. 0. 0. 0.
 0. 0. 0. 0.
 0. 0. 0. 0.
 0. 0. 0. 0.
 0. 0. 0. 0.
 0. 0. 0. 0.
 0. 0. 0. 0.
 0. 0. 0. 0.
 0. 0. 0. 0.
 0. 0. 0. 0.
 0. 0. 0. 0.
 0. 0. 0. 0.
 0. 0. 0. 0.
 0. 0. 0. 0.
 0. 0. 0. 0.
 0. 0. 0. 0.
 0. 0. 0. 0.
 0. 0. 0. 0.
 0. 0. 0. 0.
 0. 0. 0. 0.
 0. 0. 0. 0.
 0. 0. 0. 0.
 0. 0. 0. 0.
 0. 0. 0. 0.
 0. 0. 0. 0.
 0. 0. 0. 0.
 0. 0. 0. 0.
 0. 0. 0. 0.
 0. 0. 0. 0.
 0. 0. 0. 0.
 0. 0. 0. 0.
 0. 0. 0. 0.
 0. 0. 0. 0.
 0. 0. 0. 0.
 0. 0. 0. 0.
 0. 0. 0. 0.
 0. 0. 0. 0.
 0. 0. 0. 0.
 0. 0. 0. 0.
 0. 0. 0. 0.
 0. 0. 0. 0.
 0. 0. 0. 0.
 0. 0. 0. 0.
 0. 0. 0. 0.
 0. 0. 0. 0.
 0. 0. 0. 0.
 0. 0. 0. 0.
 0. 0. 0. 0.
 0. 0. 0. 0.
 0. 0. 0. 0.
 0. 0. 0. 0.
 0. 0. 0. 0.
 0. 0. 0. 0.
 0. 0. 0. 0.
 0. 0. 0. 0.
 0. 0. 0. 0.
 0. 0. 0. 0.
 0. 0. 0. 0.
 0. 0. 0. 0.
 0. 0. 0. 0.
 0. 0. 0. 0.
 0. 0. 0. 0.
 0. 0. 0. 0.
 0. 0. 0. 0.
 0. 0. 0. 0.
 0. 0. 0. 0.
 0. 0. 0. 0.
 0. 0. 0. 0.
 0. 0. 0. 0.
 0. 0. 0. 0.
 0. 0. 0. 0.
 0. 0. 0. 0.
 0. 0. 0. 0.
 0. 0. 0. 0.
 0. 0. 0. 0.
 0. 0. 0. 0.
 0. 0. 0. 0.
 0. 0. 0. 0.
 0. 0. 0. 0.
 0. 0. 0. 0.
 0. 0. 0. 0.
 0. 0. 0. 0.
 0. 0. 0. 0.
 0. 0. 0. 0.
 0. 0. 0. 0.
 0. 0. 0. 0.
 0. 0. 0. 0.
 0. 0. 0. 0.
 0. 0. 0. 0.
 0. 0. 0. 0.
 0. 0. 0. 0.
 0. 0. 0. 0.
 0. 0. 0. 0.
 0. 0. 0. 0.
 0. 0. 0. 0.
 0. 0. 0. 0.
 0. 0. 0. 0.
 0. 0. 0. 0.
 0. 0. 0. 0.
 0. 0. 0. 0.
 0. 0. 0. 0.
 0. 0. 0. 0.
 0. 0. 0. 0.
 0. 0. 0. 0.
 0. 0. 0. 0.
 0. 0. 0. 0.
 0. 0. 0. 0.
 0. 0. 0. 0.
 0. 0. 0. 0.
 0. 0. 0. 0.
 0. 0. 0. 0.
 0. 0. 0. 0.
 0. 0. 0. 0.
 0. 0. 0. 0.
 0. 0. 0. 0.
 0. 0. 0. 0.
 0. 0. 0. 0.
 0. 0. 0. 0.
 0. 0. 0. 0.
 0. 0. 0. 0.
 0. 0. 0. 0.
 0. 0. 0. 0.
 0. 0. 0. 0.
 0. 0. 0. 0.
 0. 0. 0. 0.
 0. 0. 0. 0.
 0. 0. 0. 0.
 0. 0. 0. 0.
 0. 0. 0. 0.
 0. 0. 0. 0.
 0. 0. 0. 0.
 0. 0. 0. 0.
 0. 0. 0. 0.
 0. 0. 0. 0.
 0. 0. 0. 0.
 0. 0. 0. 0.
 0. 0. 0. 0.
 0. 0. 0. 0.
 0. 0. 0. 0.
 0. 0. 0. 0.
 0. 0. 0. 0.
 0. 0. 0. 0.
 0. 0. 0. 0.
 0. 0. 0. 0.
 0. 0. 0. 0.
 0. 0. 0. 0.
 0. 0. 0. 0.
 0. 0. 0. 0.
 0. 0. 0. 0.
 0. 0. 0. 0.
 0. 0. 0. 0.
 0. 0. 0. 0.
 0. 0. 0. 0.
 0. 0. 0. 0.
 0. 0. 0. 0.
 0. 0. 0. 0.
 0. 0. 0. 0.
 0. 0. 0. 0.
 0. 0. 0. 0.
 0. 0. 0. 0.
 0. 0. 0. 0.
 0. 0. 0. 0.
 0. 0. 0. 0.
 0. 0. 0. 0.
 0. 0. 0. 0.
 0. 0. 0. 0.
 0. 0. 0. 0.
 0. 0. 0. 0.
 0. 0. 0. 0.
 0. 0. 0. 0.
 0. 0. 0. 0.
 0. 0. 0. 0.
 0. 0. 0. 0.
 0. 0. 0. 0.
 0. 0. 0. 0.
 0. 0. 0. 0.
 0. 0. 0. 0.
 0. 0. 0. 0.
 0. 0. 0. 0.
 0. 0. 0. 0.
 0. 0. 0. 0.
 0. 0. 0. 0.
 0. 0. 0. 0.
 0. 0. 0. 0.
 0. 0. 0. 0.
 0. 0. 0. 0.
 0. 0. 0. 0.
 0. 0. 0. 0.
 0. 0. 0. 0.
 0. 0. 0. 0.
 0. 0. 0. 0.
 0. 0. 0. 0.
 0. 0. 0. 0.
 0. 0. 0. 0.
 0. 0. 0. 0.
 0. 0. 0. 0.
 0. 0. 0. 0.
 0. 0. 0. 0.
 0. 0. 0. 0.
 0. 0. 0. 0.
 0. 0. 0. 0.
 0. 0. 0. 0.
 0. 0. 0. 0.
 0. 0. 0. 0.
 0. 0. 0. 0.
 0. 0. 0. 0.
 0. 0. 0. 0.
 0. 0. 0. 0.
 0. 0. 0. 0.
 0. 0. 0. 0.
 0. 0. 0. 0.
 0. 0. 0. 0.
 0. 0. 0. 0.
 0. 0. 0. 0.
 0. 0. 0. 0.
 0. 0. 0. 0.
 0. 0. 0. 0.
 0. 0. 0. 0.
 0. 0. 0. 0.
 0. 0. 0. 0.
 0. 0. 0. 0.
 0. 0. 0. 0.
 0. 0. 0. 0.
 0. 0. 0. 0.
 0. 0. 0. 0.
 0. 0. 0. 0.
 0. 0. 0. 0.
 0. 0. 0. 0.
 0. 0. 0. 0.
 0. 0.
   </PP_BETA.2>
   <PP_BETA.3
       type="real"
       size="1630"
       columns="4"
       index="3"
       angular_momentum="1"
       cutoff_radius_index=" 344"
       cutoff_radius="    3.4300000000E+00" >
   -8.5843658570E-12    2.4444323016E-04    9.7771040336E-04    2.1996132167E-03
    3.9098353331E-03    6.1079286486E-03    8.7933080972E-03    1.1965245026E-02
    1.5622859175E-02    1.9765109320E-02    2.4390782619E-02    2.9498482746E-02
    3.5086616857E-02    4.1153381500E-02    4.7696747524E-02    5.4714444098E-02
    6.2203941934E-02    7.0162435806E-02    7.8586826497E-02    8.7473702262E-02
    9.6819319942E-02    1.0661958584E-01    1.1687003648E-01    1.2756581941E-01
    1.3870167407E-01    1.5027191302E-01    1.6227040353E-01    1.7469054962E-01
    1.8752527489E-01    2.0076700602E-01    2.1440765719E-01    2.2843861555E-01
    2.4285072779E-01    2.5763428796E-01    2.7277902672E-01    2.8827410189E-01
    3.0410809075E-01    3.2026898382E-01    3.3674418048E-01    3.5352048633E-01
    3.7058411250E-01    3.8792067680E-01    4.0551520695E-01    4.2335214582E-01
    4.4141535871E-01    4.5968814277E-01    4.7815323849E-01    4.9679284341E-01
    5.1558862781E-01    5.3452175263E-01    5.5357288941E-01    5.7272224234E-01
    5.9194957229E-01    6.1123422282E-01    6.3055514813E-01    6.4989094279E-01
    6.6921987334E-01    6.8851991146E-01    7.0776876883E-01    7.2694393341E-01
    7.4602270718E-01    7.6498224507E-01    7.8379959514E-01    8.0245173966E-01
    8.2091563723E-01    8.3916826555E-01    8.5718666491E-01    8.7494798202E-01
    8.9242951435E-01    9.0960875454E-01    9.2646343487E-01    9.4297157167E-01
    9.5911150941E-01    9.7486196442E-01    9.9020206809E-01    1.0051114093E+00
    1.0195700760E+00    1.0335586959E+00    1.0470584762E+00    1.0600512416E+00
    1.0725194711E+00    1.0844463340E+00    1.0958157233E+00    1.1066122878E+00
    1.1168214626E+00    1.1264294977E+00    1.1354234838E+00    1.1437913773E+00
    1.1515220225E+00    1.1586051710E+00    1.1650315005E+00    1.1707926297E+00
    1.1758811316E+00    1.1802905447E+00    1.1840153813E+00    1.1870511339E+00
    1.1893942791E+00    1.1910422790E+00    1.1919935807E+00    1.1922476131E+00
    1.1918047818E+00    1.1906664618E+00    1.1888349876E+00    1.1863136423E+00
    1.1831066434E+00    1.1792191274E+00    1.1746571331E+00    1.1694275820E+00
    1.1635382576E+00    1.1569977836E+00    1.1498155999E+00    1.1420019379E+00
    1.1335677939E+00    1.1245249019E+00    1.1148857053E+00    1.1046633275E+00
    1.0938715419E+00    1.0825247411E+00    1.0706379055E+00    1.0582265716E+00
    1.0453067997E+00    1.0318951414E+00    1.0180086074E+00    1.0036646341E+00
    9.8888105172E-01    9.7367605113E-01    9.5806815180E-01    9.4207616960E-01
    9.2571918504E-01    9.0901651188E-01    8.9198766620E-01    8.7465233603E-01
    8.5703035142E-01    8.3914165526E-01    8.2100627458E-01    8.0264429259E-01
    7.8407582141E-01    7.6532097543E-01    7.4639984543E-01    7.2733247340E-01
    7.0813882804E-01    6.8883878104E-01    6.6945208393E-01    6.4999834578E-01
    6.3049701140E-01    6.1096734032E-01    5.9142838628E-01    5.7189897745E-01
    5.5239769708E-01    5.3294286479E-01    5.1355251838E-01    4.9424439606E-01
    4.7503591919E-01    4.5594417548E-01    4.3698590255E-01    4.1817747191E-01
    3.9953487330E-01    3.8107369940E-01    3.6280913088E-01    3.4475592175E-01
    3.2692838513E-01    3.0934037926E-01    2.9200529390E-01    2.7493603711E-01
    2.5814502236E-01    2.4164415606E-01    2.2544482556E-01    2.0955788760E-01
    1.9399365725E-01    1.7876189748E-01    1.6387180937E-01    1.4933202295E-01
    1.3515058889E-01    1.2133497102E-01    1.0789203981E-01    9.4828066805E-02
    8.2148720305E-02    6.9859062197E-02    5.7963546152E-02    4.6466017272E-02
    3.5369713300E-02    2.4677267515E-02    1.4390713425E-02    4.5114913971E-03
   -4.9595426779E-03   -1.4022106537E-02   -2.2676478407E-02   -3.0923481443E-02
   -3.8764465632E-02   -4.6201287040E-02   -5.3236284278E-02   -5.9872252062E-02
   -6.6112412161E-02   -7.1960379829E-02   -7.7420138513E-02   -8.2496036044E-02
   -8.7192791943E-02   -9.1515500950E-02   -9.5469635870E-02   -9.9061049458E-02
   -1.0229597519E-01   -1.0518102686E-01   -1.0772319692E-01   -1.0992985351E-01
   -1.1180873610E-01   -1.1336794970E-01   -1.1461595759E-01   -1.1556157255E-01
   -1.1621394653E-01   -1.1658255880E-01   -1.1667720246E-01   -1.1650796953E-01
   -1.1608523434E-01   -1.1541963557E-01   -1.1452205667E-01   -1.1340360496E-01
   -1.1207558935E-01   -1.1054949666E-01   -1.0883696688E-01   -1.0694976717E-01
   -1.0489976491E-01   -1.0269889973E-01   -1.0035915485E-01   -9.7892527611E-02
   -9.5310999494E-02   -9.2626505692E-02   -8.9850904385E-02   -8.6995945854E-02
   -8.4073241584E-02   -8.1094233504E-02   -7.8070163506E-02   -7.5012043400E-02
   -7.1930625453E-02   -6.8836373650E-02   -6.5739435842E-02   -6.2649616912E-02
   -5.9576353093E-02   -5.6528687592E-02   -5.3515247641E-02   -5.0544223089E-02
   -4.7623346676E-02   -4.4759876077E-02   -4.1960577832E-02   -3.9231713251E-02
   -3.6579026380E-02   -3.4007734101E-02   -3.1522518430E-02   -2.9127521072E-02
   -2.6826340266E-02   -2.4622029965E-02   -2.2517101354E-02   -2.0513526736E-02
   -1.8612745753E-02   -1.6815673963E-02   -1.5122713708E-02   -1.3533767265E-02
   -1.2048252206E-02   -1.0665118921E-02   -9.3828702169E-03   -8.1995829248E-03
   -7.1129313975E-03   -6.1202128146E-03   -5.2183741660E-03   -4.4040407947E-03
   -3.6735463703E-03   -3.0229641465E-03   -2.4481393584E-03   -1.9447226096E-03
   -1.5082040834E-03   -1.1339484207E-03   -8.1723009232E-04   -5.5326909681E-04
   -3.3726680938E-04   -1.6444111037E-04   -3.0065845079E-05    7.0500614968E-05
    1.4177797527E-04    1.8812957269E-04    2.1368899777E-04    2.2208259894E-04
    2.1671151888E-04    2.0107252209E-04    1.7839248181E-04    1.5152407756E-04
    1.2297770065E-04    9.4880686347E-05    6.8957926218E-05    4.6509219606E-05
    2.8388639788E-05    1.5001958267E-05    6.2630552736E-06    1.6484011948E-06
    7.3783877186E-08   -1.1269346653E-07   -2.0196096973E-08    3.2539146423E-08
    1.7577585174E-09   -8.2031446219E-09    8.3866416090E-11    1.8814772490E-10
    0.0000000000E+00    0.0000000000E+00    0.0000000000E+00    0.0000000000E+00
    0.0000000000E+00    0.0000000000E+00    0.0000000000E+00    0.0000000000E+00
    0.0000000000E+00    0.0000000000E+00    0.0000000000E+00    0.0000000000E+00
    0.0000000000E+00    0.0000000000E+00    0.0000000000E+00    0.0000000000E+00
    0.0000000000E+00    0.0000000000E+00    0.0000000000E+00    0.0000000000E+00
    0.0000000000E+00    0.0000000000E+00    0.0000000000E+00    0.0000000000E+00
    0.0000000000E+00    0.0000000000E+00    0.0000000000E+00    0.0000000000E+00
    0.0000000000E+00    0.0000000000E+00    0.0000000000E+00    0.0000000000E+00
    0.0000000000E+00    0.0000000000E+00    0.0000000000E+00    0.0000000000E+00
    0.0000000000E+00    0.0000000000E+00    0.0000000000E+00    0.0000000000E+00
    0.0000000000E+00    0.0000000000E+00    0.0000000000E+00    0.0000000000E+00
 0. 0. 0. 0.
 0. 0. 0. 0.
 0. 0. 0. 0.
 0. 0. 0. 0.
 0. 0. 0. 0.
 0. 0. 0. 0.
 0. 0. 0. 0.
 0. 0. 0. 0.
 0. 0. 0. 0.
 0. 0. 0. 0.
 0. 0. 0. 0.
 0. 0. 0. 0.
 0. 0. 0. 0.
 0. 0. 0. 0.
 0. 0. 0. 0.
 0. 0. 0. 0.
 0. 0. 0. 0.
 0. 0. 0. 0.
 0. 0. 0. 0.
 0. 0. 0. 0.
 0. 0. 0. 0.
 0. 0. 0. 0.
 0. 0. 0. 0.
 0. 0. 0. 0.
 0. 0. 0. 0.
 0. 0. 0. 0.
 0. 0. 0. 0.
 0. 0. 0. 0.
 0. 0. 0. 0.
 0. 0. 0. 0.
 0. 0. 0. 0.
 0. 0. 0. 0.
 0. 0. 0. 0.
 0. 0. 0. 0.
 0. 0. 0. 0.
 0. 0. 0. 0.
 0. 0. 0. 0.
 0. 0. 0. 0.
 0. 0. 0. 0.
 0. 0. 0. 0.
 0. 0. 0. 0.
 0. 0. 0. 0.
 0. 0. 0. 0.
 0. 0. 0. 0.
 0. 0. 0. 0.
 0. 0. 0. 0.
 0. 0. 0. 0.
 0. 0. 0. 0.
 0. 0. 0. 0.
 0. 0. 0. 0.
 0. 0. 0. 0.
 0. 0. 0. 0.
 0. 0. 0. 0.
 0. 0. 0. 0.
 0. 0. 0. 0.
 0. 0. 0. 0.
 0. 0. 0. 0.
 0. 0. 0. 0.
 0. 0. 0. 0.
 0. 0. 0. 0.
 0. 0. 0. 0.
 0. 0. 0. 0.
 0. 0. 0. 0.
 0. 0. 0. 0.
 0. 0. 0. 0.
 0. 0. 0. 0.
 0. 0. 0. 0.
 0. 0. 0. 0.
 0. 0. 0. 0.
 0. 0. 0. 0.
 0. 0. 0. 0.
 0. 0. 0. 0.
 0. 0. 0. 0.
 0. 0. 0. 0.
 0. 0. 0. 0.
 0. 0. 0. 0.
 0. 0. 0. 0.
 0. 0. 0. 0.
 0. 0. 0. 0.
 0. 0. 0. 0.
 0. 0. 0. 0.
 0. 0. 0. 0.
 0. 0. 0. 0.
 0. 0. 0. 0.
 0. 0. 0. 0.
 0. 0. 0. 0.
 0. 0. 0. 0.
 0. 0. 0. 0.
 0. 0. 0. 0.
 0. 0. 0. 0.
 0. 0. 0. 0.
 0. 0. 0. 0.
 0. 0. 0. 0.
 0. 0. 0. 0.
 0. 0. 0. 0.
 0. 0. 0. 0.
 0. 0. 0. 0.
 0. 0. 0. 0.
 0. 0. 0. 0.
 0. 0. 0. 0.
 0. 0. 0. 0.
 0. 0. 0. 0.
 0. 0. 0. 0.
 0. 0. 0. 0.
 0. 0. 0. 0.
 0. 0. 0. 0.
 0. 0. 0. 0.
 0. 0. 0. 0.
 0. 0. 0. 0.
 0. 0. 0. 0.
 0. 0. 0. 0.
 0. 0. 0. 0.
 0. 0. 0. 0.
 0. 0. 0. 0.
 0. 0. 0. 0.
 0. 0. 0. 0.
 0. 0. 0. 0.
 0. 0. 0. 0.
 0. 0. 0. 0.
 0. 0. 0. 0.
 0. 0. 0. 0.
 0. 0. 0. 0.
 0. 0. 0. 0.
 0. 0. 0. 0.
 0. 0. 0. 0.
 0. 0. 0. 0.
 0. 0. 0. 0.
 0. 0. 0. 0.
 0. 0. 0. 0.
 0. 0. 0. 0.
 0. 0. 0. 0.
 0. 0. 0. 0.
 0. 0. 0. 0.
 0. 0. 0. 0.
 0. 0. 0. 0.
 0. 0. 0. 0.
 0. 0. 0. 0.
 0. 0. 0. 0.
 0. 0. 0. 0.
 0. 0. 0. 0.
 0. 0. 0. 0.
 0. 0. 0. 0.
 0. 0. 0. 0.
 0. 0. 0. 0.
 0. 0. 0. 0.
 0. 0. 0. 0.
 0. 0. 0. 0.
 0. 0. 0. 0.
 0. 0. 0. 0.
 0. 0. 0. 0.
 0. 0. 0. 0.
 0. 0. 0. 0.
 0. 0. 0. 0.
 0. 0. 0. 0.
 0. 0. 0. 0.
 0. 0. 0. 0.
 0. 0. 0. 0.
 0. 0. 0. 0.
 0. 0. 0. 0.
 0. 0. 0. 0.
 0. 0. 0. 0.
 0. 0. 0. 0.
 0. 0. 0. 0.
 0. 0. 0. 0.
 0. 0. 0. 0.
 0. 0. 0. 0.
 0. 0. 0. 0.
 0. 0. 0. 0.
 0. 0. 0. 0.
 0. 0. 0. 0.
 0. 0. 0. 0.
 0. 0. 0. 0.
 0. 0. 0. 0.
 0. 0. 0. 0.
 0. 0. 0. 0.
 0. 0. 0. 0.
 0. 0. 0. 0.
 0. 0. 0. 0.
 0. 0. 0. 0.
 0. 0. 0. 0.
 0. 0. 0. 0.
 0. 0. 0. 0.
 0. 0. 0. 0.
 0. 0. 0. 0.
 0. 0. 0. 0.
 0. 0. 0. 0.
 0. 0. 0. 0.
 0. 0. 0. 0.
 0. 0. 0. 0.
 0. 0. 0. 0.
 0. 0. 0. 0.
 0. 0. 0. 0.
 0. 0. 0. 0.
 0. 0. 0. 0.
 0. 0. 0. 0.
 0. 0. 0. 0.
 0. 0. 0. 0.
 0. 0. 0. 0.
 0. 0. 0. 0.
 0. 0. 0. 0.
 0. 0. 0. 0.
 0. 0. 0. 0.
 0. 0. 0. 0.
 0. 0. 0. 0.
 0. 0. 0. 0.
 0. 0. 0. 0.
 0. 0. 0. 0.
 0. 0. 0. 0.
 0. 0. 0. 0.
 0. 0. 0. 0.
 0. 0. 0. 0.
 0. 0. 0. 0.
 0. 0. 0. 0.
 0. 0. 0. 0.
 0. 0. 0. 0.
 0. 0. 0. 0.
 0. 0. 0. 0.
 0. 0. 0. 0.
 0. 0. 0. 0.
 0. 0. 0. 0.
 0. 0. 0. 0.
 0. 0. 0. 0.
 0. 0. 0. 0.
 0. 0. 0. 0.
 0. 0. 0. 0.
 0. 0. 0. 0.
 0. 0. 0. 0.
 0. 0. 0. 0.
 0. 0. 0. 0.
 0. 0. 0. 0.
 0. 0. 0. 0.
 0. 0. 0. 0.
 0. 0. 0. 0.
 0. 0. 0. 0.
 0. 0. 0. 0.
 0. 0. 0. 0.
 0. 0. 0. 0.
 0. 0. 0. 0.
 0. 0. 0. 0.
 0. 0. 0. 0.
 0. 0. 0. 0.
 0. 0. 0. 0.
 0. 0. 0. 0.
 0. 0. 0. 0.
 0. 0. 0. 0.
 0. 0. 0. 0.
 0. 0. 0. 0.
 0. 0. 0. 0.
 0. 0. 0. 0.
 0. 0. 0. 0.
 0. 0. 0. 0.
 0. 0. 0. 0.
 0. 0. 0. 0.
 0. 0. 0. 0.
 0. 0. 0. 0.
 0. 0. 0. 0.
 0. 0. 0. 0.
 0. 0. 0. 0.
 0. 0. 0. 0.
 0. 0. 0. 0.
 0. 0. 0. 0.
 0. 0. 0. 0.
 0. 0. 0. 0.
 0. 0. 0. 0.
 0. 0. 0. 0.
 0. 0. 0. 0.
 0. 0. 0. 0.
 0. 0. 0. 0.
 0. 0. 0. 0.
 0. 0. 0. 0.
 0. 0. 0. 0.
 0. 0. 0. 0.
 0. 0. 0. 0.
 0. 0. 0. 0.
 0. 0. 0. 0.
 0. 0. 0. 0.
 0. 0. 0. 0.
 0. 0. 0. 0.
 0. 0. 0. 0.
 0. 0. 0. 0.
 0. 0. 0. 0.
 0. 0. 0. 0.
 0. 0. 0. 0.
 0. 0. 0. 0.
 0. 0. 0. 0.
 0. 0. 0. 0.
 0. 0. 0. 0.
 0. 0. 0. 0.
 0. 0. 0. 0.
 0. 0. 0. 0.
 0. 0. 0. 0.
 0. 0. 0. 0.
 0. 0. 0. 0.
 0. 0. 0. 0.
 0. 0. 0. 0.
 0. 0. 0. 0.
 0. 0. 0. 0.
 0. 0. 0. 0.
 0. 0. 0. 0.
 0. 0. 0. 0.
 0. 0. 0. 0.
 0. 0. 0. 0.
 0. 0. 0. 0.
 0. 0. 0. 0.
 0. 0. 0. 0.
 0. 0. 0. 0.
 0. 0. 0. 0.
 0. 0. 0. 0.
 0. 0. 0. 0.
 0. 0. 0. 0.
 0. 0. 0. 0.
 0. 0. 0. 0.
 0. 0. 0. 0.
 0. 0. 0. 0.
 0. 0. 0. 0.
 0. 0. 0. 0.
 0. 0. 0. 0.
 0. 0. 0. 0.
 0. 0. 0. 0.
 0. 0. 0. 0.
 0. 0. 0. 0.
 0. 0.
   </PP_BETA.3>
   <PP_BETA.4
       type="real"
       size="1630"
       columns="4"
       index="4"
       angular_momentum="1"
       cutoff_radius_index=" 344"
       cutoff_radius="    3.4300000000E+00" >
    3.2446342488E-11   -1.3097704605E-04   -5.2414023238E-04   -1.1801828095E-03
   -2.1002505655E-03   -3.2859274400E-03   -4.7392155028E-03   -6.4625094128E-03
   -8.4585655068E-03   -1.0730465701E-02   -1.3281576415E-02   -1.6115502762E-02
   -1.9236038274E-02   -2.2647110462E-02   -2.6352722529E-02   -3.0356891590E-02
   -3.4663583759E-02   -3.9276646505E-02   -4.4199738673E-02   -4.9436258596E-02
   -5.4989270751E-02   -6.0861431382E-02   -6.7054913578E-02   -7.3571332254E-02
   -8.0411669512E-02   -8.7576200856E-02   -9.5064422743E-02   -1.0287498192E-01
   -1.1100560703E-01   -1.1945304296E-01   -1.2821298832E-01   -1.3728003655E-01
   -1.4664762110E-01   -1.5630796491E-01   -1.6625203487E-01   -1.7646950135E-01
   -1.8694870326E-01   -1.9767661894E-01   -2.0863884323E-01   -2.1981957081E-01
   -2.3120158623E-01   -2.4276626066E-01   -2.5449355567E-01   -2.6636203403E-01
   -2.7834887777E-01   -2.9042991332E-01   -3.0257964412E-01   -3.1477129024E-01
   -3.2697683539E-01   -3.3916708082E-01   -3.5131170638E-01   -3.6337933820E-01
   -3.7533762310E-01   -3.8715330927E-01   -3.9879233309E-01   -4.1021991173E-01
   -4.2140064116E-01   -4.3229859930E-01   -4.4287745381E-01   -4.5310057415E-01
   -4.6293114747E-01   -4.7233229785E-01   -4.8126720837E-01   -4.8969924550E-01
   -4.9759208535E-01   -5.0490984117E-01   -5.1161719154E-01   -5.1767950875E-01
   -5.2306298675E-01   -5.2773476814E-01   -5.3166306957E-01   -5.3481730505E-01
   -5.3716820658E-01   -5.3868794153E-01   -5.3935022628E-01   -5.3913043548E-01
   -5.3800570657E-01   -5.3595503900E-01   -5.3295938754E-01   -5.2900174957E-01
   -5.2406724554E-01   -5.1814319248E-01   -5.1121917015E-01   -5.0328707936E-01
   -4.9434119238E-01   -4.8437819500E-01   -4.7339722017E-01   -4.6139987288E-01
   -4.4839024634E-01   -4.3437492913E-01   -4.1936300343E-01   -4.0336603433E-01
   -3.8639805000E-01   -3.6847551315E-01   -3.4961728355E-01   -3.2984457199E-01
   -3.0918088573E-01   -2.8765196570E-01   -2.6528571582E-01   -2.4211212453E-01
   -2.1816317904E-01   -1.9347277262E-01   -1.6807660533E-01   -1.4201207855E-01
   -1.1531818386E-01   -8.8035386772E-02   -6.0205505643E-02   -3.1871586524E-02
   -3.0777742982E-03    2.6130819249E-02    5.5708249878E-02    8.5607877307E-02
    1.1578250300E-01    1.4618450873E-01    1.7676599543E-01    2.0747892159E-01
    2.3827524083E-01    2.6910703795E-01    2.9992666298E-01    3.3068686266E-01
    3.6134090889E-01    3.9184272365E-01    4.2214699983E-01    4.5220931771E-01
    4.8198625650E-01    5.1143550066E-01    5.4051594062E-01    5.6918776755E-01
    5.9741256198E-01    6.2515337587E-01    6.5237480805E-01    6.7904307287E-01
    7.0512606170E-01    7.3059339748E-01    7.5541648198E-01    7.7956853594E-01
    8.0302463197E-01    8.2576172032E-01    8.4775864751E-01    8.6899616806E-01
    8.8945694936E-01    9.0912556982E-01    9.2798851066E-01    9.4603414135E-01
    9.6325269915E-01    9.7963626284E-01    9.9517872110E-01    1.0098757357E+00
    1.0237247000E+00    1.0367246927E+00    1.0488764278E+00    1.0601822005E+00
    1.0706458301E+00    1.0802725989E+00    1.0890691893E+00    1.0970436183E+00
    1.1042051690E+00    1.1105643219E+00    1.1161326832E+00    1.1209229129E+00
    1.1249486515E+00    1.1282244463E+00    1.1307656767E+00    1.1325884798E+00
    1.1337096756E+00    1.1341466920E+00    1.1339174901E+00    1.1330404898E+00
    1.1315344949E+00    1.1294186191E+00    1.1267122119E+00    1.1234347837E+00
    1.1196059322E+00    1.1152452677E+00    1.1103723375E+00    1.1050065509E+00
    1.0991671021E+00    1.0928728924E+00    1.0861424509E+00    1.0789938528E+00
    1.0714446361E+00    1.0635117150E+00    1.0552112905E+00    1.0465587573E+00
    1.0375686067E+00    1.0282543250E+00    1.0186282864E+00    1.0087016416E+00
    9.9848419854E-01    9.8798429844E-01    9.7720868316E-01    9.6616235486E-01
    9.5484844812E-01    9.4326799733E-01    9.3142054097E-01    9.1930529874E-01
    9.0692185971E-01    8.9427017511E-01    8.8135065696E-01    8.6816425193E-01
    8.5471251187E-01    8.4099766049E-01    8.2702265514E-01    8.1279124342E-01
    7.9830801410E-01    7.8357844199E-01    7.6860892641E-01    7.5340682308E-01
    7.3798046896E-01    7.2233920008E-01    7.0649336211E-01    6.9045431347E-01
    6.7423442121E-01    6.5784704933E-01    6.4130653982E-01    6.2462818646E-01
    6.0782820148E-01    5.9092367532E-01    5.7393252970E-01    5.5687346430E-01
    5.3976589732E-01    5.2262990035E-01    5.0548612788E-01    4.8835574184E-01
    4.7126033176E-01    4.5422183090E-01    4.3726242888E-01    4.2040448136E-01
    4.0367041734E-01    3.8708264454E-01    3.7066345358E-01    3.5443492136E-01
    3.3841881435E-01    3.2263649236E-01    3.0710881330E-01    2.9185603959E-01
    2.7689774672E-01    2.6225273456E-01    2.4793894191E-01    2.3397336497E-01
    2.2037197991E-01    2.0714967040E-01    1.9432016023E-01    1.8189595170E-01
    1.6988826994E-01    1.5830701372E-01    1.4716071286E-01    1.3645649277E-01
    1.2620004618E-01    1.1639561223E-01    1.0704596336E-01    9.8152399719E-02
    8.9714751533E-02    8.1731389230E-02    7.4199241407E-02    6.7113820563E-02
    6.0469256495E-02    5.4258337206E-02    4.8472557161E-02    4.3102172645E-02
    3.8136263938E-02    3.3562804044E-02    2.9368733582E-02    2.5540041484E-02
    2.2061851091E-02    1.8918511178E-02    1.6093691445E-02    1.3570481986E-02
    1.1331496191E-02    9.3589765522E-03    7.6349028146E-03    6.1411018735E-03
    4.8593588573E-03    3.7715256972E-03    2.8596497444E-03    2.1060551622E-03
    1.4934638610E-03    1.0051083125E-03    6.2501319219E-04    3.3917539057E-04
    1.3427969861E-04   -3.7541835994E-06   -8.8175375399E-05   -1.3096746540E-04
   -1.4302405475E-04   -1.3399479622E-04   -1.1222432181E-04   -8.4674071933E-05
   -5.6860108477E-05   -3.2809668108E-05   -1.4959204037E-05   -4.3735808085E-06
   -1.9765816697E-07    4.7640186854E-07    1.0611930307E-07   -1.1765422180E-07
   -6.4919908961E-09    2.4870197731E-08   -3.6344870420E-10   -8.1536865410E-10
    0.0000000000E+00    0.0000000000E+00    0.0000000000E+00    0.0000000000E+00
    0.0000000000E+00    0.0000000000E+00    0.0000000000E+00    0.0000000000E+00
    0.0000000000E+00    0.0000000000E+00    0.0000000000E+00    0.0000000000E+00
    0.0000000000E+00    0.0000000000E+00    0.0000000000E+00    0.0000000000E+00
    0.0000000000E+00    0.0000000000E+00    0.0000000000E+00    0.0000000000E+00
    0.0000000000E+00    0.0000000000E+00    0.0000000000E+00    0.0000000000E+00
    0.0000000000E+00    0.0000000000E+00    0.0000000000E+00    0.0000000000E+00
    0.0000000000E+00    0.0000000000E+00    0.0000000000E+00    0.0000000000E+00
    0.0000000000E+00    0.0000000000E+00    0.0000000000E+00    0.0000000000E+00
    0.0000000000E+00    0.0000000000E+00    0.0000000000E+00    0.0000000000E+00
    0.0000000000E+00    0.0000000000E+00    0.0000000000E+00    0.0000000000E+00
 0. 0. 0. 0.
 0. 0. 0. 0.
 0. 0. 0. 0.
 0. 0. 0. 0.
 0. 0. 0. 0.
 0. 0. 0. 0.
 0. 0. 0. 0.
 0. 0. 0. 0.
 0. 0. 0. 0.
 0. 0. 0. 0.
 0. 0. 0. 0.
 0. 0. 0. 0.
 0. 0. 0. 0.
 0. 0. 0. 0.
 0. 0. 0. 0.
 0. 0. 0. 0.
 0. 0. 0. 0.
 0. 0. 0. 0.
 0. 0. 0. 0.
 0. 0. 0. 0.
 0. 0. 0. 0.
 0. 0. 0. 0.
 0. 0. 0. 0.
 0. 0. 0. 0.
 0. 0. 0. 0.
 0. 0. 0. 0.
 0. 0. 0. 0.
 0. 0. 0. 0.
 0. 0. 0. 0.
 0. 0. 0. 0.
 0. 0. 0. 0.
 0. 0. 0. 0.
 0. 0. 0. 0.
 0. 0. 0. 0.
 0. 0. 0. 0.
 0. 0. 0. 0.
 0. 0. 0. 0.
 0. 0. 0. 0.
 0. 0. 0. 0.
 0. 0. 0. 0.
 0. 0. 0. 0.
 0. 0. 0. 0.
 0. 0. 0. 0.
 0. 0. 0. 0.
 0. 0. 0. 0.
 0. 0. 0. 0.
 0. 0. 0. 0.
 0. 0. 0. 0.
 0. 0. 0. 0.
 0. 0. 0. 0.
 0. 0. 0. 0.
 0. 0. 0. 0.
 0. 0. 0. 0.
 0. 0. 0. 0.
 0. 0. 0. 0.
 0. 0. 0. 0.
 0. 0. 0. 0.
 0. 0. 0. 0.
 0. 0. 0. 0.
 0. 0. 0. 0.
 0. 0. 0. 0.
 0. 0. 0. 0.
 0. 0. 0. 0.
 0. 0. 0. 0.
 0. 0. 0. 0.
 0. 0. 0. 0.
 0. 0. 0. 0.
 0. 0. 0. 0.
 0. 0. 0. 0.
 0. 0. 0. 0.
 0. 0. 0. 0.
 0. 0. 0. 0.
 0. 0. 0. 0.
 0. 0. 0. 0.
 0. 0. 0. 0.
 0. 0. 0. 0.
 0. 0. 0. 0.
 0. 0. 0. 0.
 0. 0. 0. 0.
 0. 0. 0. 0.
 0. 0. 0. 0.
 0. 0. 0. 0.
 0. 0. 0. 0.
 0. 0. 0. 0.
 0. 0. 0. 0.
 0. 0. 0. 0.
 0. 0. 0. 0.
 0. 0. 0. 0.
 0. 0. 0. 0.
 0. 0. 0. 0.
 0. 0. 0. 0.
 0. 0. 0. 0.
 0. 0. 0. 0.
 0. 0. 0. 0.
 0. 0. 0. 0.
 0. 0. 0. 0.
 0. 0. 0. 0.
 0. 0. 0. 0.
 0. 0. 0. 0.
 0. 0. 0. 0.
 0. 0. 0. 0.
 0. 0. 0. 0.
 0. 0. 0. 0.
 0. 0. 0. 0.
 0. 0. 0. 0.
 0. 0. 0. 0.
 0. 0. 0. 0.
 0. 0. 0. 0.
 0. 0. 0. 0.
 0. 0. 0. 0.
 0. 0. 0. 0.
 0. 0. 0. 0.
 0. 0. 0. 0.
 0. 0. 0. 0.
 0. 0. 0. 0.
 0. 0. 0. 0.
 0. 0. 0. 0.
 0. 0. 0. 0.
 0. 0. 0. 0.
 0. 0. 0. 0.
 0. 0. 0. 0.
 0. 0. 0. 0.
 0. 0. 0. 0.
 0. 0. 0. 0.
 0. 0. 0. 0.
 0. 0. 0. 0.
 0. 0. 0. 0.
 0. 0. 0. 0.
 0. 0. 0. 0.
 0. 0. 0. 0.
 0. 0. 0. 0.
 0. 0. 0. 0.
 0. 0. 0. 0.
 0. 0. 0. 0.
 0. 0. 0. 0.
 0. 0. 0. 0.
 0. 0. 0. 0.
 0. 0. 0. 0.
 0. 0. 0. 0.
 0. 0. 0. 0.
 0. 0. 0. 0.
 0. 0. 0. 0.
 0. 0. 0. 0.
 0. 0. 0. 0.
 0. 0. 0. 0.
 0. 0. 0. 0.
 0. 0. 0. 0.
 0. 0. 0. 0.
 0. 0. 0. 0.
 0. 0. 0. 0.
 0. 0. 0. 0.
 0. 0. 0. 0.
 0. 0. 0. 0.
 0. 0. 0. 0.
 0. 0. 0. 0.
 0. 0. 0. 0.
 0. 0. 0. 0.
 0. 0. 0. 0.
 0. 0. 0. 0.
 0. 0. 0. 0.
 0. 0. 0. 0.
 0. 0. 0. 0.
 0. 0. 0. 0.
 0. 0. 0. 0.
 0. 0. 0. 0.
 0. 0. 0. 0.
 0. 0. 0. 0.
 0. 0. 0. 0.
 0. 0. 0. 0.
 0. 0. 0. 0.
 0. 0. 0. 0.
 0. 0. 0. 0.
 0. 0. 0. 0.
 0. 0. 0. 0.
 0. 0. 0. 0.
 0. 0. 0. 0.
 0. 0. 0. 0.
 0. 0. 0. 0.
 0. 0. 0. 0.
 0. 0. 0. 0.
 0. 0. 0. 0.
 0. 0. 0. 0.
 0. 0. 0. 0.
 0. 0. 0. 0.
 0. 0. 0. 0.
 0. 0. 0. 0.
 0. 0. 0. 0.
 0. 0. 0. 0.
 0. 0. 0. 0.
 0. 0. 0. 0.
 0. 0. 0. 0.
 0. 0. 0. 0.
 0. 0. 0. 0.
 0. 0. 0. 0.
 0. 0. 0. 0.
 0. 0. 0. 0.
 0. 0. 0. 0.
 0. 0. 0. 0.
 0. 0. 0. 0.
 0. 0. 0. 0.
 0. 0. 0. 0.
 0. 0. 0. 0.
 0. 0. 0. 0.
 0. 0. 0. 0.
 0. 0. 0. 0.
 0. 0. 0. 0.
 0. 0. 0. 0.
 0. 0. 0. 0.
 0. 0. 0. 0.
 0. 0. 0. 0.
 0. 0. 0. 0.
 0. 0. 0. 0.
 0. 0. 0. 0.
 0. 0. 0. 0.
 0. 0. 0. 0.
 0. 0. 0. 0.
 0. 0. 0. 0.
 0. 0. 0. 0.
 0. 0. 0. 0.
 0. 0. 0. 0.
 0. 0. 0. 0.
 0. 0. 0. 0.
 0. 0. 0. 0.
 0. 0. 0. 0.
 0. 0. 0. 0.
 0. 0. 0. 0.
 0. 0. 0. 0.
 0. 0. 0. 0.
 0. 0. 0. 0.
 0. 0. 0. 0.
 0. 0. 0. 0.
 0. 0. 0. 0.
 0. 0. 0. 0.
 0. 0. 0. 0.
 0. 0. 0. 0.
 0. 0. 0. 0.
 0. 0. 0. 0.
 0. 0. 0. 0.
 0. 0. 0. 0.
 0. 0. 0. 0.
 0. 0. 0. 0.
 0. 0. 0. 0.
 0. 0. 0. 0.
 0. 0. 0. 0.
 0. 0. 0. 0.
 0. 0. 0. 0.
 0. 0. 0. 0.
 0. 0. 0. 0.
 0. 0. 0. 0.
 0. 0. 0. 0.
 0. 0. 0. 0.
 0. 0. 0. 0.
 0. 0. 0. 0.
 0. 0. 0. 0.
 0. 0. 0. 0.
 0. 0. 0. 0.
 0. 0. 0. 0.
 0. 0. 0. 0.
 0. 0. 0. 0.
 0. 0. 0. 0.
 0. 0. 0. 0.
 0. 0. 0. 0.
 0. 0. 0. 0.
 0. 0. 0. 0.
 0. 0. 0. 0.
 0. 0. 0. 0.
 0. 0. 0. 0.
 0. 0. 0. 0.
 0. 0. 0. 0.
 0. 0. 0. 0.
 0. 0. 0. 0.
 0. 0. 0. 0.
 0. 0. 0. 0.
 0. 0. 0. 0.
 0. 0. 0. 0.
 0. 0. 0. 0.
 0. 0. 0. 0.
 0. 0. 0. 0.
 0. 0. 0. 0.
 0. 0. 0. 0.
 0. 0. 0. 0.
 0. 0. 0. 0.
 0. 0. 0. 0.
 0. 0. 0. 0.
 0. 0. 0. 0.
 0. 0. 0. 0.
 0. 0. 0. 0.
 0. 0. 0. 0.
 0. 0. 0. 0.
 0. 0. 0. 0.
 0. 0. 0. 0.
 0. 0. 0. 0.
 0. 0. 0. 0.
 0. 0. 0. 0.
 0. 0. 0. 0.
 0. 0. 0. 0.
 0. 0. 0. 0.
 0. 0. 0. 0.
 0. 0. 0. 0.
 0. 0. 0. 0.
 0. 0. 0. 0.
 0. 0. 0. 0.
 0. 0. 0. 0.
 0. 0. 0. 0.
 0. 0. 0. 0.
 0. 0. 0. 0.
 0. 0. 0. 0.
 0. 0. 0. 0.
 0. 0. 0. 0.
 0. 0. 0. 0.
 0. 0. 0. 0.
 0. 0. 0. 0.
 0. 0. 0. 0.
 0. 0. 0. 0.
 0. 0. 0. 0.
 0. 0. 0. 0.
 0. 0. 0. 0.
 0. 0. 0. 0.
 0. 0. 0. 0.
 0. 0. 0. 0.
 0. 0. 0. 0.
 0. 0.
   </PP_BETA.4>
   <PP_BETA.5
       type="real"
       size="1630"
       columns="4"
       index="5"
       angular_momentum="2"
       cutoff_radius_index=" 344"
       cutoff_radius="    3.4300000000E+00" >
   -1.9625139187E-12    3.4271257403E-06    2.7411645772E-05    9.2484145430E-05
    2.1912155393E-04    4.2772022136E-04    7.3856888299E-04    1.1718214759E-03
    1.7474697744E-03    2.4853158136E-03    3.4049440733E-03    4.5256933971E-03
    5.8666286262E-03    7.4465119315E-03    9.2837738311E-03    1.1396483886E-02
    1.3802321070E-02    1.6518543826E-02    1.9561959798E-02    2.2948895279E-02
    2.6695164374E-02    3.0816037918E-02    3.5326212180E-02    4.0239777383E-02
    4.5570186108E-02    5.1330221611E-02    5.7531966126E-02    6.4186769217E-02
    7.1305216248E-02    7.8897097052E-02    8.6971374877E-02    9.5536155705E-02
    1.0459865802E-01    1.1416518318E-01    1.2424108636E-01    1.3483074840E-01
    1.4593754839E-01    1.5756383740E-01    1.6971091316E-01    1.8237899612E-01
    1.9556720678E-01    2.0927354447E-01    2.2349486784E-01    2.3822687690E-01
    2.5346409707E-01    2.6919986501E-01    2.8542631670E-01    3.0213437756E-01
    3.1931375495E-01    3.3695293306E-01    3.5503917029E-01    3.7355849925E-01
    3.9249572948E-01    4.1183445291E-01    4.3155705218E-01    4.5164471197E-01
    4.7207743325E-01    4.9283405055E-01    5.1389225246E-01    5.3522860511E-01
    5.5681857891E-01    5.7863657840E-01    6.0065597531E-01    6.2284914479E-01
    6.4518750479E-01    6.6764155854E-01    6.9018094017E-01    7.1277446332E-01
    7.3539017274E-01    7.5799539878E-01    7.8055681473E-01    8.0304049679E-01
    8.2541198674E-01    8.4763635705E-01    8.6967827832E-01    8.9150208896E-01
    9.1307186697E-01    9.3435150354E-01    9.5530477839E-01    9.7589543676E-01
    9.9608726757E-01    1.0158441829E+00    1.0351302985E+00    1.0539100145E+00
    1.0721480977E+00    1.0898097629E+00    1.1068607552E+00    1.1232674322E+00
    1.1389968448E+00    1.1540168187E+00    1.1682960342E+00    1.1818041049E+00
    1.1945116557E+00    1.2063903985E+00    1.2174132065E+00    1.2275541862E+00
    1.2367887479E+00    1.2450936723E+00    1.2524471757E+00    1.2588289717E+00
    1.2642203300E+00    1.2686041313E+00    1.2719649198E+00    1.2742889506E+00
    1.2755642349E+00    1.2757805792E+00    1.2749296226E+00    1.2730048676E+00
    1.2700017081E+00    1.2659174523E+00    1.2607513406E+00    1.2545045596E+00
    1.2471802504E+00    1.2387835131E+00    1.2293214055E+00    1.2188029376E+00
    1.2072390605E+00    1.1946426514E+00    1.1810284928E+00    1.1664132473E+00
    1.1508154276E+00    1.1342553616E+00    1.1167551535E+00    1.0983386393E+00
    1.0790313389E+00    1.0588604033E+00    1.0378545581E+00    1.0160440423E+00
    9.9346054421E-01    9.7013713288E-01    9.4610818655E-01    9.2140931757E-01
    8.9607729444E-01    8.7014996088E-01    8.4366615234E-01    8.1666561015E-01
    7.8918889345E-01    7.6127728934E-01    7.3297272131E-01    7.0431765631E-01
    6.7535501075E-01    6.4612805559E-01    6.1668032086E-01    5.8705549991E-01
    5.5729735351E-01    5.2744961426E-01    4.9755589142E-01    4.6765957654E-01
    4.3780374999E-01    4.0803108883E-01    3.7838377613E-01    3.4890341207E-01
    3.1963092696E-01    2.9060649650E-01    2.6186945947E-01    2.3345823797E-01
    2.0541026062E-01    1.7776188863E-01    1.5054834518E-01    1.2380364809E-01
    9.7560546044E-02    7.1850458445E-02    4.6703419060E-02    2.2148023571E-02
   -1.7886188769E-03   -2.5080930041E-02   -4.7704902779E-02   -6.9638137026E-02
   -9.0859871502E-02   -1.1135101112E-01   -1.3109415008E-01   -1.5007359063E-01
   -1.6827535754E-01   -1.8568720824E-01   -2.0229863880E-01   -2.1810088563E-01
   -2.3308692306E-01   -2.4725145693E-01   -2.6059091414E-01   -2.7310342836E-01
   -2.8478882203E-01   -2.9564858464E-01   -3.0568584762E-01   -3.1490535578E-01
   -3.2331343563E-01   -3.3091796058E-01   -3.3772831333E-01   -3.4375534555E-01
   -3.4901133496E-01   -3.5350994020E-01   -3.5726615348E-01   -3.6029625136E-01
   -3.6261774243E-01   -3.6424931972E-01   -3.6521075620E-01   -3.6552275863E-01
   -3.6520684996E-01   -3.6428529659E-01   -3.6278102888E-01   -3.6071756365E-01
   -3.5811892740E-01   -3.5500958033E-01   -3.5141434160E-01   -3.4735831584E-01
   -3.4286682105E-01   -3.3796531822E-01   -3.3267934261E-01   -3.2703443701E-01
   -3.2105608697E-01   -3.1476965822E-01   -3.0820033630E-01   -3.0137306861E-01
   -2.9431250881E-01   -2.8704296389E-01   -2.7958834368E-01   -2.7197211313E-01
   -2.6421724724E-01   -2.5634618879E-01   -2.4838080882E-01   -2.4034236994E-01
   -2.3225149244E-01   -2.2412812331E-01   -2.1599150798E-01   -2.0786016501E-01
   -1.9975186350E-01   -1.9168360337E-01   -1.8367159830E-01   -1.7573126150E-01
   -1.6787719406E-01   -1.6012317605E-01   -1.5248216006E-01   -1.4496626736E-01
   -1.3758678644E-01   -1.3035417400E-01   -1.2327805813E-01   -1.1636724385E-01
   -1.0962972067E-01   -1.0307267225E-01   -9.6702488028E-02   -9.0524776670E-02
   -8.4544381343E-02   -7.8765396609E-02   -7.3191186909E-02   -6.7824406504E-02
   -6.2667020783E-02   -5.7720328816E-02   -5.2984987071E-02   -4.8461034164E-02
   -4.4147916544E-02   -4.0044515023E-02   -3.6149172020E-02   -3.2459719431E-02
   -2.8973507017E-02   -2.5687431208E-02   -2.2597964226E-02   -1.9701183416E-02
   -1.6992800711E-02   -1.4468192110E-02   -1.2122427103E-02   -9.9502979340E-03
   -7.9463486280E-03   -6.1049036977E-03   -4.4200964452E-03   -2.8858967896E-03
   -1.4961385421E-03   -2.4454606511E-04    8.7523975214E-04    1.8696362629E-03
    2.7450946313E-03    3.5080762558E-03    4.1650300953E-03    4.7223709393E-03
    5.1864586692E-03    5.5635785402E-03    5.8599225185E-03    6.0815717044E-03
    6.2344798578E-03    6.3244580534E-03    6.3571604752E-03    6.3380713630E-03
    6.2724931219E-03    6.1655355911E-03    6.0221064781E-03    5.8469029509E-03
    5.6444043795E-03    5.4188662199E-03    5.1743150190E-03    4.9145445299E-03
    4.6431129107E-03    4.3633409831E-03    4.0783115299E-03    3.7908695983E-03
    3.5036237634E-03    3.2189483298E-03    2.9389864610E-03    2.6656541541E-03
    2.4006450364E-03    2.1454359233E-03    1.9012930884E-03    1.6692792865E-03
    1.4502614030E-03    1.2449186765E-03    1.0537514666E-03    8.7709050286E-04
    7.1510659220E-04    5.6782073223E-04    4.3511455093E-04    3.1674103718E-04
    2.1233551488E-04    1.2142680558E-04    4.3448527996E-05   -2.2249512842E-05
   -7.6389898539E-05   -1.1975617951E-04   -1.5318151396E-04   -1.7753768945E-04
   -1.9372273216E-04   -2.0265124164E-04   -2.0524682426E-04   -2.0242304880E-04
   -1.9508125650E-04   -1.8407812654E-04   -1.7015706091E-04   -1.5404295782E-04
   -1.3652461904E-04   -1.1835065768E-04   -1.0017307521E-04   -8.2570706145E-05
   -6.6041540409E-05   -5.0992946429E-05   -3.7738838132E-05   -2.6494381948E-05
   -1.7371584622E-05   -1.0378737551E-05   -5.4177707450E-06   -2.2753875700E-06
   -6.4021404905E-07   -6.5505139714E-08    1.7124187214E-08    5.7337340388E-09
   -5.1429992213E-09   -7.4442885043E-09    1.2789990807E-09    2.6229989907E-09
 0. 0. 0. 0.
 0. 0. 0. 0.
 0. 0. 0. 0.
 0. 0. 0. 0.
 0. 0. 0. 0.
 0. 0. 0. 0.
 0. 0. 0. 0.
 0. 0. 0. 0.
 0. 0. 0. 0.
 0. 0. 0. 0.
 0. 0. 0. 0.
 0. 0. 0. 0.
 0. 0. 0. 0.
 0. 0. 0. 0.
 0. 0. 0. 0.
 0. 0. 0. 0.
 0. 0. 0. 0.
 0. 0. 0. 0.
 0. 0. 0. 0.
 0. 0. 0. 0.
 0. 0. 0. 0.
 0. 0. 0. 0.
 0. 0. 0. 0.
 0. 0. 0. 0.
 0. 0. 0. 0.
 0. 0. 0. 0.
 0. 0. 0. 0.
 0. 0. 0. 0.
 0. 0. 0. 0.
 0. 0. 0. 0.
 0. 0. 0. 0.
 0. 0. 0. 0.
 0. 0. 0. 0.
 0. 0. 0. 0.
 0. 0. 0. 0.
 0. 0. 0. 0.
 0. 0. 0. 0.
 0. 0. 0. 0.
 0. 0. 0. 0.
 0. 0. 0. 0.
 0. 0. 0. 0.
 0. 0. 0. 0.
 0. 0. 0. 0.
 0. 0. 0. 0.
 0. 0. 0. 0.
 0. 0. 0. 0.
 0. 0. 0. 0.
 0. 0. 0. 0.
 0. 0. 0. 0.
 0. 0. 0. 0.
 0. 0. 0. 0.
 0. 0. 0. 0.
 0. 0. 0. 0.
 0. 0. 0. 0.
 0. 0. 0. 0.
 0. 0. 0. 0.
 0. 0. 0. 0.
 0. 0. 0. 0.
 0. 0. 0. 0.
 0. 0. 0. 0.
 0. 0. 0. 0.
 0. 0. 0. 0.
 0. 0. 0. 0.
 0. 0. 0. 0.
 0. 0. 0. 0.
 0. 0. 0. 0.
 0. 0. 0. 0.
 0. 0. 0. 0.
 0. 0. 0. 0.
 0. 0. 0. 0.
 0. 0. 0. 0.
 0. 0. 0. 0.
 0. 0. 0. 0.
 0. 0. 0. 0.
 0. 0. 0. 0.
 0. 0. 0. 0.
 0. 0. 0. 0.
 0. 0. 0. 0.
 0. 0. 0. 0.
 0. 0. 0. 0.
 0. 0. 0. 0.
 0. 0. 0. 0.
 0. 0. 0. 0.
 0. 0. 0. 0.
 0. 0. 0. 0.
 0. 0. 0. 0.
 0. 0. 0. 0.
 0. 0. 0. 0.
 0. 0. 0. 0.
 0. 0. 0. 0.
 0. 0. 0. 0.
 0. 0. 0. 0.
 0. 0. 0. 0.
 0. 0. 0. 0.
 0. 0. 0. 0.
 0. 0. 0. 0.
 0. 0. 0. 0.
 0. 0. 0. 0.
 0. 0. 0. 0.
 0. 0. 0. 0.
 0. 0. 0. 0.
 0. 0. 0. 0.
 0. 0. 0. 0.
 0. 0. 0. 0.
 0. 0. 0. 0.
 0. 0. 0. 0.
 0. 0. 0. 0.
 0. 0. 0. 0.
 0. 0. 0. 0.
 0. 0. 0. 0.
 0. 0. 0. 0.
 0. 0. 0. 0.
 0. 0. 0. 0.
 0. 0. 0. 0.
 0. 0. 0. 0.
 0. 0. 0. 0.
 0. 0. 0. 0.
 0. 0. 0. 0.
 0. 0. 0. 0.
 0. 0. 0. 0.
 0. 0. 0. 0.
 0. 0. 0. 0.
 0. 0. 0. 0.
 0. 0. 0. 0.
 0. 0. 0. 0.
 0. 0. 0. 0.
 0. 0. 0. 0.
 0. 0. 0. 0.
 0. 0. 0. 0.
 0. 0. 0. 0.
 0. 0. 0. 0.
 0. 0. 0. 0.
 0. 0. 0. 0.
 0. 0. 0. 0.
 0. 0. 0. 0.
 0. 0. 0. 0.
 0. 0. 0. 0.
 0. 0. 0. 0.
 0. 0. 0. 0.
 0. 0. 0. 0.
 0. 0. 0. 0.
 0. 0. 0. 0.
 0. 0. 0. 0.
 0. 0. 0. 0.
 0. 0. 0. 0.
 0. 0. 0. 0.
 0. 0. 0. 0.
 0. 0. 0. 0.
 0. 0. 0. 0.
 0. 0. 0. 0.
 0. 0. 0. 0.
 0. 0. 0. 0.
 0. 0. 0. 0.
 0. 0. 0. 0.
 0. 0. 0. 0.
 0. 0. 0. 0.
 0. 0. 0. 0.
 0. 0. 0. 0.
 0. 0. 0. 0.
 0. 0. 0. 0.
 0. 0. 0. 0.
 0. 0. 0. 0.
 0. 0. 0. 0.
 0. 0. 0. 0.
 0. 0. 0. 0.
 0. 0. 0. 0.
 0. 0. 0. 0.
 0. 0. 0. 0.
 0. 0. 0. 0.
 0. 0. 0. 0.
 0. 0. 0. 0.
 0. 0. 0. 0.
 0. 0. 0. 0.
 0. 0. 0. 0.
 0. 0. 0. 0.
 0. 0. 0. 0.
 0. 0. 0. 0.
 0. 0. 0. 0.
 0. 0. 0. 0.
 0. 0. 0. 0.
 0. 0. 0. 0.
 0. 0. 0. 0.
 0. 0. 0. 0.
 0. 0. 0. 0.
 0. 0. 0. 0.
 0. 0. 0. 0.
 0. 0. 0. 0.
 0. 0. 0. 0.
 0. 0. 0. 0.
 0. 0. 0. 0.
 0. 0. 0. 0.
 0. 0. 0. 0.
 0. 0. 0. 0.
 0. 0. 0. 0.
 0. 0. 0. 0.
 0. 0. 0. 0.
 0. 0. 0. 0.
 0. 0. 0. 0.
 0. 0. 0. 0.
 0. 0. 0. 0.
 0. 0. 0. 0.
 0. 0. 0. 0.
 0. 0. 0. 0.
 0. 0. 0. 0.
 0. 0. 0. 0.
 0. 0. 0. 0.
 0. 0. 0. 0.
 0. 0. 0. 0.
 0. 0. 0. 0.
 0. 0. 0. 0.
 0. 0. 0. 0.
 0. 0. 0. 0.
 0. 0. 0. 0.
 0. 0. 0. 0.
 0. 0. 0. 0.
 0. 0. 0. 0.
 0. 0. 0. 0.
 0. 0. 0. 0.
 0. 0. 0. 0.
 0. 0. 0. 0.
 0. 0. 0. 0.
 0. 0. 0. 0.
 0. 0. 0. 0.
 0. 0. 0. 0.
 0. 0. 0. 0.
 0. 0. 0. 0.
 0. 0. 0. 0.
 0. 0. 0. 0.
 0. 0. 0. 0.
 0. 0. 0. 0.
 0. 0. 0. 0.
 0. 0. 0. 0.
 0. 0. 0. 0.
 0. 0. 0. 0.
 0. 0. 0. 0.
 0. 0. 0. 0.
 0. 0. 0. 0.
 0. 0. 0. 0.
 0. 0. 0. 0.
 0. 0. 0. 0.
 0. 0. 0. 0.
 0. 0. 0. 0.
 0. 0. 0. 0.
 0. 0. 0. 0.
 0. 0. 0. 0.
 0. 0. 0. 0.
 0. 0. 0. 0.
 0. 0. 0. 0.
 0. 0. 0. 0.
 0. 0. 0. 0.
 0. 0. 0. 0.
 0. 0. 0. 0.
 0. 0. 0. 0.
 0. 0. 0. 0.
 0. 0. 0. 0.
 0. 0. 0. 0.
 0. 0. 0. 0.
 0. 0. 0. 0.
 0. 0. 0. 0.
 0. 0. 0. 0.
 0. 0. 0. 0.
 0. 0. 0. 0.
 0. 0. 0. 0.
 0. 0. 0. 0.
 0. 0. 0. 0.
 0. 0. 0. 0.
 0. 0. 0. 0.
 0. 0. 0. 0.
 0. 0. 0. 0.
 0. 0. 0. 0.
 0. 0. 0. 0.
 0. 0. 0. 0.
 0. 0. 0. 0.
 0. 0. 0. 0.
 0. 0. 0. 0.
 0. 0. 0. 0.
 0. 0. 0. 0.
 0. 0. 0. 0.
 0. 0. 0. 0.
 0. 0. 0. 0.
 0. 0. 0. 0.
 0. 0. 0. 0.
 0. 0. 0. 0.
 0. 0. 0. 0.
 0. 0. 0. 0.
 0. 0. 0. 0.
 0. 0. 0. 0.
 0. 0. 0. 0.
 0. 0. 0. 0.
 0. 0. 0. 0.
 0. 0. 0. 0.
 0. 0. 0. 0.
 0. 0. 0. 0.
 0. 0. 0. 0.
 0. 0. 0. 0.
 0. 0. 0. 0.
 0. 0. 0. 0.
 0. 0. 0. 0.
 0. 0. 0. 0.
 0. 0. 0. 0.
 0. 0. 0. 0.
 0. 0. 0. 0.
 0. 0. 0. 0.
 0. 0. 0. 0.
 0. 0. 0. 0.
 0. 0. 0. 0.
 0. 0. 0. 0.
 0. 0. 0. 0.
 0. 0. 0. 0.
 0. 0. 0. 0.
 0. 0. 0. 0.
 0. 0. 0. 0.
 0. 0. 0. 0.
 0. 0. 0. 0.
 0. 0. 0. 0.
 0. 0. 0. 0.
 0. 0. 0. 0.
 0. 0. 0. 0.
 0. 0. 0. 0.
 0. 0. 0. 0.
 0. 0. 0. 0.
 0. 0.
   </PP_BETA.5>
   <PP_BETA.6
       type="real"
       size="1630"
       columns="4"
       index="6"
       angular_momentum="2"
       cutoff_radius_index=" 344"
       cutoff_radius="    3.4300000000E+00" >
    1.0769993838E-12   -2.6205955740E-06   -2.0955987608E-05   -7.0677097200E-05
   -1.6736713938E-04   -3.2647788197E-04   -5.6328603951E-04   -8.9284984856E-04
   -1.3299658716E-03   -1.8891260783E-03   -2.5844752548E-03   -3.4297687918E-03
   -4.4383309071E-03   -5.6230133573E-03   -6.9961546980E-03   -8.5695401532E-03
   -1.0354362157E-02   -1.2361181636E-02   -1.4599890094E-02   -1.7079672584E-02
   -1.9808971628E-02   -2.2795452168E-02   -2.6045967632E-02   -2.9566527185E-02
   -3.3362264265E-02   -3.7437406477E-02   -4.1795246945E-02   -4.6438117203E-02
   -5.1367361725E-02   -5.6583314182E-02   -6.2085275525E-02   -6.7871493980E-02
   -7.3939147068E-02   -8.0284325721E-02   -8.6902020606E-02   -9.3786110744E-02
   -1.0092935451E-01   -1.0832338312E-01   -1.1595869667E-01   -1.2382466283E-01
   -1.3190951822E-01   -1.4020037268E-01   -1.4868321633E-01   -1.5734292958E-01
   -1.6616329615E-01   -1.7512701917E-01   -1.8421574031E-01   -1.9341006211E-01
   -2.0268957343E-01   -2.1203287811E-01   -2.2141762685E-01   -2.3082055228E-01
   -2.4021750721E-01   -2.4958350611E-01   -2.5889276976E-01   -2.6811877298E-01
   -2.7723429546E-01   -2.8621147566E-01   -2.9502186757E-01   -3.0363650047E-01
   -3.1202594131E-01   -3.2016035992E-01   -3.2800959671E-01   -3.3554323278E-01
   -3.4273066236E-01   -3.4954116744E-01   -3.5594399429E-01   -3.6190843184E-01
   -3.6740389173E-01   -3.7239998976E-01   -3.7686662855E-01   -3.8077408131E-01
   -3.8409307635E-01   -3.8679488220E-01   -3.8885139311E-01   -3.9023521456E-01
   -3.9091974877E-01   -3.9087927969E-01   -3.9008905743E-01   -3.8852538174E-01
   -3.8616568433E-01   -3.8298860977E-01   -3.7897409464E-01   -3.7410344481E-01
   -3.6835941038E-01   -3.6172625820E-01   -3.5418984164E-01   -3.4573766730E-01
   -3.3635895852E-01   -3.2604471538E-01   -3.1478777094E-01   -3.0258284353E-01
   -2.8942658485E-01   -2.7531762369E-01   -2.6025660502E-01   -2.4424622435E-01
   -2.2729125704E-01   -2.0939858263E-01   -1.9057720372E-01   -1.7083825964E-01
   -1.5019503443E-01   -1.2866295932E-01   -1.0625960945E-01   -8.3004694813E-02
   -5.8920045398E-02   -3.4029590472E-02   -8.3593319907E-03    1.8062687852E-02
    4.5206424906E-02    7.3039877147E-02    1.0152913448E-01    1.3063843418E-01
    1.6033022194E-01    1.9056521824E-01    2.2130249009E-01    2.5249952789E-01
    2.8411232722E-01    3.1609547539E-01    3.4840224260E-01    3.8098467736E-01
    4.1379370605E-01    4.4677923628E-01    4.7989026383E-01    5.1307498285E-01
    5.4628089905E-01    5.7945494560E-01    6.1254360131E-01    6.4549301089E-01
    6.7824910691E-01    7.1075773307E-01    7.4296476849E-01    7.7481625269E-01
    8.0625851075E-01    8.3723827852E-01    8.6770282733E-01    8.9760008792E-01
    9.2687877322E-01    9.5548849964E-01    9.8337990645E-01    1.0105047730E+00
    1.0368161335E+00    1.0622683885E+00    1.0868174138E+00    1.1104206653E+00
    1.1330372803E+00    1.1546281744E+00    1.1751561347E+00    1.1945859074E+00
    1.2128842812E+00    1.2300201651E+00    1.2459646616E+00    1.2606911331E+00
    1.2741752639E+00    1.2863951154E+00    1.2973311757E+00    1.3069664031E+00
    1.3152862627E+00    1.3222787579E+00    1.3279344541E+00    1.3322464971E+00
    1.3352106244E+00    1.3368251707E+00    1.3370910659E+00    1.3360118283E+00
    1.3335935499E+00    1.3298448769E+00    1.3247769830E+00    1.3184035377E+00
    1.3107406679E+00    1.3018069146E+00    1.2916231838E+00    1.2802126921E+00
    1.2676009076E+00    1.2538154854E+00    1.2388861995E+00    1.2228448693E+00
    1.2057252833E+00    1.1875631177E+00    1.1683958532E+00    1.1482626871E+00
    1.1272044437E+00    1.1052634819E+00    1.0824836006E+00    1.0589099424E+00
    1.0345888954E+00    1.0095679950E+00    9.8389582345E-01    9.5762191002E-01
    9.3079663067E-01    9.0347110795E-01    8.7569711161E-01    8.4752696021E-01
    8.1901341826E-01    7.9020962219E-01    7.6116876516E-01    7.3194363891E-01
    7.0258634343E-01    6.7314820803E-01    6.4367968351E-01    6.1423024512E-01
    5.8484829954E-01    5.5558109634E-01    5.2647464393E-01    4.9757363038E-01
    4.6892134903E-01    4.4055962915E-01    4.1252877161E-01    3.8486748968E-01
    3.5761285504E-01    3.3080024898E-01    3.0446331882E-01    2.7863393963E-01
    2.5334218107E-01    2.2861627952E-01    2.0448261533E-01    1.8096569515E-01
    1.5808813935E-01    1.3587067435E-01    1.1433212988E-01    9.3489440929E-02
    7.3357654444E-02    5.3949940496E-02    3.5277607892E-02    1.7350124045E-02
    1.7513897155E-04   -1.6241486747E-02   -3.1895650191E-02   -4.6784970697E-02
   -6.0908750975E-02   -7.4267934950E-02   -8.6865062498E-02   -9.8704221261E-02
   -1.0979099575E-01   -1.2013241389E-01   -1.2973689130E-01   -1.3861417335E-01
   -1.4677527532E-01   -1.5423242090E-01   -1.6099897902E-01   -1.6708939947E-01
   -1.7251914732E-01   -1.7730463645E-01   -1.8146316230E-01   -1.8501283414E-01
   -1.8797250694E-01   -1.9036171311E-01   -1.9220059426E-01   -1.9350983315E-01
   -1.9431058607E-01   -1.9462441570E-01   -1.9447322478E-01   -1.9387919061E-01
   -1.9286470057E-01   -1.9145228888E-01   -1.8966457466E-01   -1.8752420144E-01
   -1.8505377828E-01   -1.8227582261E-01   -1.7921270491E-01   -1.7588659523E-01
   -1.7231941190E-01   -1.6853277221E-01   -1.6454794541E-01   -1.6038580791E-01
   -1.5606680090E-01   -1.5161089030E-01   -1.4703752928E-01   -1.4236562313E-01
   -1.3761349683E-01   -1.3279886508E-01   -1.2793880494E-01   -1.2304973112E-01
   -1.1814737380E-01   -1.1324675912E-01   -1.0836219220E-01   -1.0350724281E-01
   -9.8694733542E-02   -9.3936730537E-02   -8.9244536686E-02   -8.4628687293E-02
   -8.0098948147E-02   -7.5664315925E-02   -7.1333020909E-02   -6.7112531917E-02
   -6.3009563403E-02   -5.9030084651E-02   -5.5179330973E-02   -5.1461816854E-02
   -4.7881350935E-02   -4.4441052764E-02   -4.1143371230E-02   -3.7990104579E-02
   -3.4982421891E-02   -3.2120885950E-02   -2.9405477466E-02   -2.6835620455E-02
   -2.4410208714E-02   -2.2127633242E-02   -1.9985810503E-02   -1.7982211617E-02
   -1.6113892215E-02   -1.4377522806E-02   -1.2769419641E-02   -1.1285575906E-02
   -9.9216932393E-03   -8.6732134369E-03   -7.5353502087E-03   -6.5031209100E-03
   -5.5713781636E-03   -4.7348412756E-03   -3.9881273444E-03   -3.3257819854E-03
   -2.7423095770E-03   -2.2322029489E-03   -1.7899724309E-03   -1.4101735596E-03
   -1.0874374894E-03   -8.1649486280E-04   -5.9219459891E-04   -4.0954797930E-04
   -2.6373455547E-04   -1.5017572797E-04   -6.4689062367E-05   -3.2760962207E-06
    3.8062316137E-05    6.3093341635E-05    7.5226467242E-05    7.7566540430E-05
    7.2897352045E-05    6.3660722482E-05    5.1951225423E-05    3.9505519453E-05
    2.7693940891E-05    1.7520047694E-05    9.6150712024E-06    4.2245085433E-06
    1.2472430414E-06    1.4178912696E-07   -4.0261375368E-08   -1.9903569455E-08
    1.1442185269E-08    1.7021881864E-08   -2.4615456727E-09   -5.0463823423E-09
 0. 0. 0. 0.
 0. 0. 0. 0.
 0. 0. 0. 0.
 0. 0. 0. 0.
 0. 0. 0. 0.
 0. 0. 0. 0.
 0. 0. 0. 0.
 0. 0. 0. 0.
 0. 0. 0. 0.
 0. 0. 0. 0.
 0. 0. 0. 0.
 0. 0. 0. 0.
 0. 0. 0. 0.
 0. 0. 0. 0.
 0. 0. 0. 0.
 0. 0. 0. 0.
 0. 0. 0. 0.
 0. 0. 0. 0.
 0. 0. 0. 0.
 0. 0. 0. 0.
 0. 0. 0. 0.
 0. 0. 0. 0.
 0. 0. 0. 0.
 0. 0. 0. 0.
 0. 0. 0. 0.
 0. 0. 0. 0.
 0. 0. 0. 0.
 0. 0. 0. 0.
 0. 0. 0. 0.
 0. 0. 0. 0.
 0. 0. 0. 0.
 0. 0. 0. 0.
 0. 0. 0. 0.
 0. 0. 0. 0.
 0. 0. 0. 0.
 0. 0. 0. 0.
 0. 0. 0. 0.
 0. 0. 0. 0.
 0. 0. 0. 0.
 0. 0. 0. 0.
 0. 0. 0. 0.
 0. 0. 0. 0.
 0. 0. 0. 0.
 0. 0. 0. 0.
 0. 0. 0. 0.
 0. 0. 0. 0.
 0. 0. 0. 0.
 0. 0. 0. 0.
 0. 0. 0. 0.
 0. 0. 0. 0.
 0. 0. 0. 0.
 0. 0. 0. 0.
 0. 0. 0. 0.
 0. 0. 0. 0.
 0. 0. 0. 0.
 0. 0. 0. 0.
 0. 0. 0. 0.
 0. 0. 0. 0.
 0. 0. 0. 0.
 0. 0. 0. 0.
 0. 0. 0. 0.
 0. 0. 0. 0.
 0. 0. 0. 0.
 0. 0. 0. 0.
 0. 0. 0. 0.
 0. 0. 0. 0.
 0. 0. 0. 0.
 0. 0. 0. 0.
 0. 0. 0. 0.
 0. 0. 0. 0.
 0. 0. 0. 0.
 0. 0. 0. 0.
 0. 0. 0. 0.
 0. 0. 0. 0.
 0. 0. 0. 0.
 0. 0. 0. 0.
 0. 0. 0. 0.
 0. 0. 0. 0.
 0. 0. 0. 0.
 0. 0. 0. 0.
 0. 0. 0. 0.
 0. 0. 0. 0.
 0. 0. 0. 0.
 0. 0. 0. 0.
 0. 0. 0. 0.
 0. 0. 0. 0.
 0. 0. 0. 0.
 0. 0. 0. 0.
 0. 0. 0. 0.
 0. 0. 0. 0.
 0. 0. 0. 0.
 0. 0. 0. 0.
 0. 0. 0. 0.
 0. 0. 0. 0.
 0. 0. 0. 0.
 0. 0. 0. 0.
 0. 0. 0. 0.
 0. 0. 0. 0.
 0. 0. 0. 0.
 0. 0. 0. 0.
 0. 0. 0. 0.
 0. 0. 0. 0.
 0. 0. 0. 0.
 0. 0. 0. 0.
 0. 0. 0. 0.
 0. 0. 0. 0.
 0. 0. 0. 0.
 0. 0. 0. 0.
 0. 0. 0. 0.
 0. 0. 0. 0.
 0. 0. 0. 0.
 0. 0. 0. 0.
 0. 0. 0. 0.
 0. 0. 0. 0.
 0. 0. 0. 0.
 0. 0. 0. 0.
 0. 0. 0. 0.
 0. 0. 0. 0.
 0. 0. 0. 0.
 0. 0. 0. 0.
 0. 0. 0. 0.
 0. 0. 0. 0.
 0. 0. 0. 0.
 0. 0. 0. 0.
 0. 0. 0. 0.
 0. 0. 0. 0.
 0. 0. 0. 0.
 0. 0. 0. 0.
 0. 0. 0. 0.
 0. 0. 0. 0.
 0. 0. 0. 0.
 0. 0. 0. 0.
 0. 0. 0. 0.
 0. 0. 0. 0.
 0. 0. 0. 0.
 0. 0. 0. 0.
 0. 0. 0. 0.
 0. 0. 0. 0.
 0. 0. 0. 0.
 0. 0. 0. 0.
 0. 0. 0. 0.
 0. 0. 0. 0.
 0. 0. 0. 0.
 0. 0. 0. 0.
 0. 0. 0. 0.
 0. 0. 0. 0.
 0. 0. 0. 0.
 0. 0. 0. 0.
 0. 0. 0. 0.
 0. 0. 0. 0.
 0. 0. 0. 0.
 0. 0. 0. 0.
 0. 0. 0. 0.
 0. 0. 0. 0.
 0. 0. 0. 0.
 0. 0. 0. 0.
 0. 0. 0. 0.
 0. 0. 0. 0.
 0. 0. 0. 0.
 0. 0. 0. 0.
 0. 0. 0. 0.
 0. 0. 0. 0.
 0. 0. 0. 0.
 0. 0. 0. 0.
 0. 0. 0. 0.
 0. 0. 0. 0.
 0. 0. 0. 0.
 0. 0. 0. 0.
 0. 0. 0. 0.
 0. 0. 0. 0.
 0. 0. 0. 0.
 0. 0. 0. 0.
 0. 0. 0. 0.
 0. 0. 0. 0.
 0. 0. 0. 0.
 0. 0. 0. 0.
 0. 0. 0. 0.
 0. 0. 0. 0.
 0. 0. 0. 0.
 0. 0. 0. 0.
 0. 0. 0. 0.
 0. 0. 0. 0.
 0. 0. 0. 0.
 0. 0. 0. 0.
 0. 0. 0. 0.
 0. 0. 0. 0.
 0. 0. 0. 0.
 0. 0. 0. 0.
 0. 0. 0. 0.
 0. 0. 0. 0.
 0. 0. 0. 0.
 0. 0. 0. 0.
 0. 0. 0. 0.
 0. 0. 0. 0.
 0. 0. 0. 0.
 0. 0. 0. 0.
 0. 0. 0. 0.
 0. 0. 0. 0.
 0. 0. 0. 0.
 0. 0. 0. 0.
 0. 0. 0. 0.
 0. 0. 0. 0.
 0. 0. 0. 0.
 0. 0. 0. 0.
 0. 0. 0. 0.
 0. 0. 0. 0.
 0. 0. 0. 0.
 0. 0. 0. 0.
 0. 0. 0. 0.
 0. 0. 0. 0.
 0. 0. 0. 0.
 0. 0. 0. 0.
 0. 0. 0. 0.
 0. 0. 0. 0.
 0. 0. 0. 0.
 0. 0. 0. 0.
 0. 0. 0. 0.
 0. 0. 0. 0.
 0. 0. 0. 0.
 0. 0. 0. 0.
 0. 0. 0. 0.
 0. 0. 0. 0.
 0. 0. 0. 0.
 0. 0. 0. 0.
 0. 0. 0. 0.
 0. 0. 0. 0.
 0. 0. 0. 0.
 0. 0. 0. 0.
 0. 0. 0. 0.
 0. 0. 0. 0.
 0. 0. 0. 0.
 0. 0. 0. 0.
 0. 0. 0. 0.
 0. 0. 0. 0.
 0. 0. 0. 0.
 0. 0. 0. 0.
 0. 0. 0. 0.
 0. 0. 0. 0.
 0. 0. 0. 0.
 0. 0. 0. 0.
 0. 0. 0. 0.
 0. 0. 0. 0.
 0. 0. 0. 0.
 0. 0. 0. 0.
 0. 0. 0. 0.
 0. 0. 0. 0.
 0. 0. 0. 0.
 0. 0. 0. 0.
 0. 0. 0. 0.
 0. 0. 0. 0.
 0. 0. 0. 0.
 0. 0. 0. 0.
 0. 0. 0. 0.
 0. 0. 0. 0.
 0. 0. 0. 0.
 0. 0. 0. 0.
 0. 0. 0. 0.
 0. 0. 0. 0.
 0. 0. 0. 0.
 0. 0. 0. 0.
 0. 0. 0. 0.
 0. 0. 0. 0.
 0. 0. 0. 0.
 0. 0. 0. 0.
 0. 0. 0. 0.
 0. 0. 0. 0.
 0. 0. 0. 0.
 0. 0. 0. 0.
 0. 0. 0. 0.
 0. 0. 0. 0.
 0. 0. 0. 0.
 0. 0. 0. 0.
 0. 0. 0. 0.
 0. 0. 0. 0.
 0. 0. 0. 0.
 0. 0. 0. 0.
 0. 0. 0. 0.
 0. 0. 0. 0.
 0. 0. 0. 0.
 0. 0. 0. 0.
 0. 0. 0. 0.
 0. 0. 0. 0.
 0. 0. 0. 0.
 0. 0. 0. 0.
 0. 0. 0. 0.
 0. 0. 0. 0.
 0. 0. 0. 0.
 0. 0. 0. 0.
 0. 0. 0. 0.
 0. 0. 0. 0.
 0. 0. 0. 0.
 0. 0. 0. 0.
 0. 0. 0. 0.
 0. 0. 0. 0.
 0. 0. 0. 0.
 0. 0. 0. 0.
 0. 0. 0. 0.
 0. 0. 0. 0.
 0. 0. 0. 0.
 0. 0. 0. 0.
 0. 0. 0. 0.
 0. 0. 0. 0.
 0. 0. 0. 0.
 0. 0. 0. 0.
 0. 0. 0. 0.
 0. 0. 0. 0.
 0. 0. 0. 0.
 0. 0. 0. 0.
 0. 0. 0. 0.
 0. 0. 0. 0.
 0. 0. 0. 0.
 0. 0. 0. 0.
 0. 0. 0. 0.
 0. 0. 0. 0.
 0. 0. 0. 0.
 0. 0. 0. 0.
 0. 0. 0. 0.
 0. 0. 0. 0.
 0. 0. 0. 0.
 0. 0. 0. 0.
 0. 0. 0. 0.
 0. 0.
   </PP_BETA.6>
   <PP_DIJ type="real"  size="  36" columns="4">
    1.0308987310E+01    0.0000000000E+00    0.0000000000E+00    0.0000000000E+00
    0.0000000000E+00    0.0000000000E+00    0.0000000000E+00    2.3922145870E+00
    0.0000000000E+00    0.0000000000E+00    0.0000000000E+00    0.0000000000E+00
    0.0000000000E+00    0.0000000000E+00    6.4181862361E+00    0.0000000000E+00
    0.0000000000E+00    0.0000000000E+00    0.0000000000E+00    0.0000000000E+00
    0.0000000000E+00    5.1475181259E-01    0.0000000000E+00    0.0000000000E+00
    0.0000000000E+00    0.0000000000E+00    0.0000000000E+00    0.0000000000E+00
   -4.8789042873E+00    0.0000000000E+00    0.0000000000E+00    0.0000000000E+00
    0.0000000000E+00    0.0000000000E+00    0.0000000000E+00   -2.4271010045E+00
   </PP_DIJ>
 </PP_NONLOCAL>
 <PP_PSWFC>
   <PP_CHI.1
       type="real"
       size="1630"
       columns="4"
       index="1"
       occupation="10.000"
       pseudo_energy="   -0.1895692605E+01"
       label="4D"
       l="2" >
    3.2808976889E-13    2.1481177319E-06    1.7180350421E-05    5.7957864470E-05
    1.3729597082E-04    2.6794130169E-04    4.6254911257E-04    7.3366075069E-04
    1.0936813311E-03    1.5548576611E-03    2.1292564522E-03    2.8287428609E-03
    3.6649593954E-03    4.6493052268E-03    5.7929159433E-03    7.1066437822E-03
    8.6010383757E-03    1.0286328046E-02    1.2172401681E-02    1.4268791225E-02
    1.6584654815E-02    1.9128760587E-02    2.1909471194E-02    2.4934729044E-02
    2.8212042302E-02    3.1748471666E-02    3.5550617945E-02    3.9624610466E-02
    4.3976096315E-02    4.8610230444E-02    5.3531666647E-02    5.8744549437E-02
    6.4252506811E-02    7.0058643942E-02    7.6165537783E-02    8.2575232607E-02
    8.9289236475E-02    9.6308518651E-02    1.0363350795E-01    1.1126409203E-01
    1.1919961761E-01    1.2743889165E-01    1.3598018345E-01    1.4482122762E-01
    1.5395922807E-01    1.6339086279E-01    1.7311228961E-01    1.8311915277E-01
    1.9340659039E-01    2.0396924279E-01    2.1480126160E-01    2.2589631971E-01
    2.3724762196E-01    2.4884791669E-01    2.6068950786E-01    2.7276426809E-01
    2.8506365218E-01    2.9757871145E-01    3.1030010861E-01    3.2321813324E-01
    3.3632271793E-01    3.4960345478E-01    3.6304961261E-01    3.7665015443E-01
    3.9039375554E-01    4.0426882187E-01    4.1826350881E-01    4.3236574026E-01
    4.4656322806E-01    4.6084349164E-01    4.7519387787E-01    4.8960158115E-01
    5.0405366356E-01    5.1853707523E-01    5.3303867466E-01    5.4754524919E-01
    5.6204353537E-01    5.7652023936E-01    5.9096205724E-01    6.0535569516E-01
    6.1968788944E-01    6.3394542639E-01    6.4811516201E-01    6.6218404135E-01
    6.7613911767E-01    6.8996757127E-01    7.0365672792E-01    7.1719407700E-01
    7.3056728918E-01    7.4376423372E-01    7.5677299527E-01    7.6958189022E-01
    7.8217948251E-01    7.9455459895E-01    8.0669634397E-01    8.1859411378E-01
    8.3023760998E-01    8.4161685251E-01    8.5272219199E-01    8.6354432147E-01
    8.7407428739E-01    8.8430350004E-01    8.9422374320E-01    9.0382718313E-01
    9.1310637689E-01    9.2205427993E-01    9.3066425295E-01    9.3893006805E-01
    9.4684591416E-01    9.5440640178E-01    9.6160656692E-01    9.6844187439E-01
    9.7490822035E-01    9.8100193411E-01    9.8671977926E-01    9.9205895408E-01
    9.9701709126E-01    1.0015922569E+00    1.0057829489E+00    1.0095880947E+00
    1.0130070480E+00    1.0160395855E+00    1.0186859027E+00    1.0209466087E+00
    1.0228227209E+00    1.0243156592E+00    1.0254272391E+00    1.0261596648E+00
    1.0265155216E+00    1.0264977674E+00    1.0261097246E+00    1.0253550706E+00
    1.0242378287E+00    1.0227623578E+00    1.0209333422E+00    1.0187557813E+00
    1.0162349780E+00    1.0133765280E+00    1.0101863076E+00    1.0066704623E+00
    1.0028353945E+00    9.9868775125E-01    9.9423441152E-01    9.8948247380E-01
    9.8443924310E-01    9.7911221811E-01    9.7350907811E-01    9.6763766992E-01
    9.6150599472E-01    9.5512219496E-01    9.4849454114E-01    9.4163141873E-01
    9.3454131512E-01    9.2723280656E-01    9.1971454530E-01    9.1199524681E-01
    9.0408367708E-01    8.9598864019E-01    8.8771896590E-01    8.7928349762E-01
    8.7069108042E-01    8.6195054935E-01    8.5307071801E-01    8.4406036738E-01
    8.3492823485E-01    8.2568300365E-01    8.1633329251E-01    8.0688764562E-01
    7.9735452299E-01    7.8774229109E-01    7.7805921383E-01    7.6831344391E-01
    7.5851301455E-01    7.4866583155E-01    7.3877966576E-01    7.2886214592E-01
    7.1892075184E-01    7.0896280808E-01    6.9899547788E-01    6.8902575762E-01
    6.7906047153E-01    6.6910626696E-01    6.5916960989E-01    6.4925678094E-01
    6.3937387172E-01    6.2952678157E-01    6.1972121472E-01    6.0996267781E-01
    6.0025647775E-01    5.9060772002E-01    5.8102130727E-01    5.7150193837E-01
    5.6205410766E-01    5.5268210472E-01    5.4339001436E-01    5.3418171694E-01
    5.2506088907E-01    5.1603100460E-01    5.0709533584E-01    4.9825695516E-01
    4.8951873685E-01    4.8088335916E-01    4.7235330673E-01    4.6393087316E-01
    4.5561816387E-01    4.4741709915E-01    4.3932941744E-01    4.3135667880E-01
    4.2350026856E-01    4.1576140115E-01    4.0814112408E-01    4.0064032213E-01
    3.9325972154E-01    3.8599989450E-01    3.7886126360E-01    3.7184410647E-01
    3.6494856050E-01    3.5817462760E-01    3.5152217906E-01    3.4499096047E-01
    3.3858059662E-01    3.3229059656E-01    3.2612035852E-01    3.2006917500E-01
    3.1413623775E-01    3.0832064280E-01    3.0262139546E-01    2.9703741528E-01
    2.9156754100E-01    2.8621053542E-01    2.8096509030E-01    2.7582983108E-01
    2.7080332165E-01    2.6588406897E-01    2.6107052768E-01    2.5636110452E-01
    2.5175416277E-01    2.4724802656E-01    2.4284098500E-01    2.3853129635E-01
    2.3431719195E-01    2.3019688010E-01    2.2616854979E-01    2.2223037436E-01
    2.1838051500E-01    2.1461712409E-01    2.1093834850E-01    2.0734233268E-01
    2.0382722168E-01    2.0039116396E-01    1.9703231419E-01    1.9374883578E-01
    1.9053890339E-01    1.8740070523E-01    1.8433244528E-01    1.8133234534E-01
    1.7839864701E-01    1.7552961344E-01    1.7272353109E-01    1.6997871121E-01
    1.6729349135E-01    1.6466623664E-01    1.6209534101E-01    1.5957922826E-01
    1.5711635302E-01    1.5470520168E-01    1.5234429304E-01    1.5003217909E-01
    1.4776744545E-01    1.4554871191E-01    1.4337463274E-01    1.4124389703E-01
    1.3915522878E-01    1.3710738714E-01    1.3509916631E-01    1.3312939558E-01
    1.3119693920E-01    1.2930069617E-01    1.2743960001E-01    1.2561261846E-01
    1.2381875311E-01    1.2205703900E-01    1.2032654412E-01    1.1862636895E-01
    1.1695564590E-01    1.1531353867E-01    1.1369924171E-01    1.1211197951E-01
    1.1055100594E-01    1.0901560352E-01    1.0750508273E-01    1.0601878123E-01
    1.0455606312E-01    1.0311631813E-01    1.0169896087E-01    1.0030343000E-01
    9.8929187461E-02    9.7575717638E-02    9.6242526575E-02    9.4929141158E-02
    9.3635108316E-02    9.2359994223E-02    9.1103383506E-02    8.9864878458E-02
    8.8644098269E-02    8.7440678262E-02    8.6254269139E-02    8.5084536252E-02
    8.3931158875E-02    8.2793829500E-02    8.1672253154E-02    8.0566146720E-02
    7.9475238293E-02    7.8399266540E-02    7.7337980096E-02    7.6291136963E-02
    7.5258503946E-02    7.4239856099E-02    7.3234976200E-02    7.2243654242E-02
    7.1265686953E-02    7.0300877331E-02    6.9349034210E-02    6.8409971842E-02
    6.7483509502E-02    6.6569471124E-02    6.5667684946E-02    6.4777983191E-02
    6.3900201757E-02    6.3034179941E-02    6.2179760181E-02    6.1336787815E-02
    6.0505110874E-02    5.9684579881E-02    5.8875047689E-02    5.8076369322E-02
    5.7288401855E-02    5.6511004299E-02    5.5744037519E-02    5.4987364169E-02
    5.4240848641E-02    5.3504357046E-02    5.2777757198E-02    5.2060918589E-02
    5.1353712387E-02    5.0656011402E-02    4.9967690065E-02    4.9288624415E-02
    4.8618692074E-02    4.7957772234E-02    4.7305745635E-02    4.6662494548E-02
    4.6027902756E-02    4.5401855536E-02    4.4784239641E-02    4.4174943282E-02
    4.3573856114E-02    4.2980869212E-02    4.2395875058E-02    4.1818767527E-02
    4.1249441861E-02    4.0687794662E-02    4.0133723869E-02    3.9587128745E-02
    3.9047909859E-02    3.8515969072E-02    3.7991209517E-02    3.7473535589E-02
    3.6962852926E-02    3.6459068392E-02    3.5962090067E-02    3.5471827227E-02
    3.4988190331E-02    3.4511091008E-02    3.4040442040E-02    3.3576157347E-02
    3.3118151976E-02    3.2666342085E-02    3.2220644927E-02    3.1780978841E-02
    3.1347263234E-02    3.0919418571E-02    3.0497366357E-02    3.0081029130E-02
    2.9670330443E-02    2.9265194854E-02    2.8865547910E-02    2.8471316138E-02
    2.8082427033E-02    2.7698809041E-02    2.7320391551E-02    2.6947104882E-02
    2.6578880270E-02    2.6215649857E-02    2.5857346681E-02    2.5503904663E-02
    2.5155258594E-02    2.4811344127E-02    2.4472097764E-02    2.4137456847E-02
    2.3807359544E-02    2.3481744842E-02    2.3160552533E-02    2.2843723206E-02
    2.2531198237E-02    2.2222919776E-02    2.1918830741E-02    2.1618874804E-02
    2.1322996384E-02    2.1031140637E-02    2.0743253445E-02    2.0459281409E-02
    2.0179171835E-02    1.9902872733E-02    1.9630332798E-02    1.9361501409E-02
    1.9096328616E-02    1.8834765133E-02    1.8576762329E-02    1.8322272217E-02
    1.8071247450E-02    1.7823641310E-02    1.7579407698E-02    1.7338501132E-02
    1.7100876738E-02    1.6866490237E-02    1.6635297932E-02    1.6407256711E-02
    1.6182324034E-02    1.5960457933E-02    1.5741616999E-02    1.5525760371E-02
    1.5312847737E-02    1.5102839317E-02    1.4895695867E-02    1.4691378663E-02
    1.4489849498E-02    1.4291070676E-02    1.4095005003E-02    1.3901615782E-02
    1.3710866805E-02    1.3522722348E-02    1.3337147166E-02    1.3154106482E-02
    1.2973565985E-02    1.2795491822E-02    1.2619850593E-02    1.2446609346E-02
    1.2275735567E-02    1.2107197177E-02    1.1940962529E-02    1.1777000397E-02
    1.1615279974E-02    1.1455770864E-02    1.1298443080E-02    1.1143267034E-02
    1.0990213538E-02    1.0839253791E-02    1.0690359380E-02    1.0543502273E-02
    1.0398654814E-02    1.0255789716E-02    1.0114880059E-02    9.9758992848E-03
    9.8388211905E-03    9.7036199251E-03    9.5702699845E-03    9.4387462072E-03
    9.3090237692E-03    9.1810781801E-03    9.0548852784E-03    8.9304212272E-03
    8.8076625097E-03    8.6865859256E-03    8.5671685861E-03    8.4493879104E-03
    8.3332216212E-03    8.2186477410E-03    8.1056445879E-03    7.9941907718E-03
    7.8842651905E-03    7.7758470259E-03    7.6689157403E-03    7.5634510725E-03
    7.4594330342E-03    7.3568419066E-03    7.2556582365E-03    7.1558628329E-03
    7.0574367637E-03    6.9603613519E-03    6.8646181727E-03    6.7701890495E-03
    6.6770560513E-03    6.5852014890E-03    6.4946079123E-03    6.4052581065E-03
    6.3171350893E-03    6.2302221080E-03    6.1445026363E-03    6.0599603709E-03
    5.9765792292E-03    5.8943433459E-03    5.8132370702E-03    5.7332449632E-03
    5.6543517947E-03    5.5765425406E-03    5.4998023802E-03    5.4241166933E-03
    5.3494710579E-03    5.2758512472E-03    5.2032432271E-03    5.1316331536E-03
    5.0610073705E-03    4.9913524066E-03    4.9226549732E-03    4.8549019621E-03
    4.7880804427E-03    4.7221776599E-03    4.6571810316E-03    4.5930781465E-03
    4.5298567618E-03    4.4675048011E-03    4.4060103516E-03    4.3453616628E-03
    4.2855471435E-03    4.2265553601E-03    4.1683750345E-03    4.1109950419E-03
    4.0544044087E-03    3.9985923106E-03    3.9435480705E-03    3.8892611567E-03
    3.8357211806E-03    3.7829178953E-03    3.7308411932E-03    3.6794811043E-03
    3.6288277945E-03    3.5788715637E-03    3.5296028438E-03    3.4810121973E-03
    3.4330903151E-03    3.3858280153E-03    3.3392162408E-03    3.2932460585E-03
    3.2479086569E-03    3.2031953445E-03    3.1590975489E-03    3.1156068142E-03
    3.0727148004E-03    3.0304132809E-03    2.9886941419E-03    2.9475493800E-03
    2.9069711014E-03    2.8669515201E-03    2.8274829565E-03    2.7885578359E-03
    2.7501686871E-03    2.7123081413E-03    2.6749689302E-03    2.6381438851E-03
    2.6018259352E-03    2.5660081066E-03    2.5306835206E-03    2.4958453930E-03
    2.4614870321E-03    2.4276018380E-03    2.3941833012E-03    2.3612250012E-03
    2.3287206056E-03    2.2966638686E-03    2.2650486301E-03    2.2338688143E-03
    2.2031184288E-03    2.1727915632E-03    2.1428823882E-03    2.1133851543E-03
    2.0842941912E-03    2.0556039059E-03    2.0273087825E-03    1.9994033805E-03
    1.9718823341E-03    1.9447403513E-03    1.9179722126E-03    1.8915727700E-03
    1.8655369465E-03    1.8398597345E-03    1.8145361953E-03    1.7895614579E-03
    1.7649307185E-03    1.7406392389E-03    1.7166823463E-03    1.6930554318E-03
    1.6697539501E-03    1.6467734182E-03    1.6241094148E-03    1.6017575793E-03
    1.5797136111E-03    1.5579732687E-03    1.5365323689E-03    1.5153867860E-03
    1.4945324511E-03    1.4739653512E-03    1.4536815286E-03    1.4336770800E-03
    1.4139481556E-03    1.3944909588E-03    1.3753017452E-03    1.3563768220E-03
    1.3377125469E-03    1.3193053281E-03    1.3011516230E-03    1.2832479379E-03
    1.2655908271E-03    1.2481768924E-03    1.2310027824E-03    1.2140651918E-03
    1.1973608609E-03    1.1808865747E-03    1.1646391626E-03    1.1486154978E-03
    1.1328124964E-03    1.1172271169E-03    1.1018563600E-03    1.0866972674E-03
    1.0717469217E-03    1.0570024459E-03    1.0424610022E-03    1.0281197922E-03
    1.0139760562E-03    1.0000270721E-03    9.8627015569E-04    9.7270265959E-04
    9.5932197297E-04    9.4612552094E-04    9.3311076416E-04    9.2027519824E-04
    9.0761635335E-04    8.9513179371E-04    8.8281911711E-04    8.7067595447E-04
    8.5869996938E-04    8.4688885762E-04    8.3524034677E-04    8.2375219575E-04
    8.1242219435E-04    8.0124816289E-04    7.9022795170E-04    7.7935944079E-04
    7.6864053940E-04    7.5806918560E-04    7.4764334591E-04    7.3736101489E-04
    7.2722021475E-04    7.1721899501E-04    7.0735543207E-04    6.9762762886E-04
    6.8803371451E-04    6.7857184392E-04    6.6924019747E-04    6.6003698063E-04
    6.5096042363E-04    6.4200878109E-04    6.3318033176E-04    6.2447337808E-04
    6.1588624595E-04    6.0741728434E-04    5.9906486501E-04    5.9082738218E-04
    5.8270325222E-04    5.7469091335E-04    5.6678882534E-04    5.5899546921E-04
    5.5130934692E-04    5.4372898113E-04    5.3625291485E-04    5.2887971120E-04
    5.2160795313E-04    5.1443624313E-04    5.0736320298E-04    5.0038747348E-04
    4.9350771415E-04    4.8672260305E-04    4.8003083643E-04    4.7343112855E-04
    4.6692221142E-04    4.6050283451E-04    4.5417176457E-04    4.4792778534E-04
    4.4176969736E-04    4.3569631771E-04    4.2970647978E-04    4.2379903305E-04
    4.1797284288E-04    4.1222679029E-04    4.0655977171E-04    4.0097069881E-04
    3.9545849827E-04    3.9002211157E-04    3.8466049480E-04    3.7937261843E-04
    3.7415746715E-04    3.6901403964E-04    3.6394134839E-04    3.5893841952E-04
    3.5400429257E-04    3.4913802034E-04    3.4433866866E-04    3.3960531629E-04
    3.3493705466E-04    3.3033298773E-04    3.2579223184E-04    3.2131391548E-04
    3.1689717920E-04    3.1254117536E-04    3.0824506802E-04    3.0400803279E-04
    2.9982925661E-04    2.9570793765E-04    2.9164328513E-04    2.8763451917E-04
    2.8368087065E-04    2.7978158105E-04    2.7593590229E-04    2.7214309662E-04
    2.6840243645E-04    2.6471320424E-04    2.6107469231E-04    2.5748620274E-04
    2.5394704726E-04    2.5045654705E-04    2.4701403266E-04    2.4361884386E-04
    2.4027032953E-04    2.3696784752E-04    2.3371076452E-04    2.3049845595E-04
    2.2733030584E-04    2.2420570672E-04    2.2112405945E-04    2.1808477320E-04
    2.1508726523E-04    2.1213096086E-04    2.0921529332E-04    2.0633970364E-04
    2.0350364056E-04    2.0070656041E-04    1.9794792701E-04    1.9522721156E-04
    1.9254389255E-04    1.8989745566E-04    1.8728739364E-04    1.8471320624E-04
    1.8217440008E-04    1.7967048859E-04    1.7720099190E-04    1.7476543675E-04
    1.7236335639E-04    1.6999429050E-04    1.6765778510E-04    1.6535339246E-04
    1.6308067102E-04    1.6083918528E-04    1.5862850577E-04    1.5644820890E-04
    1.5429787694E-04    1.5217709787E-04    1.5008546539E-04    1.4802257877E-04
    1.4598804279E-04    1.4398146768E-04    1.4200246903E-04    1.4005066773E-04
    1.3812568988E-04    1.3622716673E-04    1.3435473459E-04    1.3250803480E-04
    1.3068671363E-04    1.2889042220E-04    1.2711881645E-04    1.2537155704E-04
    1.2364830932E-04    1.2194874323E-04    1.2027253324E-04    1.1861935832E-04
    1.1698890186E-04    1.1538085158E-04    1.1379489953E-04    1.1223074196E-04
    1.1068807933E-04    1.0916661620E-04    1.0766606121E-04    1.0618612700E-04
    1.0472653016E-04    1.0328699119E-04    1.0186723441E-04    1.0046698797E-04
    9.9085983714E-05    9.7723957214E-05    9.6380647658E-05    9.5055797825E-05
    9.3749154033E-05    9.2460466086E-05    9.1189487233E-05    8.9935974111E-05
    8.8699686709E-05    8.7480388312E-05    8.6277845462E-05    8.5091827912E-05
    8.3922108579E-05    8.2768463503E-05    8.1630671805E-05    8.0508515640E-05
    7.9401780160E-05    7.8310253472E-05    7.7233726592E-05    7.6171993414E-05
    7.5124850662E-05    7.4092097856E-05    7.3073537271E-05    7.2068973902E-05
    7.1078215424E-05    7.0101072153E-05    6.9137357016E-05    6.8186885510E-05
    6.7249475668E-05    6.6324948024E-05    6.5413125579E-05    6.4513833767E-05
    6.3626900421E-05    6.2752155740E-05    6.1889432257E-05    6.1038564807E-05
    6.0199390495E-05    5.9371748664E-05    5.8555480864E-05    5.7750430825E-05
    5.6956444423E-05    5.6173369652E-05    5.5401056596E-05    5.4639357396E-05
    5.3888126229E-05    5.3147219274E-05    5.2416494684E-05    5.1695812566E-05
    5.0985034944E-05    5.0284025741E-05    4.9592650750E-05    4.8910777607E-05
    4.8238275766E-05    4.7575016476E-05    4.6920872754E-05    4.6275719362E-05
    4.5639432784E-05    4.5011891200E-05    4.4392974462E-05    4.3782564075E-05
    4.3180543171E-05    4.2586796489E-05    4.2001210349E-05    4.1423672635E-05
    4.0854072769E-05    4.0292301695E-05    3.9738251853E-05    3.9191817162E-05
    3.8652892997E-05    3.8121376170E-05    3.7597164914E-05    3.7080158855E-05
    3.6570259001E-05    3.6067367720E-05    3.5571388720E-05    3.5082227032E-05
    3.4599788991E-05    3.4123982220E-05    3.3654715611E-05    3.3191899305E-05
    3.2735444680E-05    3.2285264331E-05    3.1841272052E-05    3.1403382824E-05
    3.0971512792E-05    3.0545579256E-05    3.0125500650E-05    2.9711196530E-05
    2.9302587557E-05    2.8899595479E-05    2.8502143122E-05    2.8110154371E-05
    2.7723554156E-05    2.7342268439E-05    2.6966224198E-05    2.6595349415E-05
    2.6229573060E-05    2.5868825080E-05    2.5513036382E-05    2.5162138826E-05
    2.4816065203E-05    2.4474749231E-05    2.4138125537E-05    2.3806129646E-05
    2.3478697968E-05    2.3155767788E-05    2.2837277249E-05    2.2523165349E-05
    2.2213371919E-05    2.1907837618E-05    2.1606503922E-05    2.1309313108E-05
    2.1016208248E-05    2.0727133194E-05    2.0442032571E-05    2.0160851763E-05
    1.9883536906E-05    1.9610034874E-05    1.9340293272E-05    1.9074260424E-05
    1.8811885364E-05    1.8553117827E-05    1.8297908235E-05    1.8046207696E-05
    1.7797967986E-05    1.7553141544E-05    1.7311681464E-05    1.7073541481E-05
    1.6838675969E-05    1.6607039927E-05    1.6378588972E-05    1.6153279330E-05
    1.5931067831E-05    1.5711911895E-05    1.5495769528E-05    1.5282599313E-05
    1.5072360403E-05    1.4865012509E-05    1.4660515899E-05    1.4458831384E-05
    1.4259920315E-05    1.4063744573E-05    1.3870266563E-05    1.3679449206E-05
    1.3491255934E-05    1.3305650678E-05    1.3122597868E-05    1.2942062421E-05
    1.2764009736E-05    1.2588405687E-05    1.2415216617E-05    1.2244409332E-05
    1.2075951094E-05    1.1909809613E-05    1.1745953045E-05    1.1584349982E-05
    1.1424969447E-05    1.1267780890E-05    1.1112754180E-05    1.0959859600E-05
    1.0809067841E-05    1.0660349997E-05    1.0513677559E-05    1.0369022410E-05
    1.0226356818E-05    1.0085653434E-05    9.9468852824E-06    9.8100257605E-06
    9.6750486298E-06    9.5419280124E-06    9.4106383862E-06    9.2811545797E-06
    9.1534517671E-06    9.0275054637E-06    8.9032915214E-06    8.7807861237E-06
    8.6599657813E-06    8.5408073279E-06    8.4232879152E-06    8.3073850090E-06
    8.1930763848E-06    8.0803401231E-06    7.9691546061E-06    7.8594985126E-06
    7.7513508147E-06    7.6446907731E-06    7.5394979338E-06    7.4357521237E-06
    7.3334334468E-06    7.2325222808E-06    7.1329992726E-06    7.0348453355E-06
    6.9380416447E-06    6.8425696344E-06    6.7484109937E-06    6.6555476634E-06
    6.5639618324E-06    6.4736359346E-06    6.3845526450E-06    6.2966948768E-06
    6.2100457782E-06    6.1245887286E-06    6.0403073363E-06    5.9571854343E-06
    5.8752070784E-06    5.7943565430E-06    5.7146183189E-06    5.6359771100E-06
    5.5584178303E-06    5.4819256014E-06    5.4064857492E-06    5.3320838013E-06
    5.2587054841E-06    5.1863367205E-06    5.1149636265E-06    5.0445725093E-06
    4.9751498639E-06    4.9066823712E-06    4.8391568952E-06    4.7725604802E-06
    4.7068803489E-06    4.6421038993E-06    4.5782187028E-06    4.5152125018E-06
    4.4530732067E-06    4.3917888947E-06    4.3313478063E-06    4.2717383441E-06
    4.2129490699E-06    4.1549687028E-06    4.0977861168E-06    4.0413903391E-06
    3.9857705477E-06    3.9309160691E-06    3.8768163769E-06    3.8234610892E-06
    3.7708399668E-06    3.7189429114E-06    3.6677599633E-06    3.6172812999E-06
    3.5674972338E-06    3.5183982103E-06    3.4699748065E-06    3.4222177289E-06
    3.3751178117E-06    3.3286660152E-06    3.2828534240E-06    3.2376712451E-06
    3.1931108067E-06    3.1491635559E-06    3.1058210576E-06    3.0630749927E-06
    3.0209171562E-06    2.9793394564E-06    2.9383339123E-06    2.8978926531E-06
    2.8580079159E-06    2.8186720448E-06    2.7798774890E-06    2.7416168015E-06
    2.7038826379E-06    2.6666677545E-06    2.6299650074E-06    2.5937673510E-06
    2.5580678364E-06    2.5228596103E-06    2.4881359138E-06    2.4538900806E-06
    2.4201155365E-06    2.3868057973E-06    2.3539544683E-06    2.3215552426E-06
    2.2896019000E-06    2.2580883058E-06    2.2270084098E-06    2.1963562449E-06
    2.1661259261E-06    2.1363116494E-06    2.1069076905E-06    2.0779084038E-06
    2.0493082216E-06    2.0211016525E-06    1.9932832807E-06    1.9658477648E-06
    1.9387898372E-06    1.9121043023E-06    1.8857860363E-06    1.8598299857E-06
    1.8342311665E-06    1.8089846633E-06    1.7840856283E-06    1.7595292805E-06
    1.7353109043E-06    1.7114258494E-06    1.6878695292E-06    1.6646374203E-06
    1.6417250613E-06    1.6191280525E-06    1.5968420544E-06    1.5748627875E-06
    1.5531860309E-06    1.5318076219E-06    1.5107234549E-06    1.4899294811E-06
    1.4694217070E-06    1.4491961944E-06    1.4292490589E-06    1.4095764699E-06
    1.3901746493E-06    1.3710398709E-06    1.3521684600E-06    1.3335567921E-06
    1.3152012930E-06    1.2970984372E-06    1.2792447482E-06    1.2616367968E-06
    1.2442712014E-06    1.2271446267E-06    1.2102537834E-06    1.1935954272E-06
    1.1771663589E-06    1.1609634229E-06    1.1449835071E-06    1.1292235423E-06
    1.1136805015E-06    1.0983513994E-06    1.0832332916E-06    1.0683232744E-06
    1.0536184839E-06    1.0391160957E-06    1.0248133242E-06    1.0107074223E-06
    9.9679568032E-07    9.8307542623E-07    9.6954402459E-07    9.5619887626E-07
    9.4303741784E-07    9.3005712123E-07    9.1725549309E-07    9.0463007441E-07
    8.9217843998E-07    8.7989819800E-07    8.6778698954E-07    8.5584248816E-07
    8.4406239940E-07    8.3244446042E-07    8.2098643945E-07    8.0968613549E-07
    7.9854137779E-07    7.8755002547E-07    7.7670996713E-07    7.6601912041E-07
    7.5547543160E-07    7.4507687526E-07    7.3482145382E-07    7.2470719718E-07
    7.1473216238E-07    7.0489443316E-07    6.9519211966E-07    6.8562335803E-07
    6.7618631003E-07    6.6687916276E-07    6.5770012823E-07    6.4864744309E-07
    6.3971936822E-07    6.3091418846E-07    6.2223021225E-07    6.1366577130E-07
    6.0521922027E-07    5.9688893649E-07    5.8867331959E-07    5.8057079124E-07
    5.7257979484E-07    5.6469879519E-07    5.5692627823E-07    5.4926075075E-07
    5.4170074005E-07    5.3424479374E-07    5.2689147939E-07    5.1963938430E-07
    5.1248711521E-07    5.0543329802E-07    4.9847657757E-07    4.9161561731E-07
    4.8484909913E-07    4.7817572302E-07    4.7159420689E-07    4.6510328629E-07
    4.5870171416E-07    4.5238826061E-07    4.4616171268E-07    4.4002087411E-07
    4.3396456509E-07    4.2799162205E-07    4.2210089745E-07    4.1629125953E-07
    4.1056159211E-07    4.0491079438E-07    3.9933778066E-07    3.9384148024E-07
    3.8842083712E-07    3.8307480987E-07    3.7780237135E-07    3.7260250860E-07
    3.6747422257E-07    3.6241652797E-07    3.5742845308E-07    3.5250903955E-07
    3.4765734223E-07    3.4287242895E-07    3.3815338040E-07    3.3349928992E-07
    3.2890926332E-07    3.2438241871E-07    3.1991788637E-07    3.1551480851E-07
    3.1117233918E-07    3.0688964407E-07    3.0266590033E-07    2.9850029646E-07
    2.9439203212E-07    2.9034031800E-07    2.8634437563E-07    2.8240343728E-07
    2.7851674577E-07    2.7468355435E-07    2.7090312656E-07    2.6717473605E-07
    2.6349766649E-07    2.5987121140E-07    2.5629467405E-07    2.5276736726E-07
    2.4928861333E-07    2.4585774390E-07    2.4247409978E-07    2.3913703089E-07
    2.3584589607E-07    2.3260006300E-07    2.2939890807E-07    2.2624181622E-07
    2.2312818091E-07    2.2005740390E-07    2.1702889521E-07    2.1404207298E-07
    2.1109636337E-07    2.0819120040E-07    2.0532602593E-07    2.0250028947E-07
    1.9971344813E-07    1.9696496646E-07    1.9425431642E-07    1.9158097721E-07
    1.8894443523E-07    1.8634418391E-07    1.8377972369E-07    1.8125056187E-07
    1.7875621252E-07    1.7629619643E-07    1.7387004096E-07    1.7147727999E-07
    1.6911745381E-07    1.6679010905E-07    1.6449479856E-07    1.6223108138E-07
    1.5999852257E-07    1.5779669322E-07    1.5562517032E-07    1.5348353666E-07
    1.5137138080E-07    1.4928829694E-07    1.4723388488E-07    1.4520774993E-07
    1.4320950282E-07    1.4123875967E-07    1.3929514184E-07    1.3737827595E-07
    1.3548779372E-07    1.3362333197E-07    1.3178453249E-07    1.2997104202E-07
    1.2818251217E-07    1.2641859934E-07    1.2467896464E-07    1.2296327388E-07
    1.2127119744E-07    1.1960241026E-07    1.1795659174E-07    1.1633342569E-07
    1.1473260030E-07    1.1315380803E-07    1.1159674557E-07    1.1006111380E-07
    1.0854661771E-07    1.0705296635E-07    1.0557987279E-07    1.0412705403E-07
    1.0269423097E-07    1.0128112837E-07    9.9887474753E-08    9.8513002400E-08
    9.7157447269E-08    9.5820548952E-08    9.4502050629E-08    9.3201699013E-08
    9.1919244307E-08    9.0654440152E-08    8.9407043579E-08    8.8176814964E-08
    8.6963517985E-08    8.5766919569E-08    8.4586789852E-08    8.3422902139E-08
    8.2275032852E-08    8.1142961493E-08    8.0026470598E-08    7.8925345696E-08
    7.7839375272E-08    7.6768350720E-08    7.5712066304E-08    7.4670319126E-08
    7.3642909076E-08    7.2629638804E-08    7.1630313671E-08    7.0644741722E-08
    6.9672733643E-08    6.8714102726E-08    6.7768664831E-08    6.6836238359E-08
    6.5916644207E-08    6.5009705738E-08    6.4115248747E-08    6.3233101427E-08
    6.2363094337E-08    6.1505060368E-08    6.0658834711E-08    5.9824254827E-08
    5.9001160414E-08    5.8189393378E-08    5.7388797800E-08    5.6599219907E-08
    5.5820508045E-08    5.5052512646E-08    5.4295086201E-08    5.3548083233E-08
    5.2811360268E-08    5.2084775805E-08    5.1368190293E-08    5.0661466102E-08
    4.9964467494E-08    4.9277060604E-08    4.8599113405E-08    4.7930495693E-08
    4.7271079051E-08    4.6620736835E-08    4.5979344140E-08    4.5346777784E-08
    4.4722916278E-08    4.4107639807E-08    4.3500830204E-08    4.2902370930E-08
    4.2312147052E-08    4.1730045217E-08    4.1155953632E-08    4.0589762044E-08
    4.0031361717E-08    3.9480645414E-08    3.8937507371E-08    3.8401843282E-08
    3.7873550277E-08    3.7352526903E-08    3.6838673101E-08    3.6331890192E-08
    3.5832080853E-08    3.5339149102E-08    3.4853000279E-08    3.4373541026E-08
    3.3900679271E-08    3.3434324209E-08    3.2974386285E-08    3.2520777178E-08
    3.2073409780E-08    3.1632198186E-08    3.1197057669E-08    3.0767904672E-08
    3.0344656787E-08    2.9927232741E-08    2.9515552378E-08    2.9109536649E-08
    2.8709107589E-08    2.8314188309E-08    2.7924702977E-08    2.7540576805E-08
    2.7161736036E-08    2.6788107927E-08    2.6419620737E-08    2.6056203712E-08
    2.5697787072E-08    2.5344301998E-08    2.4995680618E-08    2.4651855993E-08
    2.4312762109E-08    2.3978333858E-08    2.3648507028E-08    2.3323218293E-08
    2.3002405197E-08    2.2686006144E-08    2.2373960386E-08    2.2066208010E-08
    2.1762689931E-08    2.1463347875E-08    2.1168124370E-08    2.0876962735E-08
    2.0589807072E-08    2.0306602248E-08    2.0027293892E-08    1.9751828381E-08
    1.9480152829E-08    1.9212215079E-08    1.8947963692E-08    1.8687347936E-08
    1.8430317779E-08    1.8176823876E-08    1.7926817563E-08    1.7680250843E-08
    1.7437076383E-08    1.7197247499E-08    1.6960718152E-08    1.6727442934E-08
    1.6497377064E-08    1.6270476376E-08    1.6046697314E-08    1.5825996920E-08
    1.5608332826E-08    1.5393663250E-08    1.5181946983E-08    1.4973143384E-08
    1.4767212373E-08    1.4564114419E-08    1.4363810536E-08    1.4166262275E-08
    1.3971431716E-08    1.3779281461E-08    1.3589774626E-08    1.3402874837E-08
    1.3218546218E-08    1.3036753389E-08    1.2857461454E-08    1.2680636001E-08
    1.2506243089E-08    1.2334249244E-08    1.2164621455E-08    1.1997327164E-08
    1.1832334261E-08    1.1669611078E-08    1.1509126382E-08    1.1350849373E-08
    1.1194749672E-08    1.1040797319E-08    1.0888962765E-08    1.0739216870E-08
    1.0591530895E-08    1.0445876494E-08    1.0302225713E-08    1.0160550984E-08
    1.0020825115E-08    9.8830212919E-09    9.7471130667E-09    9.6130743569E-09
    9.4808794387E-09    9.3505029425E-09    9.2219198477E-09    9.0951054782E-09
    8.9700354974E-09    8.8466859035E-09    8.7250330253E-09    8.6050535171E-09
    8.4867243545E-09    8.3700228304E-09    8.2549265500E-09    8.1414134267E-09
    8.0294616777E-09    7.9190498203E-09    7.8101566673E-09    7.7027613229E-09
    7.5968431792E-09    7.4923819114E-09    7.3893574752E-09    7.2877501016E-09
    7.1875402940E-09    7.0887088238E-09    6.9912367272E-09    6.8951053014E-09
    6.8002961009E-09    6.7067909340E-09    6.6145718593E-09    6.5236211826E-09
    6.4339214532E-09    6.3454554604E-09    6.2582062303E-09    6.1721570227E-09
    6.0872913278E-09    6.0035928628E-09    5.9210455690E-09    5.8396336089E-09
    5.7593413629E-09    5.6801534263E-09    5.6020546065E-09    5.5250299199E-09
    5.4490645890E-09    5.3741440397E-09    5.3002538985E-09    5.2273799896E-09
    5.1555083324E-09    5.0846251386E-09    5.0147168098E-09    4.9457699347E-09
    4.8777712864E-09    4.8107078201E-09    4.7445666704E-09    4.6793351492E-09
    4.6150007427E-09    4.5515511093E-09    4.4889740776E-09    4.4272576434E-09
    4.3663899677E-09    4.3063593746E-09    4.2471543485E-09    4.1887635327E-09
    4.1311757264E-09    4.0743798831E-09    4.0183651081E-09    3.9631206570E-09
    3.9086359330E-09    3.8549004852E-09    3.8019040065E-09    3.7496363315E-09
    3.6980874347E-09    3.6472474288E-09    3.5971065622E-09    3.5476552176E-09
    3.4988839101E-09    3.4507832853E-09    3.4033441177E-09    3.3565573083E-09
    3.3104138837E-09    3.2649049937E-09    3.2200219100E-09    3.1757560245E-09
    3.1320988470E-09    3.0890420049E-09    3.0465772405E-09    3.0046964094E-09
    2.9633914798E-09    2.9226545300E-09    2.8824777474E-09    2.8428534270E-09
    2.8037739697E-09    2.7652318809E-09    2.7272197691E-09    2.6897303449E-09
    2.6527564188E-09    2.6162909003E-09    2.5803267966E-09    2.5448572108E-09
    2.5098753411E-09    2.4753744794E-09    2.4413480095E-09    2.4077894066E-09
    2.3746922356E-09    2.3420501499E-09    2.3098568902E-09    2.2781062832E-09
    2.2467922409E-09    2.2159087586E-09    2.1854499145E-09    2.1554098682E-09
    2.1257828596E-09    2.0965632078E-09    2.0677453104E-09    2.0393236417E-09
    2.0112927522E-09    1.9836472673E-09    1.9563818864E-09    1.9294913818E-09
    1.9029705976E-09    1.8768144489E-09    1.8510179209E-09    1.8255760677E-09
    1.8004840114E-09    1.7757369413E-09    1.7513301127E-09    1.7272588464E-09
    1.7035185274E-09    1.6801046043E-09    1.6570125882E-09    1.6342380519E-09
    1.6117766293E-09    1.5896240145E-09    1.5677759603E-09    1.5462282785E-09
    1.5249768382E-09    1.5040175653E-09    1.4833464419E-09    1.4629595053E-09
    1.4428528473E-09    1.4230226134E-09    1.4034650023E-09    1.3841762648E-09
    1.3651527036E-09    1.3463906718E-09    1.3278865730E-09    1.3096368602E-09
    1.2916380350E-09    1.2738866475E-09    1.2563792948E-09    1.2391126212E-09
    1.2220833170E-09    1.2052881180E-09    1.1887238050E-09    1.1723872030E-09
    1.1562751806E-09    1.1403846497E-09    1.1247125645E-09    1.1092559212E-09
    1.0940117570E-09    1.0789771503E-09    1.0641492196E-09    1.0495251228E-09
    1.0351020570E-09    1.0208772580E-09    1.0068479995E-09    9.9301159256E-10
    9.7936538550E-10    9.6590676290E-10
   </PP_CHI.1>
   <PP_CHI.2
       type="real"
       size="1630"
       columns="4"
       index="2"
       occupation=" 2.000"
       pseudo_energy="   -0.7787501261E+00"
       label="5S"
       l="0" >
    3.0507193993E-13    2.4578024411E-03    4.9177087501E-03    7.3818163109E-03
    9.8522095629E-03    1.2330953587E-02    1.4820087762E-02    1.7321619514E-02
    1.9837518180E-02    2.2369709010E-02    2.4920067331E-02    2.7490412882E-02
    3.0082504365E-02    3.2698034199E-02    3.5338623528E-02    3.8005817473E-02
    4.0701080672E-02    4.3425793096E-02    4.6181246178E-02    4.8968639261E-02
    5.1789076373E-02    5.4643563346E-02    5.7533005289E-02    6.0458204421E-02
    6.3419858273E-02    6.6418558269E-02    6.9454788677E-02    7.2528925950E-02
    7.5641238456E-02    7.8791886580E-02    8.1980923224E-02    8.5208294680E-02
    8.8473841883E-02    9.1777302040E-02    9.5118310623E-02    9.8496403718E-02
    1.0191102073E-01    1.0536150740E-01    1.0884711923E-01    1.1236702507E-01
    1.1592031119E-01    1.1950598547E-01    1.2312298198E-01    1.2677016575E-01
    1.3044633776E-01    1.3415024019E-01    1.3788056184E-01    1.4163594372E-01
    1.4541498479E-01    1.4921624786E-01    1.5303826554E-01    1.5687954631E-01
    1.6073858070E-01    1.6461384739E-01    1.6850381945E-01    1.7240697050E-01
    1.7632178083E-01    1.8024674353E-01    1.8418037051E-01    1.8812119836E-01
    1.9206779422E-01    1.9601876135E-01    1.9997274468E-01    2.0392843607E-01
    2.0788457942E-01    2.1183997553E-01    2.1579348668E-01    2.1974404109E-01
    2.2369063690E-01    2.2763234601E-01    2.3156831757E-01    2.3549778108E-01
    2.3942004929E-01    2.4333452066E-01    2.4724068143E-01    2.5113810747E-01
    2.5502646562E-01    2.5890551475E-01    2.6277510635E-01    2.6663518485E-01
    2.7048578744E-01    2.7432704362E-01    2.7815917426E-01    2.8198249037E-01
    2.8579739142E-01    2.8960436337E-01    2.9340397625E-01    2.9719688146E-01
    3.0098380869E-01    3.0476556250E-01    3.0854301859E-01    3.1231711976E-01
    3.1608887160E-01    3.1985933782E-01    3.2362963543E-01    3.2740092958E-01
    3.3117442822E-01    3.3495137654E-01    3.3873305125E-01    3.4252075460E-01
    3.4631580840E-01    3.5011954777E-01    3.5393331489E-01    3.5775845260E-01
    3.6159629801E-01    3.6544817602E-01    3.6931539282E-01    3.7319922951E-01
    3.7710093557E-01    3.8102172258E-01    3.8496275790E-01    3.8892515848E-01
    3.9290998484E-01    3.9691823509E-01    4.0095083928E-01    4.0500865379E-01
    4.0909245599E-01    4.1320293916E-01    4.1734070758E-01    4.2150627196E-01
    4.2570004511E-01    4.2992233790E-01    4.3417335557E-01    4.3845319431E-01
    4.4276183822E-01    4.4709915661E-01    4.5146490162E-01    4.5585870629E-01
    4.6028008288E-01    4.6472842170E-01    4.6920299021E-01    4.7370293260E-01
    4.7822726971E-01    4.8277489932E-01    4.8734459690E-01    4.9193501666E-01
    4.9654469308E-01    5.0117204273E-01    5.0581536649E-01    5.1047285222E-01
    5.1514257761E-01    5.1982251357E-01    5.2451052784E-01    5.2920438895E-01
    5.3390177048E-01    5.3860025568E-01    5.4329734231E-01    5.4799044773E-01
    5.5267691435E-01    5.5735401517E-01    5.6201895963E-01    5.6666889964E-01
    5.7130093575E-01    5.7591212354E-01    5.8049948007E-01    5.8505999048E-01
    5.8959061473E-01    5.9408829430E-01    5.9854995906E-01    6.0297253410E-01
    6.0735294659E-01    6.1168813260E-01    6.1597504391E-01    6.2021065478E-01
    6.2439196860E-01    6.2851602448E-01    6.3257990367E-01    6.3658073594E-01
    6.4051570568E-01    6.4438205794E-01    6.4817710420E-01    6.5189822799E-01
    6.5554289022E-01    6.5910863436E-01    6.6259309125E-01    6.6599398381E-01
    6.6930913127E-01    6.7253645330E-01    6.7567397373E-01    6.7871982397E-01
    6.8167224617E-01    6.8452959602E-01    6.8729034522E-01    6.8995308363E-01
    6.9251652110E-01    6.9497948894E-01    6.9734094104E-01    6.9959995472E-01
    7.0175573119E-01    7.0380759566E-01    7.0575499718E-01    7.0759750814E-01
    7.0933482343E-01    7.1096675928E-01    7.1249325186E-01    7.1391435552E-01
    7.1523024081E-01    7.1644119216E-01    7.1754760532E-01    7.1854998461E-01
    7.1944893986E-01    7.2024518316E-01    7.2093952539E-01    7.2153287258E-01
    7.2202622207E-01    7.2242065852E-01    7.2271734977E-01    7.2291754255E-01
    7.2302255813E-01    7.2303378783E-01    7.2295268845E-01    7.2278077763E-01
    7.2251962924E-01    7.2217086862E-01    7.2173616789E-01    7.2121724126E-01
    7.2061584030E-01    7.1993374930E-01    7.1917278068E-01    7.1833477040E-01
    7.1742157355E-01    7.1643505991E-01    7.1537710973E-01    7.1424960955E-01
    7.1305444817E-01    7.1179351277E-01    7.1046868518E-01    7.0908183826E-01
    7.0763483253E-01    7.0612951288E-01    7.0456770555E-01    7.0295121525E-01
    7.0128182245E-01    6.9956128091E-01    6.9779131539E-01    6.9597361958E-01
    6.9410985415E-01    6.9220164516E-01    6.9025058249E-01    6.8825821860E-01
    6.8622606746E-01    6.8415560362E-01    6.8204826155E-01    6.7990543511E-01
    6.7772847722E-01    6.7551869971E-01    6.7327737334E-01    6.7100572798E-01
    6.6870495289E-01    6.6637619728E-01    6.6402057084E-01    6.6163914450E-01
    6.5923295129E-01    6.5680298729E-01    6.5435021268E-01    6.5187555288E-01
    6.4937989972E-01    6.4686411279E-01    6.4432902069E-01    6.4177542243E-01
    6.3920408881E-01    6.3661576383E-01    6.3401116612E-01    6.3139099033E-01
    6.2875590855E-01    6.2610657167E-01    6.2344361072E-01    6.2076763818E-01
    6.1807924919E-01    6.1537902276E-01    6.1266752286E-01    6.0994529949E-01
    6.0721288964E-01    6.0447081811E-01    6.0171959836E-01    5.9895973311E-01
    5.9619171493E-01    5.9341602674E-01    5.9063314208E-01    5.8784352543E-01
    5.8504763227E-01    5.8224590923E-01    5.7943879409E-01    5.7662671594E-01
    5.7381009534E-01    5.7098934444E-01    5.6816486711E-01    5.6533705907E-01
    5.6250630797E-01    5.5967299359E-01    5.5683748791E-01    5.5400015521E-01
    5.5116135227E-01    5.4832142839E-01    5.4548072560E-01    5.4263957868E-01
    5.3979831535E-01    5.3695725635E-01    5.3411671555E-01    5.3127700007E-01
    5.2843841036E-01    5.2560124034E-01    5.2276577751E-01    5.1993230300E-01
    5.1710109173E-01    5.1427241248E-01    5.1144652801E-01    5.0862369514E-01
    5.0580416485E-01    5.0298818238E-01    5.0017598734E-01    4.9736781376E-01
    4.9456389024E-01    4.9176443999E-01    4.8896968094E-01    4.8617982585E-01
    4.8339508234E-01    4.8061565305E-01    4.7784173566E-01    4.7507352300E-01
    4.7231120316E-01    4.6955495950E-01    4.6680497080E-01    4.6406141131E-01
    4.6132445083E-01    4.5859425477E-01    4.5587098427E-01    4.5315479623E-01
    4.5044584338E-01    4.4774427442E-01    4.4505023400E-01    4.4236386285E-01
    4.3968529783E-01    4.3701467201E-01    4.3435211472E-01    4.3169775161E-01
    4.2905170476E-01    4.2641409268E-01    4.2378503043E-01    4.2116462965E-01
    4.1855299863E-01    4.1595024237E-01    4.1335646263E-01    4.1077175802E-01
    4.0819622402E-01    4.0562995305E-01    4.0307303454E-01    4.0052555496E-01
    3.9798759790E-01    3.9545924410E-01    3.9294057152E-01    3.9043165537E-01
    3.8793256821E-01    3.8544337992E-01    3.8296415783E-01    3.8049496671E-01
    3.7803586886E-01    3.7558692411E-01    3.7314818994E-01    3.7071972142E-01
    3.6830157136E-01    3.6589379029E-01    3.6349642652E-01    3.6110952619E-01
    3.5873313329E-01    3.5636728973E-01    3.5401203537E-01    3.5166740805E-01
    3.4933344363E-01    3.4701017604E-01    3.4469763732E-01    3.4239585763E-01
    3.4010486533E-01    3.3782468698E-01    3.3555534738E-01    3.3329686962E-01
    3.3104927511E-01    3.2881258361E-01    3.2658681325E-01    3.2437198060E-01
    3.2216810066E-01    3.1997518690E-01    3.1779325134E-01    3.1562230450E-01
    3.1346235549E-01    3.1131341201E-01    3.0917548041E-01    3.0704856567E-01
    3.0493267147E-01    3.0282780021E-01    3.0073395302E-01    2.9865112980E-01
    2.9657932923E-01    2.9451854882E-01    2.9246878494E-01    2.9043003279E-01
    2.8840228650E-01    2.8638553908E-01    2.8437978252E-01    2.8238500774E-01
    2.8040120467E-01    2.7842836222E-01    2.7646646835E-01    2.7451551008E-01
    2.7257547348E-01    2.7064634373E-01    2.6872810511E-01    2.6682074105E-01
    2.6492423412E-01    2.6303856607E-01    2.6116371785E-01    2.5929966960E-01
    2.5744640072E-01    2.5560388982E-01    2.5377211481E-01    2.5195105286E-01
    2.5014068046E-01    2.4834097339E-01    2.4655190680E-01    2.4477345515E-01
    2.4300559230E-01    2.4124829147E-01    2.3950152528E-01    2.3776526579E-01
    2.3603948444E-01    2.3432415215E-01    2.3261923928E-01    2.3092471567E-01
    2.2924055063E-01    2.2756671299E-01    2.2590317108E-01    2.2424989276E-01
    2.2260684541E-01    2.2097399598E-01    2.1935131099E-01    2.1773875652E-01
    2.1613629824E-01    2.1454390144E-01    2.1296153099E-01    2.1138915141E-01
    2.0982672685E-01    2.0827422109E-01    2.0673159758E-01    2.0519881945E-01
    2.0367584949E-01    2.0216265018E-01    2.0065918371E-01    1.9916541197E-01
    1.9768129658E-01    1.9620679888E-01    1.9474187994E-01    1.9328650060E-01
    1.9184062144E-01    1.9040420282E-01    1.8897720486E-01    1.8755958747E-01
    1.8615131037E-01    1.8475233304E-01    1.8336261481E-01    1.8198211481E-01
    1.8061079201E-01    1.7924860518E-01    1.7789551296E-01    1.7655147385E-01
    1.7521644616E-01    1.7389038812E-01    1.7257325779E-01    1.7126501312E-01
    1.6996561196E-01    1.6867501202E-01    1.6739317096E-01    1.6612004628E-01
    1.6485559545E-01    1.6359977583E-01    1.6235254471E-01    1.6111385931E-01
    1.5988367679E-01    1.5866195424E-01    1.5744864873E-01    1.5624371726E-01
    1.5504711678E-01    1.5385880423E-01    1.5267873652E-01    1.5150687052E-01
    1.5034316310E-01    1.4918757109E-01    1.4804005135E-01    1.4690056070E-01
    1.4576905599E-01    1.4464549406E-01    1.4352983177E-01    1.4242202599E-01
    1.4132203361E-01    1.4022981155E-01    1.3914531676E-01    1.3806850621E-01
    1.3699933692E-01    1.3593776595E-01    1.3488375041E-01    1.3383724745E-01
    1.3279821427E-01    1.3176660813E-01    1.3074238637E-01    1.2972550637E-01
    1.2871592558E-01    1.2771360154E-01    1.2671849184E-01    1.2573055416E-01
    1.2474974627E-01    1.2377602601E-01    1.2280935130E-01    1.2184968018E-01
    1.2089697075E-01    1.1995118123E-01    1.1901226992E-01    1.1808019524E-01
    1.1715491571E-01    1.1623638994E-01    1.1532457668E-01    1.1441943475E-01
    1.1352092312E-01    1.1262900087E-01    1.1174362718E-01    1.1086476138E-01
    1.0999236290E-01    1.0912639130E-01    1.0826680628E-01    1.0741356766E-01
    1.0656663538E-01    1.0572596954E-01    1.0489153036E-01    1.0406327819E-01
    1.0324117353E-01    1.0242517702E-01    1.0161524944E-01    1.0081135172E-01
    1.0001344491E-01    9.9221490246E-02    9.8435449081E-02    9.7655282932E-02
    9.6880953463E-02    9.6112422492E-02    9.5349651989E-02    9.4592604081E-02
    9.3841241048E-02    9.3095525329E-02    9.2355419523E-02    9.1620886384E-02
    9.0891888830E-02    9.0168389938E-02    8.9450352950E-02    8.8737741267E-02
    8.8030518457E-02    8.7328648253E-02    8.6632094552E-02    8.5940821417E-02
    8.5254793080E-02    8.4573973938E-02    8.3898328560E-02    8.3227821681E-02
    8.2562418206E-02    8.1902083210E-02    8.1246781939E-02    8.0596479810E-02
    7.9951142412E-02    7.9310735504E-02    7.8675225019E-02    7.8044577063E-02
    7.7418757912E-02    7.6797734019E-02    7.6181472007E-02    7.5569938676E-02
    7.4963100998E-02    7.4360926118E-02    7.3763381358E-02    7.3170434213E-02
    7.2582052353E-02    7.1998203622E-02    7.1418856039E-02    7.0843977797E-02
    7.0273537266E-02    6.9707502988E-02    6.9145843682E-02    6.8588528240E-02
    6.8035525729E-02    6.7486805391E-02    6.6942336642E-02    6.6402089072E-02
    6.5866032446E-02    6.5334136703E-02    6.4806371953E-02    6.4282708484E-02
    6.3763116754E-02    6.3247567395E-02    6.2736031212E-02    6.2228479183E-02
    6.1724882457E-02    6.1225212357E-02    6.0729440375E-02    6.0237538176E-02
    5.9749477597E-02    5.9265230642E-02    5.8784769490E-02    5.8308066485E-02
    5.7835094144E-02    5.7365825152E-02    5.6900232361E-02    5.6438288793E-02
    5.5979967638E-02    5.5525242252E-02    5.5074086157E-02    5.4626473043E-02
    5.4182376766E-02    5.3741771345E-02    5.3304630966E-02    5.2870929978E-02
    5.2440642893E-02    5.2013744389E-02    5.1590209303E-02    5.1170012636E-02
    5.0753129551E-02    5.0339535369E-02    4.9929205575E-02    4.9522115811E-02
    4.9118241879E-02    4.8717559739E-02    4.8320045510E-02    4.7925675467E-02
    4.7534426042E-02    4.7146273822E-02    4.6761195552E-02    4.6379168128E-02
    4.6000168604E-02    4.5624174183E-02    4.5251162225E-02    4.4881110238E-02
    4.4513995885E-02    4.4149796978E-02    4.3788491477E-02    4.3430057496E-02
    4.3074473292E-02    4.2721717275E-02    4.2371768000E-02    4.2024604167E-02
    4.1680204625E-02    4.1338548366E-02    4.0999614526E-02    4.0663382388E-02
    4.0329831373E-02    3.9998941049E-02    3.9670691122E-02    3.9345061441E-02
    3.9022031995E-02    3.8701582911E-02    3.8383694456E-02    3.8068347035E-02
    3.7755521189E-02    3.7445197595E-02    3.7137357070E-02    3.6831980560E-02
    3.6529049150E-02    3.6228544056E-02    3.5930446629E-02    3.5634738350E-02
    3.5341400831E-02    3.5050415818E-02    3.4761765183E-02    3.4475430931E-02
    3.4191395191E-02    3.3909640223E-02    3.3630148413E-02    3.3352902274E-02
    3.3077884443E-02    3.2805077682E-02    3.2534464879E-02    3.2266029044E-02
    3.1999753308E-02    3.1735620927E-02    3.1473615275E-02    3.1213719850E-02
    3.0955918266E-02    3.0700194258E-02    3.0446531679E-02    3.0194914500E-02
    2.9945326807E-02    2.9697752804E-02    2.9452176810E-02    2.9208583257E-02
    2.8966956694E-02    2.8727281781E-02    2.8489543290E-02    2.8253726107E-02
    2.8019815228E-02    2.7787795759E-02    2.7557652916E-02    2.7329372025E-02
    2.7102938518E-02    2.6878337937E-02    2.6655555931E-02    2.6434578252E-02
    2.6215390762E-02    2.5997979424E-02    2.5782330308E-02    2.5568429586E-02
    2.5356263534E-02    2.5145818528E-02    2.4937081048E-02    2.4730037674E-02
    2.4524675085E-02    2.4320980061E-02    2.4118939479E-02    2.3918540317E-02
    2.3719769648E-02    2.3522614643E-02    2.3327062568E-02    2.3133100787E-02
    2.2940716757E-02    2.2749898030E-02    2.2560632250E-02    2.2372907157E-02
    2.2186710581E-02    2.2002030444E-02    2.1818854760E-02    2.1637171633E-02
    2.1456969257E-02    2.1278235916E-02    2.1100959981E-02    2.0925129911E-02
    2.0750734255E-02    2.0577761646E-02    2.0406200804E-02    2.0236040536E-02
    2.0067269733E-02    1.9899877369E-02    1.9733852503E-02    1.9569184279E-02
    1.9405861922E-02    1.9243874737E-02    1.9083212115E-02    1.8923863524E-02
    1.8765818515E-02    1.8609066717E-02    1.8453597840E-02    1.8299401670E-02
    1.8146468073E-02    1.7994786993E-02    1.7844348450E-02    1.7695142541E-02
    1.7547159438E-02    1.7400389389E-02    1.7254822717E-02    1.7110449818E-02
    1.6967261165E-02    1.6825247300E-02    1.6684398841E-02    1.6544706476E-02
    1.6406160966E-02    1.6268753142E-02    1.6132473908E-02    1.5997314234E-02
    1.5863265164E-02    1.5730317808E-02    1.5598463346E-02    1.5467693026E-02
    1.5337998163E-02    1.5209370140E-02    1.5081800405E-02    1.4955280475E-02
    1.4829801929E-02    1.4705356414E-02    1.4581935641E-02    1.4459531385E-02
    1.4338135484E-02    1.4217739840E-02    1.4098336419E-02    1.3979917246E-02
    1.3862474413E-02    1.3746000068E-02    1.3630486424E-02    1.3515925752E-02
    1.3402310384E-02    1.3289632713E-02    1.3177885190E-02    1.3067060323E-02
    1.2957150681E-02    1.2848148891E-02    1.2740047635E-02    1.2632839654E-02
    1.2526517745E-02    1.2421074761E-02    1.2316503612E-02    1.2212797262E-02
    1.2109948730E-02    1.2007951090E-02    1.1906797471E-02    1.1806481054E-02
    1.1706995074E-02    1.1608332819E-02    1.1510487631E-02    1.1413452901E-02
    1.1317222074E-02    1.1221788647E-02    1.1127146165E-02    1.1033288228E-02
    1.0940208481E-02    1.0847900623E-02    1.0756358400E-02    1.0665575610E-02
    1.0575546096E-02    1.0486263751E-02    1.0397722518E-02    1.0309916384E-02
    1.0222839387E-02    1.0136485607E-02    1.0050849177E-02    9.9659242703E-03
    9.8817051095E-03    9.7981859617E-03    9.7153611392E-03    9.6332249991E-03
    9.5517719430E-03    9.4709964169E-03    9.3908929103E-03    9.3114559564E-03
    9.2326801314E-03    9.1545600544E-03    9.0770903871E-03    9.0002658333E-03
    8.9240811386E-03    8.8485310902E-03    8.7736105166E-03    8.6993142871E-03
    8.6256373117E-03    8.5525745406E-03    8.4801209641E-03    8.4082716122E-03
    8.3370215540E-03    8.2663658981E-03    8.1962997916E-03    8.1268184201E-03
    8.0579170075E-03    7.9895908155E-03    7.9218351436E-03    7.8546453283E-03
    7.7880167435E-03    7.7219447996E-03    7.6564249436E-03    7.5914526586E-03
    7.5270234636E-03    7.4631329135E-03    7.3997765983E-03    7.3369501431E-03
    7.2746492081E-03    7.2128694876E-03    7.1516067107E-03    7.0908566402E-03
    7.0306150727E-03    6.9708778386E-03    6.9116408011E-03    6.8528998567E-03
    6.7946509347E-03    6.7368899967E-03    6.6796130366E-03    6.6228160803E-03
    6.5664951854E-03    6.5106464412E-03    6.4552659681E-03    6.4003499174E-03
    6.3458944715E-03    6.2918958430E-03    6.2383502751E-03    6.1852540408E-03
    6.1326034432E-03    6.0803948149E-03    6.0286245178E-03    5.9772889431E-03
    5.9263845108E-03    5.8759076696E-03    5.8258548968E-03    5.7762226979E-03
    5.7270076065E-03    5.6782061838E-03    5.6298150190E-03    5.5818307283E-03
    5.5342499553E-03    5.4870693705E-03    5.4402856713E-03    5.3938955814E-03
    5.3478958510E-03    5.3022832565E-03    5.2570546002E-03    5.2122067101E-03
    5.1677364397E-03    5.1236406679E-03    5.0799162987E-03    5.0365602612E-03
    4.9935695090E-03    4.9509410205E-03    4.9086717982E-03    4.8667588692E-03
    4.8251992841E-03    4.7839901176E-03    4.7431284680E-03    4.7026114569E-03
    4.6624362293E-03    4.6225999532E-03    4.5830998194E-03    4.5439330416E-03
    4.5050968559E-03    4.4665885207E-03    4.4284053167E-03    4.3905445467E-03
    4.3530035350E-03    4.3157796279E-03    4.2788701930E-03    4.2422726194E-03
    4.2059843171E-03    4.1700027172E-03    4.1343252718E-03    4.0989494535E-03
    4.0638727554E-03    4.0290926910E-03    3.9946067939E-03    3.9604126178E-03
    3.9265077362E-03    3.8928897424E-03    3.8595562492E-03    3.8265048888E-03
    3.7937333127E-03    3.7612391913E-03    3.7290202142E-03    3.6970740897E-03
    3.6653985447E-03    3.6339913246E-03    3.6028501932E-03    3.5719729326E-03
    3.5413573428E-03    3.5110012419E-03    3.4809024655E-03    3.4510588671E-03
    3.4214683176E-03    3.3921287054E-03    3.3630379359E-03    3.3341939317E-03
    3.3055946325E-03    3.2772379946E-03    3.2491219911E-03    3.2212446115E-03
    3.1936038621E-03    3.1661977651E-03    3.1390243590E-03    3.1120816984E-03
    3.0853678538E-03    3.0588809115E-03    3.0326189733E-03    3.0065801567E-03
    2.9807625946E-03    2.9551644351E-03    2.9297838415E-03    2.9046189922E-03
    2.8796680805E-03    2.8549293146E-03    2.8304009171E-03    2.8060811255E-03
    2.7819681917E-03    2.7580603817E-03    2.7343559760E-03    2.7108532691E-03
    2.6875505695E-03    2.6644461997E-03    2.6415384958E-03    2.6188258077E-03
    2.5963064989E-03    2.5739789461E-03    2.5518415397E-03    2.5298926831E-03
    2.5081307930E-03    2.4865542988E-03    2.4651616433E-03    2.4439512817E-03
    2.4229216822E-03    2.4020713255E-03    2.3813987048E-03    2.3609023257E-03
    2.3405807063E-03    2.3204323767E-03    2.3004558791E-03    2.2806497680E-03
    2.2610126095E-03    2.2415429818E-03    2.2222394746E-03    2.2031006895E-03
    2.1841252393E-03    2.1653117486E-03    2.1466588533E-03    2.1281652003E-03
    2.1098294479E-03    2.0916502656E-03    2.0736263337E-03    2.0557563435E-03
    2.0380389971E-03    2.0204730073E-03    2.0030570976E-03    1.9857900022E-03
    1.9686704654E-03    1.9516972424E-03    1.9348690983E-03    1.9181848086E-03
    1.9016431590E-03    1.8852429452E-03    1.8689829728E-03    1.8528620574E-03
    1.8368790245E-03    1.8210327092E-03    1.8053219562E-03    1.7897456201E-03
    1.7743025647E-03    1.7589916634E-03    1.7438117988E-03    1.7287618631E-03
    1.7138407572E-03    1.6990473917E-03    1.6843806858E-03    1.6698395679E-03
    1.6554229753E-03    1.6411298542E-03    1.6269591592E-03    1.6129098542E-03
    1.5989809112E-03    1.5851713110E-03    1.5714800428E-03    1.5579061044E-03
    1.5444485016E-03    1.5311062488E-03    1.5178783686E-03    1.5047638914E-03
    1.4917618561E-03    1.4788713095E-03    1.4660913061E-03    1.4534209085E-03
    1.4408591872E-03    1.4284052204E-03    1.4160580937E-03    1.4038169008E-03
    1.3916807426E-03    1.3796487278E-03    1.3677199723E-03    1.3558935994E-03
    1.3441687400E-03    1.3325445319E-03    1.3210201203E-03    1.3095946576E-03
    1.2982673032E-03    1.2870372234E-03    1.2759035918E-03    1.2648655886E-03
    1.2539224011E-03    1.2430732232E-03    1.2323172556E-03    1.2216537058E-03
    1.2110817879E-03    1.2006007225E-03    1.1902097368E-03    1.1799080645E-03
    1.1696949455E-03    1.1595696265E-03    1.1495313601E-03    1.1395794053E-03
    1.1297130275E-03    1.1199314979E-03    1.1102340943E-03    1.1006201000E-03
    1.0910888048E-03    1.0816395042E-03    1.0722714997E-03    1.0629840985E-03
    1.0537766139E-03    1.0446483649E-03    1.0355986760E-03    1.0266268775E-03
    1.0177323055E-03    1.0089143015E-03    1.0001722125E-03    9.9150539110E-04
    9.8291319534E-04    9.7439498861E-04    9.6595013968E-04    9.5757802262E-04
    9.4927801678E-04    9.4104950674E-04    9.3289188225E-04    9.2480453820E-04
    9.1678687457E-04    9.0883829641E-04    9.0095821378E-04    8.9314604170E-04
    8.8540120013E-04    8.7772311390E-04    8.7011121273E-04    8.6256493111E-04
    8.5508370831E-04    8.4766698833E-04    8.4031421987E-04    8.3302485627E-04
    8.2579835549E-04    8.1863418007E-04    8.1153179706E-04    8.0449067804E-04
    7.9751029904E-04    7.9059014052E-04    7.8372968731E-04    7.7692842863E-04
    7.7018585797E-04    7.6350147314E-04    7.5687477618E-04    7.5030527332E-04
    7.4379247499E-04    7.3733589576E-04    7.3093505429E-04    7.2458947332E-04
    7.1829867962E-04    7.1206220399E-04    7.0587958116E-04    6.9975034983E-04
    6.9367405260E-04    6.8765023592E-04    6.8167845012E-04    6.7575824929E-04
    6.6988919134E-04    6.6407083790E-04    6.5830275433E-04    6.5258450966E-04
    6.4691567657E-04    6.4129583138E-04    6.3572455398E-04    6.3020142784E-04
    6.2472603996E-04    6.1929798083E-04    6.1391684443E-04    6.0858222817E-04
    6.0329373287E-04    5.9805096277E-04    5.9285352544E-04    5.8770103179E-04
    5.8259309603E-04    5.7752933565E-04    5.7250937139E-04    5.6753282719E-04
    5.6259933023E-04    5.5770851081E-04    5.5286000239E-04    5.4805344155E-04
    5.4328846795E-04    5.3856472432E-04    5.3388185643E-04    5.2923951304E-04
    5.2463734592E-04    5.2007500979E-04    5.1555216231E-04    5.1106846406E-04
    5.0662357850E-04    5.0221717194E-04    4.9784891356E-04    4.9351847533E-04
    4.8922553202E-04    4.8496976118E-04    4.8075084308E-04    4.7656846074E-04
    4.7242229986E-04    4.6831204884E-04    4.6423739870E-04    4.6019804312E-04
    4.5619367839E-04    4.5222400337E-04    4.4828871949E-04    4.4438753075E-04
    4.4052014364E-04    4.3668626718E-04    4.3288561285E-04    4.2911789460E-04
    4.2538282882E-04    4.2168013431E-04    4.1800953230E-04    4.1437074635E-04
    4.1076350243E-04    4.0718752880E-04    4.0364255608E-04    4.0012831716E-04
    3.9664454722E-04    3.9319098373E-04    3.8976736634E-04    3.8637343699E-04
    3.8300893977E-04    3.7967362099E-04    3.7636722912E-04    3.7308951477E-04
    3.6984023069E-04    3.6661913174E-04    3.6342597487E-04    3.6026051911E-04
    3.5712252557E-04    3.5401175736E-04    3.5092797967E-04    3.4787095964E-04
    3.4484046646E-04    3.4183627124E-04    3.3885814708E-04    3.3590586902E-04
    3.3297921401E-04    3.3007796093E-04    3.2720189053E-04    3.2435078545E-04
    3.2152443019E-04    3.1872261108E-04    3.1594511631E-04    3.1319173586E-04
    3.1046226151E-04    3.0775648682E-04    3.0507420714E-04    3.0241521956E-04
    2.9977932289E-04    2.9716631770E-04    2.9457600624E-04    2.9200819246E-04
    2.8946268201E-04    2.8693928218E-04    2.8443780192E-04    2.8195805183E-04
    2.7949984412E-04    2.7706299262E-04    2.7464731274E-04    2.7225262150E-04
    2.6987873747E-04    2.6752548077E-04    2.6519267309E-04    2.6288013763E-04
    2.6058769910E-04    2.5831518374E-04    2.5606241926E-04    2.5382923485E-04
    2.5161546119E-04    2.4942093037E-04    2.4724547597E-04    2.4508893297E-04
    2.4295113777E-04    2.4083192818E-04    2.3873114341E-04    2.3664862402E-04
    2.3458421199E-04    2.3253775061E-04    2.3050908454E-04    2.2849805979E-04
    2.2650452365E-04    2.2452832475E-04    2.2256931304E-04    2.2062733972E-04
    2.1870225729E-04    2.1679391951E-04    2.1490218142E-04    2.1302689928E-04
    2.1116793059E-04    2.0932513409E-04    2.0749836972E-04    2.0568749864E-04
    2.0389238319E-04    2.0211288690E-04    2.0034887448E-04    1.9860021179E-04
    1.9686676585E-04    1.9514840484E-04    1.9344499806E-04    1.9175641593E-04
    1.9008252999E-04    1.8842321290E-04    1.8677833840E-04    1.8514778132E-04
    1.8353141758E-04    1.8192912414E-04    1.8034077905E-04    1.7876626141E-04
    1.7720545133E-04    1.7565822998E-04    1.7412447956E-04    1.7260408325E-04
    1.7109692528E-04    1.6960289084E-04    1.6812186614E-04    1.6665373835E-04
    1.6519839562E-04    1.6375572706E-04    1.6232562274E-04    1.6090797369E-04
    1.5950267185E-04    1.5810961012E-04    1.5672868231E-04    1.5535978314E-04
    1.5400280826E-04    1.5265765421E-04    1.5132421840E-04    1.5000239915E-04
    1.4869209566E-04    1.4739320799E-04    1.4610563705E-04    1.4482928464E-04
    1.4356405337E-04    1.4230984671E-04    1.4106656896E-04    1.3983412525E-04
    1.3861242152E-04    1.3740136453E-04    1.3620086184E-04    1.3501082181E-04
    1.3383115360E-04    1.3266176713E-04    1.3150257313E-04    1.3035348308E-04
    1.2921440923E-04    1.2808526458E-04    1.2696596290E-04    1.2585641869E-04
    1.2475654719E-04    1.2366626438E-04    1.2258548696E-04    1.2151413235E-04
    1.2045211869E-04    1.1939936482E-04    1.1835579028E-04    1.1732131531E-04
    1.1629586084E-04    1.1527934849E-04    1.1427170055E-04    1.1327283997E-04
    1.1228269039E-04    1.1130117609E-04    1.1032822202E-04    1.0936375377E-04
    1.0840769758E-04    1.0745998032E-04    1.0652052949E-04    1.0558927325E-04
    1.0466614033E-04    1.0375106011E-04    1.0284396257E-04    1.0194477831E-04
    1.0105343852E-04    1.0016987497E-04    9.9294020043E-05    9.8425806705E-05
    9.7565168493E-05    9.6712039526E-05    9.5866354488E-05    9.5028048634E-05
    9.4197057775E-05    9.3373318281E-05    9.2556767071E-05    9.1747341612E-05
    9.0944979909E-05    9.0149620509E-05    8.9361202487E-05    8.8579665448E-05
    8.7804949519E-05    8.7036995347E-05    8.6275744091E-05    8.5521137422E-05
    8.4773117514E-05    8.4031627045E-05    8.3296609187E-05    8.2568007606E-05
    8.1845766456E-05    8.1129830374E-05    8.0420144477E-05    7.9716654360E-05
    7.9019306086E-05    7.8328046189E-05    7.7642821663E-05    7.6963579964E-05
    7.6290269003E-05    7.5622837143E-05    7.4961233193E-05    7.4305406408E-05
    7.3655306482E-05    7.3010883545E-05    7.2372088160E-05    7.1738871318E-05
    7.1111184437E-05    7.0488979355E-05    6.9872208327E-05    6.9260824023E-05
    6.8654779524E-05    6.8054028318E-05    6.7458524295E-05    6.6868221749E-05
    6.6283075365E-05    6.5703040225E-05    6.5128071801E-05    6.4558125949E-05
    6.3993158911E-05    6.3433127305E-05    6.2877988129E-05    6.2327698754E-05
    6.1782216918E-05    6.1241500730E-05    6.0705508659E-05    6.0174199537E-05
    5.9647532553E-05    5.9125467248E-05    5.8607963519E-05    5.8094981606E-05
    5.7586482098E-05    5.7082425925E-05    5.6582774357E-05    5.6087488997E-05
    5.5596531787E-05    5.5109864996E-05    5.4627451220E-05    5.4149253383E-05
    5.3675234730E-05    5.3205358823E-05    5.2739589543E-05    5.2277891084E-05
    5.1820227952E-05    5.1366564960E-05    5.0916867228E-05    5.0471100178E-05
    5.0029229533E-05    4.9591221314E-05    4.9157041838E-05    4.8726657713E-05
    4.8300035838E-05    4.7877143400E-05    4.7457947872E-05    4.7042417009E-05
    4.6630518845E-05    4.6222221694E-05    4.5817494144E-05    4.5416305057E-05
    4.5018623565E-05    4.4624419070E-05    4.4233661238E-05    4.3846319999E-05
    4.3462365547E-05    4.3081768331E-05    4.2704499062E-05    4.2330528701E-05
    4.1959828465E-05    4.1592369819E-05    4.1228124478E-05    4.0867064401E-05
    4.0509161794E-05    4.0154389103E-05    3.9802719012E-05    3.9454124445E-05
    3.9108578562E-05    3.8766054754E-05    3.8426526646E-05    3.8089968091E-05
    3.7756353170E-05    3.7425656189E-05    3.7097851680E-05    3.6772914393E-05
    3.6450819301E-05    3.6131541592E-05    3.5815056672E-05    3.5501340161E-05
    3.5190367889E-05    3.4882115899E-05    3.4576560442E-05    3.4273677975E-05
    3.3973445160E-05    3.3675838863E-05    3.3380836150E-05    3.3088414288E-05
    3.2798550742E-05    3.2511223171E-05    3.2226409432E-05    3.1944087573E-05
    3.1664235832E-05    3.1386832639E-05    3.1111856610E-05    3.0839286548E-05
    3.0569101440E-05    3.0301280457E-05    3.0035802950E-05    2.9772648452E-05
    2.9511796672E-05    2.9253227498E-05    2.8996920991E-05    2.8742857387E-05
    2.8491017094E-05    2.8241380690E-05    2.7993928923E-05    2.7748642709E-05
    2.7505503129E-05    2.7264491430E-05    2.7025589023E-05    2.6788777479E-05
    2.6554038531E-05    2.6321354070E-05    2.6090706147E-05    2.5862076967E-05
    2.5635448892E-05    2.5410804436E-05    2.5188126267E-05    2.4967397203E-05
    2.4748600213E-05    2.4531718412E-05    2.4316735065E-05    2.4103633582E-05
    2.3892397515E-05    2.3683010565E-05    2.3475456569E-05    2.3269719509E-05
    2.3065783505E-05    2.2863632817E-05    2.2663251839E-05    2.2464625104E-05
    2.2267737280E-05    2.2072573166E-05    2.1879117696E-05    2.1687355935E-05
    2.1497273078E-05    2.1308854449E-05    2.1122085499E-05    2.0936951807E-05
    2.0753439079E-05    2.0571533143E-05    2.0391219953E-05    2.0212485584E-05
    2.0035316232E-05    1.9859698216E-05    1.9685617972E-05    1.9513062055E-05
    1.9342017137E-05    1.9172470007E-05    1.9004407568E-05    1.8837816840E-05
    1.8672684952E-05    1.8508999150E-05    1.8346746788E-05    1.8185915330E-05
    1.8026492353E-05    1.7868465538E-05    1.7711822677E-05    1.7556551667E-05
    1.7402640510E-05    1.7250077314E-05    1.7098850290E-05    1.6948947752E-05
    1.6800358117E-05    1.6653069901E-05    1.6507071722E-05    1.6362352297E-05
    1.6218900441E-05    1.6076705067E-05    1.5935755185E-05    1.5796039900E-05
    1.5657548413E-05    1.5520270019E-05    1.5384194107E-05    1.5249310158E-05
    1.5115607744E-05    1.4983076530E-05    1.4851706269E-05    1.4721486806E-05
    1.4592408073E-05    1.4464460090E-05    1.4337632964E-05    1.4211916890E-05
    1.4087302147E-05    1.3963779098E-05    1.3841338193E-05    1.3719969964E-05
    1.3599665024E-05    1.3480414071E-05    1.3362207882E-05    1.3245037315E-05
    1.3128893309E-05    1.3013766881E-05    1.2899649127E-05    1.2786531220E-05
    1.2674404411E-05    1.2563260026E-05    1.2453089470E-05    1.2343884219E-05
    1.2235635826E-05    1.2128335917E-05    1.2021976191E-05    1.1916548421E-05
    1.1812044450E-05    1.1708456193E-05    1.1605775635E-05    1.1503994833E-05
    1.1403105911E-05    1.1303101063E-05    1.1203972550E-05    1.1105712704E-05
    1.1008313920E-05    1.0911768662E-05    1.0816069458E-05    1.0721208903E-05
    1.0627179656E-05    1.0533974440E-05    1.0441586041E-05    1.0350007310E-05
    1.0259231159E-05    1.0169250561E-05    1.0080058553E-05    9.9916482308E-06
    9.9040127513E-06    9.8171453312E-06    9.7310392464E-06    9.6456878315E-06
    9.5610844795E-06    9.4772226411E-06    9.3940958243E-06    9.3116975937E-06
    9.2300215703E-06    9.1490614308E-06    9.0688109072E-06    8.9892637863E-06
    8.9104139091E-06    8.8322551707E-06    8.7547815193E-06    8.6779869563E-06
    8.6018655352E-06    8.5264113617E-06    8.4516185930E-06    8.3774814375E-06
    8.3039941541E-06    8.2311510518E-06
   </PP_CHI.2>
   <PP_CHI.3
       type="real"
       size="1630"
       columns="4"
       index="3"
       occupation=" 2.000"
       pseudo_energy="   -0.2725942683E+00"
       label="5P"
       l="1" >
   -9.2744822239E-14    5.9944710127E-06    2.3995410997E-05    5.4055372416E-05
    9.6261848297E-05    1.5073713081E-04    2.1763811360E-04    2.9715603821E-04
    3.8951618509E-04    4.9497750953E-04    6.1383222342E-04    7.4640532323E-04
    8.9305406527E-04    1.0541673889E-03    1.2301652889E-03    1.4214981378E-03
    1.6286459591E-03    1.8521176538E-03    2.0924501799E-03    2.3502076865E-03
    2.6259806061E-03    2.9203847030E-03    3.2340600823E-03    3.5676701603E-03
    3.9219005966E-03    4.2974581922E-03    4.6950697534E-03    5.1154809233E-03
    5.5594549845E-03    6.0277716337E-03    6.5212257291E-03    7.0406260153E-03
    7.5867938255E-03    8.1605617635E-03    8.7627723681E-03    9.3942767620E-03
    1.0055933286E-02    1.0748606123E-02    1.1473163910E-02    1.2230478346E-02
    1.3021422791E-02    1.3846870866E-02    1.4707695046E-02    1.5604765260E-02
    1.6538947489E-02    1.7511102372E-02    1.8522083816E-02    1.9572737622E-02
    2.0663900110E-02    2.1796396768E-02    2.2971040907E-02    2.4188632342E-02
    2.5449956081E-02    2.6755781038E-02    2.8106858772E-02    2.9503922245E-02
    3.0947684602E-02    3.2438837984E-02    3.3978052363E-02    3.5565974414E-02
    3.7203226407E-02    3.8890405142E-02    4.0628080906E-02    4.2416796479E-02
    4.4257066158E-02    4.6149374833E-02    4.8094177095E-02    5.0091896375E-02
    5.2142924137E-02    5.4247619101E-02    5.6406306508E-02    5.8619277431E-02
    6.0886788125E-02    6.3209059418E-02    6.5586276153E-02    6.8018586662E-02
    7.0506102296E-02    7.3048896991E-02    7.5647006885E-02    7.8300429971E-02
    8.1009125805E-02    8.3773015254E-02    8.6591980285E-02    8.9465863810E-02
    9.2394469563E-02    9.5377562033E-02    9.8414866431E-02    1.0150606871E-01
    1.0465081563E-01    1.0784871485E-01    1.1109933508E-01    1.1440220628E-01
    1.1775681988E-01    1.2116262906E-01    1.2461904907E-01    1.2812545755E-01
    1.3168119500E-01    1.3528556513E-01    1.3893783538E-01    1.4263723743E-01
    1.4638296774E-01    1.5017418812E-01    1.5401002638E-01    1.5788957694E-01
    1.6181190156E-01    1.6577603003E-01    1.6978096096E-01    1.7382566249E-01
    1.7790907318E-01    1.8203010280E-01    1.8618763323E-01    1.9038051931E-01
    1.9460758981E-01    1.9886764834E-01    2.0315947434E-01    2.0748182406E-01
    2.1183343157E-01    2.1621300976E-01    2.2061925148E-01    2.2505083050E-01
    2.2950640265E-01    2.3398460694E-01    2.3848406662E-01    2.4300339032E-01
    2.4754117321E-01    2.5209599815E-01    2.5666643679E-01    2.6125105081E-01
    2.6584839305E-01    2.7045700868E-01    2.7507543639E-01    2.7970220959E-01
    2.8433585758E-01    2.8897490672E-01    2.9361788164E-01    2.9826330641E-01
    3.0290970571E-01    3.0755560601E-01    3.1219953676E-01    3.1684003150E-01
    3.2147562905E-01    3.2610487465E-01    3.3072632106E-01    3.3533852971E-01
    3.3994007178E-01    3.4452952932E-01    3.4910549628E-01    3.5366657962E-01
    3.5821140027E-01    3.6273859425E-01    3.6724681359E-01    3.7173472731E-01
    3.7620102242E-01    3.8064440482E-01    3.8506360019E-01    3.8945735491E-01
    3.9382443687E-01    3.9816363631E-01    4.0247376662E-01    4.0675366512E-01
    4.1100219376E-01    4.1521823983E-01    4.1940071667E-01    4.2354856427E-01
    4.2766074988E-01    4.3173626861E-01    4.3577414394E-01    4.3977342822E-01
    4.4373320315E-01    4.4765258021E-01    4.5153070106E-01    4.5536673787E-01
    4.5915989366E-01    4.6290940257E-01    4.6661453014E-01    4.7027457347E-01
    4.7388886141E-01    4.7745675469E-01    4.8097764604E-01    4.8445096018E-01
    4.8787615393E-01    4.9125271609E-01    4.9458016750E-01    4.9785806083E-01
    5.0108598055E-01    5.0426354271E-01    5.0739039476E-01    5.1046621533E-01
    5.1349071395E-01    5.1646363074E-01    5.1938473611E-01    5.2225383036E-01
    5.2507074333E-01    5.2783533394E-01    5.3054748975E-01    5.3320712650E-01
    5.3581418757E-01    5.3836864347E-01    5.4087049129E-01    5.4331975412E-01
    5.4571648042E-01    5.4806074345E-01    5.5035264058E-01    5.5259229268E-01
    5.5477984339E-01    5.5691545850E-01    5.5899932518E-01    5.6103165131E-01
    5.6301266474E-01    5.6494261254E-01    5.6682176027E-01    5.6865039124E-01
    5.7042880574E-01    5.7215732029E-01    5.7383626685E-01    5.7546599211E-01
    5.7704685669E-01    5.7857923439E-01    5.8006351144E-01    5.8150008574E-01
    5.8288936612E-01    5.8423177161E-01    5.8552773071E-01    5.8677768064E-01
    5.8798206669E-01    5.8914134146E-01    5.9025596425E-01    5.9132640031E-01
    5.9235312026E-01    5.9333659940E-01    5.9427731715E-01    5.9517575638E-01
    5.9603240288E-01    5.9684774476E-01    5.9762227196E-01    5.9835647565E-01
    5.9905084783E-01    5.9970588074E-01    6.0032206649E-01    6.0089989660E-01
    6.0143986155E-01    6.0194245046E-01    6.0240815067E-01    6.0283744742E-01
    6.0323082351E-01    6.0358875903E-01    6.0391173108E-01    6.0420021350E-01
    6.0445467665E-01    6.0467558721E-01    6.0486340797E-01    6.0501859770E-01
    6.0514161097E-01    6.0523289805E-01    6.0529290477E-01    6.0532207248E-01
    6.0532083794E-01    6.0528963329E-01    6.0522888599E-01    6.0513901881E-01
    6.0502044985E-01    6.0487359248E-01    6.0469885544E-01    6.0449664278E-01
    6.0426735400E-01    6.0401138402E-01    6.0372912325E-01    6.0342095772E-01
    6.0308726905E-01    6.0272843462E-01    6.0234482761E-01    6.0193681707E-01
    6.0150476803E-01    6.0104904161E-01    6.0056999505E-01    6.0006798184E-01
    5.9954335180E-01    5.9899645115E-01    5.9842762261E-01    5.9783720546E-01
    5.9722553560E-01    5.9659294563E-01    5.9593976491E-01    5.9526631959E-01
    5.9457293266E-01    5.9385992399E-01    5.9312761032E-01    5.9237630531E-01
    5.9160631953E-01    5.9081796043E-01    5.9001153234E-01    5.8918733644E-01
    5.8834567070E-01    5.8748682985E-01    5.8661110528E-01    5.8571878509E-01
    5.8481015401E-01    5.8388549348E-01    5.8294508173E-01    5.8198919373E-01
    5.8101810128E-01    5.8003207301E-01    5.7903137444E-01    5.7801626796E-01
    5.7698701292E-01    5.7594386560E-01    5.7488707931E-01    5.7381690433E-01
    5.7273358804E-01    5.7163737487E-01    5.7052850638E-01    5.6940722124E-01
    5.6827375533E-01    5.6712834168E-01    5.6597121059E-01    5.6480258958E-01
    5.6362270347E-01    5.6243177439E-01    5.6123002182E-01    5.6001766257E-01
    5.5879491090E-01    5.5756197843E-01    5.5631907429E-01    5.5506640505E-01
    5.5380417478E-01    5.5253258511E-01    5.5125183520E-01    5.4996212180E-01
    5.4866363928E-01    5.4735657962E-01    5.4604113248E-01    5.4471748521E-01
    5.4338582285E-01    5.4204632820E-01    5.4069918179E-01    5.3934456196E-01
    5.3798264484E-01    5.3661360442E-01    5.3523761252E-01    5.3385483885E-01
    5.3246545102E-01    5.3106961457E-01    5.2966749299E-01    5.2825924774E-01
    5.2684503828E-01    5.2542502208E-01    5.2399935465E-01    5.2256818956E-01
    5.2113167845E-01    5.1968997110E-01    5.1824321538E-01    5.1679155730E-01
    5.1533514107E-01    5.1387410906E-01    5.1240860185E-01    5.1093875825E-01
    5.0946471531E-01    5.0798660835E-01    5.0650457098E-01    5.0501873510E-01
    5.0352923094E-01    5.0203618707E-01    5.0053973042E-01    4.9903998629E-01
    4.9753707839E-01    4.9603112884E-01    4.9452225817E-01    4.9301058538E-01
    4.9149622793E-01    4.8997930175E-01    4.8845992129E-01    4.8693819950E-01
    4.8541424787E-01    4.8388817642E-01    4.8236009375E-01    4.8083010704E-01
    4.7929832205E-01    4.7776484317E-01    4.7622977338E-01    4.7469321435E-01
    4.7315526636E-01    4.7161602837E-01    4.7007559805E-01    4.6853407173E-01
    4.6699154447E-01    4.6544811005E-01    4.6390386100E-01    4.6235888859E-01
    4.6081328284E-01    4.5926713260E-01    4.5772052545E-01    4.5617354781E-01
    4.5462628491E-01    4.5307882081E-01    4.5153123840E-01    4.4998361944E-01
    4.4843604455E-01    4.4688859322E-01    4.4534134383E-01    4.4379437366E-01
    4.4224775892E-01    4.4070157471E-01    4.3915589509E-01    4.3761079306E-01
    4.3606634056E-01    4.3452260852E-01    4.3297966682E-01    4.3143758434E-01
    4.2989642897E-01    4.2835626759E-01    4.2681716610E-01    4.2527918943E-01
    4.2374240154E-01    4.2220686545E-01    4.2067264322E-01    4.1913979599E-01
    4.1760838396E-01    4.1607846643E-01    4.1455010178E-01    4.1302334749E-01
    4.1149826016E-01    4.0997489551E-01    4.0845330839E-01    4.0693355276E-01
    4.0541568177E-01    4.0389974767E-01    4.0238580193E-01    4.0087389514E-01
    3.9936407710E-01    3.9785639679E-01    3.9635090236E-01    3.9484764119E-01
    3.9334665987E-01    3.9184800419E-01    3.9035171917E-01    3.8885784908E-01
    3.8736643740E-01    3.8587752689E-01    3.8439115954E-01    3.8290737661E-01
    3.8142621864E-01    3.7994772543E-01    3.7847193608E-01    3.7699888897E-01
    3.7552862179E-01    3.7406117151E-01    3.7259657444E-01    3.7113486619E-01
    3.6967608172E-01    3.6822025529E-01    3.6676742052E-01    3.6531761036E-01
    3.6387085714E-01    3.6242719252E-01    3.6098664754E-01    3.5954925261E-01
    3.5811503751E-01    3.5668403142E-01    3.5525626290E-01    3.5383175990E-01
    3.5241054980E-01    3.5099265936E-01    3.4957811478E-01    3.4816694166E-01
    3.4675916504E-01    3.4535480939E-01    3.4395389864E-01    3.4255645613E-01
    3.4116250469E-01    3.3977206657E-01    3.3838516352E-01    3.3700181674E-01
    3.3562204691E-01    3.3424587419E-01    3.3287331822E-01    3.3150439815E-01
    3.3013913262E-01    3.2877753978E-01    3.2741963727E-01    3.2606544227E-01
    3.2471497146E-01    3.2336824107E-01    3.2202526684E-01    3.2068606407E-01
    3.1935064758E-01    3.1801903175E-01    3.1669123051E-01    3.1536725736E-01
    3.1404712536E-01    3.1273084712E-01    3.1141843485E-01    3.1010990033E-01
    3.0880525493E-01    3.0750450961E-01    3.0620767491E-01    3.0491476101E-01
    3.0362577764E-01    3.0234073420E-01    3.0105963965E-01    2.9978250263E-01
    2.9850933134E-01    2.9724013368E-01    2.9597491712E-01    2.9471368882E-01
    2.9345645557E-01    2.9220322379E-01    2.9095399959E-01    2.8970878871E-01
    2.8846759658E-01    2.8723042827E-01    2.8599728855E-01    2.8476818185E-01
    2.8354311230E-01    2.8232208370E-01    2.8110509955E-01    2.7989216304E-01
    2.7868327709E-01    2.7747844427E-01    2.7627766692E-01    2.7508094705E-01
    2.7388828640E-01    2.7269968644E-01    2.7151514837E-01    2.7033467310E-01
    2.6915826130E-01    2.6798591335E-01    2.6681762941E-01    2.6565340936E-01
    2.6449325283E-01    2.6333715923E-01    2.6218512769E-01    2.6103715715E-01
    2.5989324628E-01    2.5875339353E-01    2.5761759714E-01    2.5648585510E-01
    2.5535816522E-01    2.5423452505E-01    2.5311493198E-01    2.5199938314E-01
    2.5088787550E-01    2.4978040582E-01    2.4867697063E-01    2.4757756633E-01
    2.4648218906E-01    2.4539083484E-01    2.4430349945E-01    2.4322017854E-01
    2.4214086755E-01    2.4106556177E-01    2.3999425629E-01    2.3892694607E-01
    2.3786362588E-01    2.3680429035E-01    2.3574893395E-01    2.3469755097E-01
    2.3365013558E-01    2.3260668180E-01    2.3156718349E-01    2.3053163437E-01
    2.2950002803E-01    2.2847235793E-01    2.2744861738E-01    2.2642879957E-01
    2.2541289756E-01    2.2440090428E-01    2.2339281255E-01    2.2238861505E-01
    2.2138830437E-01    2.2039187296E-01    2.1939931319E-01    2.1841061727E-01
    2.1742577736E-01    2.1644478549E-01    2.1546763357E-01    2.1449431344E-01
    2.1352481682E-01    2.1255913537E-01    2.1159726061E-01    2.1063918401E-01
    2.0968489692E-01    2.0873439064E-01    2.0778765636E-01    2.0684468519E-01
    2.0590546817E-01    2.0496999626E-01    2.0403826035E-01    2.0311025124E-01
    2.0218595967E-01    2.0126537632E-01    2.0034849179E-01    1.9943529662E-01
    1.9852578128E-01    1.9761993619E-01    1.9671775171E-01    1.9581921812E-01
    1.9492432568E-01    1.9403306456E-01    1.9314542490E-01    1.9226139678E-01
    1.9138097024E-01    1.9050413527E-01    1.8963088180E-01    1.8876119972E-01
    1.8789507891E-01    1.8703250915E-01    1.8617348024E-01    1.8531798190E-01
    1.8446600383E-01    1.8361753569E-01    1.8277256711E-01    1.8193108770E-01
    1.8109308700E-01    1.8025855456E-01    1.7942747989E-01    1.7859985247E-01
    1.7777566175E-01    1.7695489716E-01    1.7613754810E-01    1.7532360397E-01
    1.7451305413E-01    1.7370588791E-01    1.7290209466E-01    1.7210166366E-01
    1.7130458423E-01    1.7051084563E-01    1.6972043713E-01    1.6893334797E-01
    1.6814956740E-01    1.6736908464E-01    1.6659188892E-01    1.6581796943E-01
    1.6504731538E-01    1.6427991596E-01    1.6351576036E-01    1.6275483776E-01
    1.6199713734E-01    1.6124264828E-01    1.6049135973E-01    1.5974326088E-01
    1.5899834090E-01    1.5825658894E-01    1.5751799419E-01    1.5678254581E-01
    1.5605023297E-01    1.5532104485E-01    1.5459497063E-01    1.5387199949E-01
    1.5315212063E-01    1.5243532323E-01    1.5172159651E-01    1.5101092965E-01
    1.5030331189E-01    1.4959873245E-01    1.4889718056E-01    1.4819864546E-01
    1.4750311640E-01    1.4681058265E-01    1.4612103348E-01    1.4543445819E-01
    1.4475084606E-01    1.4407018641E-01    1.4339246857E-01    1.4271768187E-01
    1.4204581567E-01    1.4137685933E-01    1.4071080224E-01    1.4004763380E-01
    1.3938734342E-01    1.3872992053E-01    1.3807535459E-01    1.3742363506E-01
    1.3677475141E-01    1.3612869317E-01    1.3548544984E-01    1.3484501096E-01
    1.3420736609E-01    1.3357250482E-01    1.3294041674E-01    1.3231109147E-01
    1.3168451865E-01    1.3106068793E-01    1.3043958901E-01    1.2982121158E-01
    1.2920554537E-01    1.2859258012E-01    1.2798230561E-01    1.2737471163E-01
    1.2676978798E-01    1.2616752452E-01    1.2556791110E-01    1.2497093760E-01
    1.2437659393E-01    1.2378487003E-01    1.2319575586E-01    1.2260924138E-01
    1.2202531662E-01    1.2144397160E-01    1.2086519637E-01    1.2028898102E-01
    1.1971531566E-01    1.1914419041E-01    1.1857559543E-01    1.1800952090E-01
    1.1744595704E-01    1.1688489407E-01    1.1632632227E-01    1.1577023191E-01
    1.1521661331E-01    1.1466545682E-01    1.1411675279E-01    1.1357049163E-01
    1.1302666375E-01    1.1248525960E-01    1.1194626965E-01    1.1140968442E-01
    1.1087549442E-01    1.1034369022E-01    1.0981426240E-01    1.0928720157E-01
    1.0876249836E-01    1.0824014346E-01    1.0772012754E-01    1.0720244134E-01
    1.0668707560E-01    1.0617402110E-01    1.0566326865E-01    1.0515480907E-01
    1.0464863324E-01    1.0414473204E-01    1.0364309639E-01    1.0314371723E-01
    1.0264658553E-01    1.0215169231E-01    1.0165902858E-01    1.0116858541E-01
    1.0068035389E-01    1.0019432512E-01    9.9710490242E-02    9.9228840438E-02
    9.8749366901E-02    9.8272060857E-02    9.7796913562E-02    9.7323916299E-02
    9.6853060378E-02    9.6384337139E-02    9.5917737949E-02    9.5453254203E-02
    9.4990877325E-02    9.4530598766E-02    9.4072410006E-02    9.3616302552E-02
    9.3162267940E-02    9.2710297733E-02    9.2260383523E-02    9.1812516929E-02
    9.1366689599E-02    9.0922893207E-02    9.0481119457E-02    9.0041360078E-02
    8.9603606830E-02    8.9167851499E-02    8.8734085899E-02    8.8302301870E-02
    8.7872491283E-02    8.7444646033E-02    8.7018758044E-02    8.6594819269E-02
    8.6172821686E-02    8.5752757301E-02    8.5334618149E-02    8.4918396289E-02
    8.4504083811E-02    8.4091672829E-02    8.3681155485E-02    8.3272523950E-02
    8.2865770419E-02    8.2460887116E-02    8.2057866292E-02    8.1656700223E-02
    8.1257381214E-02    8.0859901594E-02    8.0464253722E-02    8.0070429982E-02
    7.9678422783E-02    7.9288224563E-02    7.8899827785E-02    7.8513224939E-02
    7.8128408541E-02    7.7745371134E-02    7.7364105286E-02    7.6984603592E-02
    7.6606858673E-02    7.6230863174E-02    7.5856609770E-02    7.5484091158E-02
    7.5113300064E-02    7.4744229236E-02    7.4376871451E-02    7.4011219511E-02
    7.3647266242E-02    7.3285004497E-02    7.2924427153E-02    7.2565527115E-02
    7.2208297310E-02    7.1852730692E-02    7.1498820241E-02    7.1146558960E-02
    7.0795939878E-02    7.0446956049E-02    7.0099600553E-02    6.9753866493E-02
    6.9409746998E-02    6.9067235220E-02    6.8726324338E-02    6.8387007553E-02
    6.8049278093E-02    6.7713129210E-02    6.7378554178E-02    6.7045546298E-02
    6.6714098893E-02    6.6384205313E-02    6.6055858930E-02    6.5729053139E-02
    6.5403781362E-02    6.5080037043E-02    6.4757813649E-02    6.4437104674E-02
    6.4117903631E-02    6.3800204061E-02    6.3483999527E-02    6.3169283613E-02
    6.2856049931E-02    6.2544292113E-02    6.2234003816E-02    6.1925178718E-02
    6.1617810523E-02    6.1311892956E-02    6.1007419767E-02    6.0704384727E-02
    6.0402781630E-02    6.0102604294E-02    5.9803846560E-02    5.9506502290E-02
    5.9210565370E-02    5.8916029709E-02    5.8622889236E-02    5.8331137905E-02
    5.8040769691E-02    5.7751778593E-02    5.7464158630E-02    5.7177903844E-02
    5.6893008300E-02    5.6609466085E-02    5.6327271306E-02    5.6046418093E-02
    5.5766900600E-02    5.5488713001E-02    5.5211849489E-02    5.4936304285E-02
    5.4662071625E-02    5.4389145771E-02    5.4117521005E-02    5.3847191631E-02
    5.3578151972E-02    5.3310396376E-02    5.3043919210E-02    5.2778714861E-02
    5.2514777741E-02    5.2252102279E-02    5.1990682928E-02    5.1730514160E-02
    5.1471590468E-02    5.1213906368E-02    5.0957456393E-02    5.0702235100E-02
    5.0448237065E-02    5.0195456886E-02    4.9943889179E-02    4.9693528583E-02
    4.9444369755E-02    4.9196407376E-02    4.8949636142E-02    4.8704050775E-02
    4.8459646012E-02    4.8216416614E-02    4.7974357360E-02    4.7733463049E-02
    4.7493728500E-02    4.7255148554E-02    4.7017718068E-02    4.6781431921E-02
    4.6546285012E-02    4.6312272260E-02    4.6079388600E-02    4.5847628992E-02
    4.5616988411E-02    4.5387461853E-02    4.5159044334E-02    4.4931730887E-02
    4.4705516569E-02    4.4480396450E-02    4.4256365623E-02    4.4033419200E-02
    4.3811552311E-02    4.3590760104E-02    4.3371037748E-02    4.3152380430E-02
    4.2934783355E-02    4.2718241748E-02    4.2502750852E-02    4.2288305928E-02
    4.2074902257E-02    4.1862535137E-02    4.1651199885E-02    4.1440891838E-02
    4.1231606349E-02    4.1023338790E-02    4.0816084551E-02    4.0609839042E-02
    4.0404597688E-02    4.0200355935E-02    3.9997109245E-02    3.9794853099E-02
    3.9593582996E-02    3.9393294453E-02    3.9193983003E-02    3.8995644198E-02
    3.8798273609E-02    3.8601866822E-02    3.8406419443E-02    3.8211927093E-02
    3.8018385414E-02    3.7825790062E-02    3.7634136712E-02    3.7443421056E-02
    3.7253638803E-02    3.7064785681E-02    3.6876857432E-02    3.6689849817E-02
    3.6503758614E-02    3.6318579619E-02    3.6134308643E-02    3.5950941514E-02
    3.5768474078E-02    3.5586902198E-02    3.5406221752E-02    3.5226428637E-02
    3.5047518765E-02    3.4869488064E-02    3.4692332481E-02    3.4516047977E-02
    3.4340630531E-02    3.4166076138E-02    3.3992380808E-02    3.3819540570E-02
    3.3647551467E-02    3.3476409559E-02    3.3306110922E-02    3.3136651648E-02
    3.2968027845E-02    3.2800235638E-02    3.2633271166E-02    3.2467130584E-02
    3.2301810066E-02    3.2137305798E-02    3.1973613984E-02    3.1810730842E-02
    3.1648652608E-02    3.1487375530E-02    3.1326895876E-02    3.1167209925E-02
    3.1008313975E-02    3.0850204338E-02    3.0692877339E-02    3.0536329324E-02
    3.0380556648E-02    3.0225555685E-02    3.0071322823E-02    2.9917854465E-02
    2.9765147030E-02    2.9613196950E-02    2.9462000674E-02    2.9311554664E-02
    2.9161855399E-02    2.9012899371E-02    2.8864683088E-02    2.8717203071E-02
    2.8570455857E-02    2.8424437998E-02    2.8279146060E-02    2.8134576623E-02
    2.7990726281E-02    2.7847591644E-02    2.7705169336E-02    2.7563455994E-02
    2.7422448270E-02    2.7282142832E-02    2.7142536359E-02    2.7003625546E-02
    2.6865407101E-02    2.6727877749E-02    2.6591034224E-02    2.6454873279E-02
    2.6319391677E-02    2.6184586197E-02    2.6050453631E-02    2.5916990785E-02
    2.5784194479E-02    2.5652061545E-02    2.5520588831E-02    2.5389773197E-02
    2.5259611516E-02    2.5130100677E-02    2.5001237581E-02    2.4873019140E-02
    2.4745442283E-02    2.4618503951E-02    2.4492201097E-02    2.4366530689E-02
    2.4241489706E-02    2.4117075143E-02    2.3993284006E-02    2.3870113314E-02
    2.3747560100E-02    2.3625621409E-02    2.3504294299E-02    2.3383575841E-02
    2.3263463119E-02    2.3143953230E-02    2.3025043282E-02    2.2906730398E-02
    2.2789011712E-02    2.2671884371E-02    2.2555345534E-02    2.2439392374E-02
    2.2324022074E-02    2.2209231832E-02    2.2095018856E-02    2.1981380368E-02
    2.1868313602E-02    2.1755815803E-02    2.1643884229E-02    2.1532516151E-02
    2.1421708849E-02    2.1311459620E-02    2.1201765767E-02    2.1092624610E-02
    2.0984033479E-02    2.0875989715E-02    2.0768490672E-02    2.0661533715E-02
    2.0555116221E-02    2.0449235578E-02    2.0343889188E-02    2.0239074462E-02
    2.0134788824E-02    2.0031029708E-02    1.9927794561E-02    1.9825080840E-02
    1.9722886016E-02    1.9621207568E-02    1.9520042988E-02    1.9419389779E-02
    1.9319245456E-02    1.9219607544E-02    1.9120473580E-02    1.9021841111E-02
    1.8923707696E-02    1.8826070904E-02    1.8728928316E-02    1.8632277524E-02
    1.8536116129E-02    1.8440441746E-02    1.8345251998E-02    1.8250544520E-02
    1.8156316958E-02    1.8062566967E-02    1.7969292214E-02    1.7876490376E-02
    1.7784159142E-02    1.7692296209E-02    1.7600899287E-02    1.7509966095E-02
    1.7419494362E-02    1.7329481829E-02    1.7239926245E-02    1.7150825371E-02
    1.7062176977E-02    1.6973978846E-02    1.6886228767E-02    1.6798924542E-02
    1.6712063982E-02    1.6625644909E-02    1.6539665153E-02    1.6454122556E-02
    1.6369014968E-02    1.6284340251E-02    1.6200096276E-02    1.6116280922E-02
    1.6032892081E-02    1.5949927652E-02    1.5867385545E-02    1.5785263679E-02
    1.5703559983E-02    1.5622272395E-02    1.5541398864E-02    1.5460937347E-02
    1.5380885811E-02    1.5301242231E-02    1.5222004595E-02    1.5143170896E-02
    1.5064739139E-02    1.4986707338E-02    1.4909073515E-02    1.4831835702E-02
    1.4754991940E-02    1.4678540280E-02    1.4602478780E-02    1.4526805510E-02
    1.4451518545E-02    1.4376615973E-02    1.4302095889E-02    1.4227956396E-02
    1.4154195608E-02    1.4080811645E-02    1.4007802640E-02    1.3935166730E-02
    1.3862902064E-02    1.3791006798E-02    1.3719479098E-02    1.3648317137E-02
    1.3577519098E-02    1.3507083171E-02    1.3437007557E-02    1.3367290462E-02
    1.3297930104E-02    1.3228924706E-02    1.3160272502E-02    1.3091971734E-02
    1.3024020650E-02    1.2956417508E-02    1.2889160576E-02    1.2822248126E-02
    1.2755678441E-02    1.2689449812E-02    1.2623560538E-02    1.2558008925E-02
    1.2492793287E-02    1.2427911947E-02    1.2363363237E-02    1.2299145493E-02
    1.2235257063E-02    1.2171696301E-02    1.2108461568E-02    1.2045551235E-02
    1.1982963678E-02    1.1920697284E-02    1.1858750445E-02    1.1797121561E-02
    1.1735809041E-02    1.1674811301E-02    1.1614126763E-02    1.1553753858E-02
    1.1493691025E-02    1.1433936709E-02    1.1374489364E-02    1.1315347449E-02
    1.1256509434E-02    1.1197973792E-02    1.1139739007E-02    1.1081803568E-02
    1.1024165972E-02    1.0966824723E-02    1.0909778333E-02    1.0853025320E-02
    1.0796564210E-02    1.0740393535E-02    1.0684511835E-02    1.0628917656E-02
    1.0573609553E-02    1.0518586085E-02    1.0463845821E-02    1.0409387335E-02
    1.0355209208E-02    1.0301310028E-02    1.0247688390E-02    1.0194342896E-02
    1.0141272154E-02    1.0088474780E-02    1.0035949395E-02    9.9836946278E-03
    9.9317091133E-03    9.8799914933E-03    9.8285404160E-03    9.7773545362E-03
    9.7264325153E-03    9.6757730209E-03    9.6253747274E-03    9.5752363154E-03
    9.5253564719E-03    9.4757338904E-03    9.4263672705E-03    9.3772553183E-03
    9.3283967461E-03    9.2797902726E-03    9.2314346225E-03    9.1833285269E-03
    9.1354707228E-03    9.0878599536E-03    9.0404949688E-03    8.9933745237E-03
    8.9464973801E-03    8.8998623055E-03    8.8534680735E-03    8.8073134637E-03
    8.7613972617E-03    8.7157182588E-03    8.6702752524E-03    8.6250670459E-03
    8.5800924481E-03    8.5353502741E-03    8.4908393446E-03    8.4465584858E-03
    8.4025065301E-03    8.3586823154E-03    8.3150846852E-03    8.2717124888E-03
    8.2285645811E-03    8.1856398225E-03    8.1429370792E-03    8.1004552228E-03
    8.0581931305E-03    8.0161496849E-03    7.9743237743E-03    7.9327142923E-03
    7.8913201378E-03    7.8501402155E-03    7.8091734352E-03    7.7684187121E-03
    7.7278749667E-03    7.6875411249E-03    7.6474161179E-03    7.6074988821E-03
    7.5677883591E-03    7.5282834958E-03    7.4889832443E-03    7.4498865619E-03
    7.4109924108E-03    7.3722997585E-03    7.3338075777E-03    7.2955148461E-03
    7.2574205462E-03    7.2195236659E-03    7.1818231979E-03    7.1443181398E-03
    7.1070074945E-03    7.0698902694E-03    7.0329654771E-03    6.9962321350E-03
    6.9596892653E-03    6.9233358952E-03    6.8871710565E-03    6.8511937861E-03
    6.8154031254E-03    6.7797981206E-03    6.7443778228E-03    6.7091412876E-03
    6.6740875754E-03    6.6392157513E-03    6.6045248850E-03    6.5700140506E-03
    6.5356823273E-03    6.5015287984E-03    6.4675525519E-03    6.4337526805E-03
    6.4001282813E-03    6.3666784559E-03    6.3334023102E-03    6.3002989548E-03
    6.2673675047E-03    6.2346070791E-03    6.2020168019E-03    6.1695958011E-03
    6.1373432092E-03    6.1052581630E-03    6.0733398034E-03    6.0415872760E-03
    6.0099997304E-03    5.9785763203E-03    5.9473162041E-03    5.9162185438E-03
    5.8852825061E-03    5.8545072616E-03    5.8238919851E-03    5.7934358556E-03
    5.7631380561E-03    5.7329977738E-03    5.7030141997E-03    5.6731865293E-03
    5.6435139617E-03    5.6139957002E-03    5.5846309522E-03    5.5554189289E-03
    5.5263588455E-03    5.4974499211E-03    5.4686913789E-03    5.4400824456E-03
    5.4116223523E-03    5.3833103335E-03    5.3551456278E-03    5.3271274776E-03
    5.2992551290E-03    5.2715278320E-03    5.2439448403E-03    5.2165054114E-03
    5.1892088065E-03    5.1620542904E-03    5.1350411319E-03    5.1081686032E-03
    5.0814359802E-03    5.0548425426E-03    5.0283875736E-03    5.0020703599E-03
    4.9758901922E-03    4.9498463643E-03    4.9239381738E-03    4.8981649218E-03
    4.8725259130E-03    4.8470204554E-03    4.8216478607E-03    4.7964074440E-03
    4.7712985238E-03    4.7463204221E-03    4.7214724644E-03    4.6967539794E-03
    4.6721642993E-03    4.6477027597E-03    4.6233686996E-03    4.5991614612E-03
    4.5750803901E-03    4.5511248352E-03    4.5272941488E-03    4.5035876863E-03
    4.4800048064E-03    4.4565448711E-03    4.4332072457E-03    4.4099912985E-03
    4.3868964012E-03    4.3639219285E-03    4.3410672585E-03    4.3183317722E-03
    4.2957148540E-03    4.2732158911E-03    4.2508342741E-03    4.2285693965E-03
    4.2064206551E-03    4.1843874493E-03    4.1624691822E-03    4.1406652593E-03
    4.1189750896E-03    4.0973980847E-03    4.0759336596E-03    4.0545812319E-03
    4.0333402223E-03    4.0122100546E-03    3.9911901553E-03    3.9702799538E-03
    3.9494788826E-03    3.9287863770E-03    3.9082018751E-03    3.8877248179E-03
    3.8673546493E-03    3.8470908160E-03    3.8269327674E-03    3.8068799558E-03
    3.7869318364E-03    3.7670878669E-03    3.7473475081E-03    3.7277102232E-03
    3.7081754784E-03    3.6887427425E-03    3.6694114870E-03    3.6501811862E-03
    3.6310513168E-03    3.6120213586E-03    3.5930907936E-03    3.5742591069E-03
    3.5555257858E-03    3.5368903204E-03    3.5183522035E-03    3.4999109303E-03
    3.4815659988E-03    3.4633169092E-03    3.4451631647E-03    3.4271042707E-03
    3.4091397353E-03    3.3912690690E-03    3.3734917849E-03    3.3558073985E-03
    3.3382154279E-03    3.3207153934E-03    3.3033068182E-03    3.2859892274E-03
    3.2687621490E-03    3.2516251131E-03    3.2345776524E-03    3.2176193019E-03
    3.2007495988E-03    3.1839680831E-03    3.1672742968E-03    3.1506677844E-03
    3.1341480926E-03    3.1177147706E-03    3.1013673697E-03    3.0851054437E-03
    3.0689285486E-03    3.0528362427E-03    3.0368280864E-03    3.0209036426E-03
    3.0050624764E-03    2.9893041549E-03    2.9736282476E-03    2.9580343263E-03
    2.9425219647E-03    2.9270907391E-03    2.9117402275E-03    2.8964700105E-03
    2.8812796706E-03    2.8661687925E-03    2.8511369629E-03    2.8361837710E-03
    2.8213088077E-03    2.8065116661E-03    2.7917919417E-03    2.7771492316E-03
    2.7625831353E-03    2.7480932542E-03    2.7336791918E-03    2.7193405538E-03
    2.7050769476E-03    2.6908879829E-03    2.6767732712E-03    2.6627324261E-03
    2.6487650632E-03    2.6348708001E-03    2.6210492563E-03    2.6073000532E-03
    2.5936228144E-03    2.5800171650E-03    2.5664827326E-03    2.5530191461E-03
    2.5396260369E-03    2.5263030378E-03    2.5130497839E-03    2.4998659118E-03
    2.4867510603E-03    2.4737048698E-03    2.4607269827E-03    2.4478170433E-03
    2.4349746976E-03    2.4221995934E-03    2.4094913805E-03    2.3968497103E-03
    2.3842742360E-03    2.3717646129E-03    2.3593204977E-03    2.3469415490E-03
    2.3346274273E-03    2.3223777947E-03    2.3101923149E-03    2.2980706537E-03
    2.2860124784E-03    2.2740174580E-03    2.2620852633E-03    2.2502155668E-03
    2.2384080425E-03    2.2266623663E-03    2.2149782158E-03    2.2033552700E-03
    2.1917932099E-03    2.1802917178E-03    2.1688504779E-03    2.1574691760E-03
    2.1461474993E-03    2.1348851370E-03    2.1236817795E-03    2.1125371191E-03
    2.1014508495E-03    2.0904226661E-03    2.0794522659E-03    2.0685393473E-03
    2.0576836104E-03    2.0468847568E-03    2.0361424897E-03    2.0254565137E-03
    2.0148265351E-03    2.0042522616E-03    1.9937334025E-03    1.9832696685E-03
    1.9728607718E-03    1.9625064262E-03    1.9522063470E-03    1.9419602507E-03
    1.9317678557E-03    1.9216288814E-03    1.9115430489E-03    1.9015100809E-03
    1.8915297011E-03    1.8816016351E-03    1.8717256095E-03    1.8619013527E-03
    1.8521285942E-03    1.8424070651E-03    1.8327364977E-03    1.8231166260E-03
    1.8135471850E-03    1.8040279114E-03    1.7945585430E-03    1.7851388191E-03
    1.7757684804E-03    1.7664472688E-03    1.7571749277E-03    1.7479512017E-03
    1.7387758367E-03    1.7296485801E-03    1.7205691805E-03    1.7115373877E-03
    1.7025529529E-03    1.6936156286E-03    1.6847251687E-03    1.6758813281E-03
    1.6670838631E-03    1.6583325314E-03    1.6496270918E-03    1.6409673044E-03
    1.6323529305E-03    1.6237837328E-03    1.6152594749E-03    1.6067799220E-03
    1.5983448402E-03    1.5899539972E-03    1.5816071615E-03    1.5733041030E-03
    1.5650445929E-03    1.5568284032E-03    1.5486553076E-03    1.5405250807E-03
    1.5324374981E-03    1.5243923369E-03    1.5163893753E-03    1.5084283923E-03
    1.5005091686E-03    1.4926314856E-03    1.4847951260E-03    1.4769998737E-03
    1.4692455136E-03    1.4615318317E-03    1.4538586153E-03    1.4462256525E-03
    1.4386327329E-03    1.4310796469E-03    1.4235661860E-03    1.4160921429E-03
    1.4086573113E-03    1.4012614860E-03    1.3939044630E-03    1.3865860391E-03
    1.3793060123E-03    1.3720641816E-03    1.3648603472E-03    1.3576943101E-03
    1.3505658726E-03    1.3434748378E-03    1.3364210099E-03    1.3294041942E-03
    1.3224241969E-03    1.3154808253E-03    1.3085738875E-03    1.3017031930E-03
    1.2948685518E-03    1.2880697753E-03    1.2813066758E-03    1.2745790662E-03
    1.2678867610E-03    1.2612295751E-03    1.2546073247E-03    1.2480198269E-03
    1.2414668996E-03    1.2349483618E-03    1.2284640335E-03    1.2220137354E-03
    1.2155972893E-03    1.2092145180E-03    1.2028652451E-03    1.1965492951E-03
    1.1902664934E-03    1.1840166665E-03    1.1777996416E-03    1.1716152470E-03
    1.1654633115E-03    1.1593436653E-03    1.1532561392E-03    1.1472005649E-03
    1.1411767750E-03    1.1351846030E-03    1.1292238832E-03    1.1232944509E-03
    1.1173961421E-03    1.1115287938E-03    1.1056922436E-03    1.0998863304E-03
    1.0941108934E-03    1.0883657731E-03    1.0826508105E-03    1.0769658476E-03
    1.0713107273E-03    1.0656852930E-03    1.0600893893E-03    1.0545228614E-03
    1.0489855553E-03    1.0434773178E-03    1.0379979967E-03    1.0325474403E-03
    1.0271254978E-03    1.0217320194E-03    1.0163668558E-03    1.0110298586E-03
    1.0057208801E-03    1.0004397735E-03
   </PP_CHI.3>
 </PP_PSWFC>
 <PP_RHOATOM type="real"  size="1630" columns="4">
    0.0000000000E+00    1.2081703690E-05    4.8371821906E-05    1.0902185920E-04
    1.9433910106E-04    3.0486820150E-04    4.4150425206E-04    6.0563618956E-04
    7.9931908933E-04    1.0254735913E-03    1.2881104219E-03    1.5925777044E-03
    1.9458285026E-03    2.3567058097E-03    2.8362419902E-03    3.3979694960E-03
    4.0582395225E-03    4.8365451383E-03    5.7558453195E-03    6.8428862449E-03
    8.1285161648E-03    9.6479901400E-03    1.1441260964E-02    1.3553252629E-02
    1.6034112764E-02    1.8939440590E-02    2.2330487063E-02    2.6274324035E-02
    3.0843979461E-02    3.6118535882E-02    4.2183189656E-02    4.9129268679E-02
    5.7054206591E-02    6.6061471787E-02    7.6260449849E-02    8.7766278363E-02
    1.0069963338E-01    1.1518646720E-01    1.3135769741E-01    1.4934884759E-01
    1.6929964037E-01    1.9135354385E-01    2.1565727288E-01    2.4236024694E-01
    2.7161400672E-01    3.0357159174E-01    3.3838688198E-01    3.7621390632E-01
    4.1720612121E-01    4.6151566313E-01    5.0929257874E-01    5.6068403655E-01
    6.1583352446E-01    6.7488003754E-01    7.3795726046E-01    8.0519274928E-01
    8.7670711711E-01    9.5261322863E-01    1.0330154079E+00    1.1180086642E+00
    1.2076779412E+00    1.3020973928E+00    1.4013296913E+00    1.5054253716E+00
    1.6144222162E+00    1.7283446834E+00    1.8472033855E+00    1.9709946168E+00
    2.0996999377E+00    2.2332858161E+00    2.3717033299E+00    2.5148879318E+00
    2.6627592794E+00    2.8152211321E+00    2.9721613152E+00    3.1334517534E+00
    3.2989485737E+00    3.4684922778E+00    3.6419079833E+00    3.8190057349E+00
    3.9995808825E+00    4.1834145263E+00    4.3702740268E+00    4.5599135775E+00
    4.7520748384E+00    4.9464876273E+00    5.1428706659E+00    5.3409323775E+00
    5.5403717328E+00    5.7408791404E+00    5.9421373769E+00    6.1438225538E+00
    6.3456051153E+00    6.5471508645E+00    6.7481220104E+00    6.9481782343E+00
    7.1469777683E+00    7.3441784818E+00    7.5394389714E+00    7.7324196491E+00
    7.9227838236E+00    8.1101987709E+00    8.2943367882E+00    8.4748762274E+00
    8.6515025036E+00    8.8239090744E+00    8.9917983854E+00    9.1548827786E+00
    9.3128853595E+00    9.4655408203E+00    9.6125962148E+00    9.7538116828E+00
    9.8889611214E+00    1.0017832801E+01    1.0140229923E+01    1.0255971118E+01
    1.0364890883E+01    1.0466839960E+01    1.0561685644E+01    1.0649312036E+01
    1.0729620227E+01    1.0802528419E+01    1.0867971989E+01    1.0925903480E+01
    1.0976292539E+01    1.1019125792E+01    1.1054406661E+01    1.1082155120E+01
    1.1102407406E+01    1.1115215663E+01    1.1120647552E+01    1.1118785798E+01
    1.1109727701E+01    1.1093584605E+01    1.1070481326E+01    1.1040555540E+01
    1.1003957150E+01    1.0960847609E+01    1.0911399231E+01    1.0855794473E+01
    1.0794225196E+01    1.0726891915E+01    1.0654003037E+01    1.0575774089E+01
    1.0492426939E+01    1.0404189020E+01    1.0311292551E+01    1.0213973763E+01
    1.0112472137E+01    1.0007029645E+01    9.8978900118E+00    9.7852979861E+00
    9.6694986336E+00    9.5507366495E+00    9.4292556935E+00    9.3052977496E+00
    9.1791025118E+00    9.0509067988E+00    8.9209439968E+00    8.7894435339E+00
    8.6566303852E+00    8.5227246117E+00    8.3879409310E+00    8.2524883230E+00
    8.1165696684E+00    7.9803814226E+00    7.8441133227E+00    7.7079481296E+00
    7.5720614030E+00    7.4366213101E+00    7.3017884671E+00    7.1677158122E+00
    7.0345485102E+00    6.9024238871E+00    6.7714713941E+00    6.6418125993E+00
    6.5135612066E+00    6.3868230996E+00    6.2616964106E+00    6.1382716112E+00
    6.0166316255E+00    5.8968519626E+00    5.7790008675E+00    5.6631394886E+00
    5.5493220621E+00    5.4375961082E+00    5.3280026413E+00    5.2205763905E+00
    5.1153460300E+00    5.0123344166E+00    4.9115588354E+00    4.8130312493E+00
    4.7167585538E+00    4.6227428339E+00    4.5309816227E+00    4.4414681606E+00
    4.3541916543E+00    4.2691375332E+00    4.1862877048E+00    4.1056208049E+00
    4.0271124454E+00    3.9507354559E+00    3.8764601203E+00    3.8042544070E+00
    3.7340841925E+00    3.6659134777E+00    3.5997045967E+00    3.5354184177E+00
    3.4730145352E+00    3.4124514544E+00    3.3536867670E+00    3.2966773171E+00
    3.2413793600E+00    3.1877487108E+00    3.1357408849E+00    3.0853112295E+00
    3.0364150463E+00    2.9890077063E+00    2.9430447553E+00    2.8984820122E+00
    2.8552756587E+00    2.8133823216E+00    2.7727591475E+00    2.7333638703E+00
    2.6951548723E+00    2.6580912379E+00    2.6221328018E+00    2.5872401909E+00
    2.5533748602E+00    2.5204991242E+00    2.4885761824E+00    2.4575701411E+00
    2.4274460297E+00    2.3981698137E+00    2.3697084038E+00    2.3420296613E+00
    2.3151024006E+00    2.2888963883E+00    2.2633823402E+00    2.2385319158E+00
    2.2143177099E+00    2.1907132433E+00    2.1676929513E+00    2.1452321703E+00
    2.1233071238E+00    2.1018949069E+00    2.0809734695E+00    2.0605215992E+00
    2.0405189033E+00    2.0209457901E+00    2.0017834499E+00    1.9830138359E+00
    1.9646196438E+00    1.9465842932E+00    1.9288919066E+00    1.9115272904E+00
    1.8944759146E+00    1.8777238931E+00    1.8612579646E+00    1.8450654725E+00
    1.8291343462E+00    1.8134530822E+00    1.7980107249E+00    1.7827968485E+00
    1.7678015392E+00    1.7530153765E+00    1.7384294163E+00    1.7240351733E+00
    1.7098246041E+00    1.6957900905E+00    1.6819244230E+00    1.6682207847E+00
    1.6546727356E+00    1.6412741968E+00    1.6280194354E+00    1.6149030491E+00
    1.6019199518E+00    1.5890653589E+00    1.5763347726E+00    1.5637239684E+00
    1.5512289810E+00    1.5388460909E+00    1.5265718112E+00    1.5144028757E+00
    1.5023362266E+00    1.4903690036E+00    1.4784985323E+00    1.4667223144E+00
    1.4550380168E+00    1.4434434624E+00    1.4319366206E+00    1.4205155985E+00
    1.4091786323E+00    1.3979240788E+00    1.3867504081E+00    1.3756561958E+00
    1.3646401163E+00    1.3537009360E+00    1.3428375075E+00    1.3320487632E+00
    1.3213337102E+00    1.3106914245E+00    1.3001210463E+00    1.2896217753E+00
    1.2791928659E+00    1.2688336233E+00    1.2585433994E+00    1.2483215890E+00
    1.2381676264E+00    1.2280809820E+00    1.2180611592E+00    1.2081076915E+00
    1.1982201401E+00    1.1883980907E+00    1.1786411518E+00    1.1689489523E+00
    1.1593211392E+00    1.1497573759E+00    1.1402573408E+00    1.1308207251E+00
    1.1214472315E+00    1.1121365731E+00    1.1028884718E+00    1.0937026574E+00
    1.0845788664E+00    1.0755168411E+00    1.0665163287E+00    1.0575770806E+00
    1.0486988516E+00    1.0398813995E+00    1.0311244841E+00    1.0224278671E+00
    1.0137913116E+00    1.0052145817E+00    9.9669744190E-01    9.8823965726E-01
    9.7984099289E-01    9.7150121384E-01    9.6322008493E-01    9.5499737064E-01
    9.4683283498E-01    9.3872624151E-01    9.3067735320E-01    9.2268593247E-01
    9.1475174109E-01    9.0687454019E-01    8.9905409019E-01    8.9129015079E-01
    8.8358248093E-01    8.7593083879E-01    8.6833498176E-01    8.6079466641E-01
    8.5330964852E-01    8.4587968304E-01    8.3850452407E-01    8.3118392489E-01
    8.2391763794E-01    8.1670541485E-01    8.0954700637E-01    8.0244216248E-01
    7.9539063230E-01    7.8839216415E-01    7.8144650556E-01    7.7455340327E-01
    7.6771260324E-01    7.6092385067E-01    7.5418689003E-01    7.4750146505E-01
    7.4086731877E-01    7.3428419352E-01    7.2775183098E-01    7.2126997219E-01
    7.1483835754E-01    7.0845672685E-01    7.0212481934E-01    6.9584237369E-01
    6.8960912805E-01    6.8342482006E-01    6.7728918689E-01    6.7120196525E-01
    6.6516289145E-01    6.5917170136E-01    6.5322813051E-01    6.4733191408E-01
    6.4148278692E-01    6.3568048360E-01    6.2992473844E-01    6.2421528549E-01
    6.1855185864E-01    6.1293419155E-01    6.0736201777E-01    6.0183507071E-01
    5.9635308367E-01    5.9091578990E-01    5.8552292260E-01    5.8017421496E-01
    5.7486940016E-01    5.6960821146E-01    5.6439038214E-01    5.5921564561E-01
    5.5408373537E-01    5.4899438508E-01    5.4394732857E-01    5.3894229985E-01
    5.3397903317E-01    5.2905726300E-01    5.2417672411E-01    5.1933715155E-01
    5.1453828068E-01    5.0977984722E-01    5.0506158723E-01    5.0038323719E-01
    4.9574453397E-01    4.9114521488E-01    4.8658501768E-01    4.8206368061E-01
    4.7758094242E-01    4.7313654236E-01    4.6873022024E-01    4.6436171643E-01
    4.6003077185E-01    4.5573712807E-01    4.5148052724E-01    4.4726071217E-01
    4.4307742632E-01    4.3893041383E-01    4.3481941953E-01    4.3074418895E-01
    4.2670446838E-01    4.2270000483E-01    4.1873054607E-01    4.1479584066E-01
    4.1089563796E-01    4.0702968813E-01    4.0319774214E-01    3.9939955183E-01
    3.9563486987E-01    3.9190344981E-01    3.8820504608E-01    3.8453941401E-01
    3.8090630981E-01    3.7730549066E-01    3.7373671462E-01    3.7019974075E-01
    3.6669432903E-01    3.6322024043E-01    3.5977723687E-01    3.5636508131E-01
    3.5298353766E-01    3.4963237090E-01    3.4631134697E-01    3.4302023289E-01
    3.3975879671E-01    3.3652680752E-01    3.3332403548E-01    3.3015025181E-01
    3.2700522882E-01    3.2388873990E-01    3.2080055952E-01    3.1774046326E-01
    3.1470822782E-01    3.1170363100E-01    3.0872645171E-01    3.0577647002E-01
    3.0285346711E-01    2.9995722530E-01    2.9708752806E-01    2.9424416001E-01
    2.9142690694E-01    2.8863555578E-01    2.8586989463E-01    2.8312971276E-01
    2.8041480064E-01    2.7772494988E-01    2.7505995329E-01    2.7241960487E-01
    2.6980369981E-01    2.6721203448E-01    2.6464440645E-01    2.6210061450E-01
    2.5958045860E-01    2.5708373992E-01    2.5461026083E-01    2.5215982493E-01
    2.4973223701E-01    2.4732730308E-01    2.4494483034E-01    2.4258462723E-01
    2.4024650340E-01    2.3793026968E-01    2.3563573817E-01    2.3336272214E-01
    2.3111103609E-01    2.2888049574E-01    2.2667091802E-01    2.2448212108E-01
    2.2231392429E-01    2.2016614821E-01    2.1803861463E-01    2.1593114657E-01
    2.1384356822E-01    2.1177570501E-01    2.0972738357E-01    2.0769843174E-01
    2.0568867857E-01    2.0369795429E-01    2.0172609037E-01    1.9977291944E-01
    1.9783827535E-01    1.9592199314E-01    1.9402390905E-01    1.9214386050E-01
    1.9028168609E-01    1.8843722563E-01    1.8661032008E-01    1.8480081162E-01
    1.8300854355E-01    1.8123336039E-01    1.7947510780E-01    1.7773363262E-01
    1.7600878285E-01    1.7430040763E-01    1.7260835729E-01    1.7093248327E-01
    1.6927263818E-01    1.6762867577E-01    1.6600045092E-01    1.6438781964E-01
    1.6279063909E-01    1.6120876753E-01    1.5964206436E-01    1.5809039008E-01
    1.5655360631E-01    1.5503157578E-01    1.5352416231E-01    1.5203123082E-01
    1.5055264732E-01    1.4908827893E-01    1.4763799381E-01    1.4620166124E-01
    1.4477915153E-01    1.4337033609E-01    1.4197508737E-01    1.4059327888E-01
    1.3922478520E-01    1.3786948192E-01    1.3652724570E-01    1.3519795420E-01
    1.3388148615E-01    1.3257772127E-01    1.3128654032E-01    1.3000782504E-01
    1.2874145821E-01    1.2748732358E-01    1.2624530593E-01    1.2501529098E-01
    1.2379716548E-01    1.2259081713E-01    1.2139613459E-01    1.2021300752E-01
    1.1904132652E-01    1.1788098312E-01    1.1673186984E-01    1.1559388011E-01
    1.1446690830E-01    1.1335084972E-01    1.1224560059E-01    1.1115105806E-01
    1.1006712017E-01    1.0899368589E-01    1.0793065506E-01    1.0687792844E-01
    1.0583540766E-01    1.0480299523E-01    1.0378059454E-01    1.0276810985E-01
    1.0176544627E-01    1.0077250978E-01    9.9789207199E-02    9.8815446197E-02
    9.7851135275E-02    9.6896183770E-02    9.5950501842E-02    9.5014000471E-02
    9.4086591449E-02    9.3168187377E-02    9.2258701656E-02    9.1358048482E-02
    9.0466142839E-02    8.9582900497E-02    8.8708237999E-02    8.7842072662E-02
    8.6984322566E-02    8.6134906552E-02    8.5293744213E-02    8.4460755888E-02
    8.3635862661E-02    8.2818986346E-02    8.2010049492E-02    8.1208975367E-02
    8.0415687961E-02    7.9630111973E-02    7.8852172809E-02    7.8081796577E-02
    7.7318910078E-02    7.6563440802E-02    7.5815316924E-02    7.5074467295E-02
    7.4340821438E-02    7.3614309545E-02    7.2894862466E-02    7.2182411707E-02
    7.1476889424E-02    7.0778228417E-02    7.0086362126E-02    6.9401224622E-02
    6.8722750605E-02    6.8050875398E-02    6.7385534940E-02    6.6726665782E-02
    6.6074205082E-02    6.5428090599E-02    6.4788260687E-02    6.4154654290E-02
    6.3527210941E-02    6.2905870750E-02    6.2290574402E-02    6.1681263154E-02
    6.1077878826E-02    6.0480363801E-02    5.9888661012E-02    5.9302713947E-02
    5.8722466636E-02    5.8147863650E-02    5.7578850095E-02    5.7015371607E-02
    5.6457374349E-02    5.5904805002E-02    5.5357610766E-02    5.4815739351E-02
    5.4279138972E-02    5.3747758349E-02    5.3221546698E-02    5.2700453726E-02
    5.2184429631E-02    5.1673425093E-02    5.1167391272E-02    5.0666279802E-02
    5.0170042787E-02    4.9678632797E-02    4.9192002866E-02    4.8710106482E-02
    4.8232897587E-02    4.7760330572E-02    4.7292360273E-02    4.6828941965E-02
    4.6370031359E-02    4.5915584600E-02    4.5465558258E-02    4.5019909329E-02
    4.4578595229E-02    4.4141573788E-02    4.3708803249E-02    4.3280242262E-02
    4.2855849882E-02    4.2435585565E-02    4.2019409160E-02    4.1607280912E-02
    4.1199161453E-02    4.0795011800E-02    4.0394793352E-02    3.9998467884E-02
    3.9605997548E-02    3.9217344862E-02    3.8832472716E-02    3.8451344358E-02
    3.8073923400E-02    3.7700173807E-02    3.7330059898E-02    3.6963546342E-02
    3.6600598153E-02    3.6241180687E-02    3.5885259641E-02    3.5532801046E-02
    3.5183771267E-02    3.4838136998E-02    3.4495865257E-02    3.4156923389E-02
    3.3821279056E-02    3.3488900237E-02    3.3159755224E-02    3.2833812622E-02
    3.2511041340E-02    3.2191410593E-02    3.1874889899E-02    3.1561449071E-02
    3.1251058220E-02    3.0943687748E-02    3.0639308350E-02    3.0337891002E-02
    3.0039406970E-02    2.9743827797E-02    2.9451125306E-02    2.9161271597E-02
    2.8874239040E-02    2.8590000277E-02    2.8308528218E-02    2.8029796037E-02
    2.7753777171E-02    2.7480445315E-02    2.7209774424E-02    2.6941738705E-02
    2.6676312618E-02    2.6413470872E-02    2.6153188425E-02    2.5895440478E-02
    2.5640202474E-02    2.5387450096E-02    2.5137159266E-02    2.4889306138E-02
    2.4643867102E-02    2.4400818776E-02    2.4160138008E-02    2.3921801869E-02
    2.3685787658E-02    2.3452072891E-02    2.3220635307E-02    2.2991452858E-02
    2.2764503714E-02    2.2539766257E-02    2.2317219079E-02    2.2096840981E-02
    2.1878610971E-02    2.1662508260E-02    2.1448512262E-02    2.1236602592E-02
    2.1026759062E-02    2.0818961682E-02    2.0613190657E-02    2.0409426380E-02
    2.0207649441E-02    2.0007840614E-02    1.9809980862E-02    1.9614051331E-02
    1.9420033354E-02    1.9227908441E-02    1.9037658284E-02    1.8849264752E-02
    1.8662709890E-02    1.8477975918E-02    1.8295045228E-02    1.8113900383E-02
    1.7934524113E-02    1.7756899320E-02    1.7581009067E-02    1.7406836584E-02
    1.7234365263E-02    1.7063578656E-02    1.6894460476E-02    1.6726994592E-02
    1.6561165030E-02    1.6396955971E-02    1.6234351748E-02    1.6073336847E-02
    1.5913895902E-02    1.5756013698E-02    1.5599675167E-02    1.5444865383E-02
    1.5291569570E-02    1.5139773091E-02    1.4989461450E-02    1.4840620294E-02
    1.4693235407E-02    1.4547292709E-02    1.4402778258E-02    1.4259678246E-02
    1.4117978998E-02    1.3977666971E-02    1.3838728753E-02    1.3701151061E-02
    1.3564920740E-02    1.3430024762E-02    1.3296450225E-02    1.3164184351E-02
    1.3033214486E-02    1.2903528096E-02    1.2775112769E-02    1.2647956213E-02
    1.2522046255E-02    1.2397370836E-02    1.2273918016E-02    1.2151675969E-02
    1.2030632984E-02    1.1910777461E-02    1.1792097913E-02    1.1674582962E-02
    1.1558221340E-02    1.1443001890E-02    1.1328913557E-02    1.1215945397E-02
    1.1104086570E-02    1.0993326338E-02    1.0883654070E-02    1.0775059234E-02
    1.0667531400E-02    1.0561060240E-02    1.0455635522E-02    1.0351247116E-02
    1.0247884986E-02    1.0145539194E-02    1.0044199898E-02    9.9438573494E-03
    9.8445018932E-03    9.7461239677E-03    9.6487141027E-03    9.5522629190E-03
    9.4567611272E-03    9.3621995274E-03    9.2685690078E-03    9.1758605439E-03
    9.0840651980E-03    8.9931741180E-03    8.9031785369E-03    8.8140697717E-03
    8.7258392227E-03    8.6384783726E-03    8.5519787859E-03    8.4663321080E-03
    8.3815300643E-03    8.2975644598E-03    8.2144271778E-03    8.1321101797E-03
    8.0506055037E-03    7.9699052645E-03    7.8900016524E-03    7.8108869326E-03
    7.7325534444E-03    7.6549936006E-03    7.5781998866E-03    7.5021648599E-03
    7.4268811495E-03    7.3523414550E-03    7.2785385457E-03    7.2054652607E-03
    7.1331145073E-03    7.0614792611E-03    6.9905525649E-03    6.9203275281E-03
    6.8507973265E-03    6.7819552009E-03    6.7137944572E-03    6.6463084652E-03
    6.5794906587E-03    6.5133345340E-03    6.4478336499E-03    6.3829816271E-03
    6.3187721474E-03    6.2551989529E-03    6.1922558462E-03    6.1299366890E-03
    6.0682354019E-03    6.0071459638E-03    5.9466624114E-03    5.8867788387E-03
    5.8274893960E-03    5.7687882901E-03    5.7106697831E-03    5.6531281923E-03
    5.5961578895E-03    5.5397533004E-03    5.4839089042E-03    5.4286192333E-03
    5.3738788721E-03    5.3196824576E-03    5.2660246777E-03    5.2129002715E-03
    5.1603040288E-03    5.1082307892E-03    5.0566754419E-03    5.0056329250E-03
    4.9550982256E-03    4.9050663786E-03    4.8555324667E-03    4.8064916199E-03
    4.7579390149E-03    4.7098698747E-03    4.6622794683E-03    4.6151631102E-03
    4.5685161598E-03    4.5223340211E-03    4.4766121425E-03    4.4313460159E-03
    4.3865311766E-03    4.3421632030E-03    4.2982377159E-03    4.2547503782E-03
    4.2116968946E-03    4.1690730110E-03    4.1268745144E-03    4.0850972322E-03
    4.0437370321E-03    4.0027898214E-03    3.9622515471E-03    3.9221181949E-03
    3.8823857892E-03    3.8430503931E-03    3.8041081070E-03    3.7655550694E-03
    3.7273874557E-03    3.6896014783E-03    3.6521933860E-03    3.6151594639E-03
    3.5784960329E-03    3.5421994493E-03    3.5062661045E-03    3.4706924249E-03
    3.4354748712E-03    3.4006099384E-03    3.3660941552E-03    3.3319240839E-03
    3.2980963198E-03    3.2646074915E-03    3.2314542597E-03    3.1986333177E-03
    3.1661413904E-03    3.1339752347E-03    3.1021316387E-03    3.0706074214E-03
    3.0393994329E-03    3.0085045534E-03    2.9779196935E-03    2.9476417936E-03
    2.9176678237E-03    2.8879947832E-03    2.8586197004E-03    2.8295396326E-03
    2.8007516653E-03    2.7722529124E-03    2.7440405158E-03    2.7161116450E-03
    2.6884634970E-03    2.6610932958E-03    2.6339982925E-03    2.6071757648E-03
    2.5806230167E-03    2.5543373785E-03    2.5283162064E-03    2.5025568820E-03
    2.4770568127E-03    2.4518134307E-03    2.4268241935E-03    2.4020865829E-03
    2.3775981054E-03    2.3533562918E-03    2.3293586967E-03    2.3056028984E-03
    2.2820864992E-03    2.2588071241E-03    2.2357624216E-03    2.2129500631E-03
    2.1903677423E-03    2.1680131758E-03    2.1458841020E-03    2.1239782817E-03
    2.1022934972E-03    2.0808275526E-03    2.0595782732E-03    2.0385435058E-03
    2.0177211178E-03    1.9971089977E-03    1.9767050544E-03    1.9565072173E-03
    1.9365134360E-03    1.9167216800E-03    1.8971299388E-03    1.8777362212E-03
    1.8585385559E-03    1.8395349904E-03    1.8207235916E-03    1.8021024450E-03
    1.7836696552E-03    1.7654233449E-03    1.7473616554E-03    1.7294827461E-03
    1.7117847945E-03    1.6942659957E-03    1.6769245628E-03    1.6597587260E-03
    1.6427667332E-03    1.6259468491E-03    1.6092973557E-03    1.5928165517E-03
    1.5765027524E-03    1.5603542897E-03    1.5443695119E-03    1.5285467833E-03
    1.5128844845E-03    1.4973810117E-03    1.4820347771E-03    1.4668442084E-03
    1.4518077485E-03    1.4369238560E-03    1.4221910043E-03    1.4076076819E-03
    1.3931723923E-03    1.3788836534E-03    1.3647399979E-03    1.3507399729E-03
    1.3368821398E-03    1.3231650739E-03    1.3095873649E-03    1.2961476160E-03
    1.2828444445E-03    1.2696764811E-03    1.2566423700E-03    1.2437407688E-03
    1.2309703483E-03    1.2183297924E-03    1.2058177979E-03    1.1934330746E-03
    1.1811743449E-03    1.1690403439E-03    1.1570298190E-03    1.1451415301E-03
    1.1333742494E-03    1.1217267609E-03    1.1101978611E-03    1.0987863580E-03
    1.0874910714E-03    1.0763108329E-03    1.0652444856E-03    1.0542908841E-03
    1.0434488942E-03    1.0327173928E-03    1.0220952683E-03    1.0115814198E-03
    1.0011747572E-03    9.9087420160E-04    9.8067868434E-04    9.7058714758E-04
    9.6059854390E-04    9.5071183626E-04    9.4092599788E-04    9.3124001216E-04
    9.2165287259E-04    9.1216358262E-04    9.0277115560E-04    8.9347461464E-04
    8.8427299257E-04    8.7516533179E-04    8.6615068422E-04    8.5722811119E-04
    8.4839668334E-04    8.3965548055E-04    8.3100359183E-04    8.2244011525E-04
    8.1396415783E-04    8.0557483548E-04    7.9727127290E-04    7.8905260346E-04
    7.8091796920E-04    7.7286652065E-04    7.6489741683E-04    7.5700982509E-04
    7.4920292110E-04    7.4147588873E-04    7.3382791996E-04    7.2625821484E-04
    7.1876598137E-04    7.1135043545E-04    7.0401080081E-04    6.9674630889E-04
    6.8955619881E-04    6.8243971727E-04    6.7539611850E-04    6.6842466415E-04
    6.6152462324E-04    6.5469527211E-04    6.4793589428E-04    6.4124578047E-04
    6.3462422844E-04    6.2807054301E-04    6.2158403592E-04    6.1516402577E-04
    6.0880983801E-04    6.0252080481E-04    5.9629626501E-04    5.9013556408E-04
    5.8403805403E-04    5.7800309336E-04    5.7203004697E-04    5.6611828613E-04
    5.6026718840E-04    5.5447613759E-04    5.4874452365E-04    5.4307174266E-04
    5.3745719675E-04    5.3190029403E-04    5.2640044856E-04    5.2095708025E-04
    5.1556961485E-04    5.1023748385E-04    5.0496012445E-04    4.9973697950E-04
    4.9456749743E-04    4.8945113221E-04    4.8438734330E-04    4.7937559558E-04
    4.7441535929E-04    4.6950611001E-04    4.6464732858E-04    4.5983850105E-04
    4.5507911866E-04    4.5036867772E-04    4.4570667964E-04    4.4109263083E-04
    4.3652604266E-04    4.3200643143E-04    4.2753331828E-04    4.2310622920E-04
    4.1872469492E-04    4.1438825092E-04    4.1009643733E-04    4.0584879893E-04
    4.0164488508E-04    3.9748424967E-04    3.9336645110E-04    3.8929105221E-04
    3.8525762025E-04    3.8126572683E-04    3.7731494786E-04    3.7340486357E-04
    3.6953505838E-04    3.6570512093E-04    3.6191464400E-04    3.5816322447E-04
    3.5445046331E-04    3.5077596549E-04    3.4713933999E-04    3.4354019973E-04
    3.3997816155E-04    3.3645284614E-04    3.3296387803E-04    3.2951088556E-04
    3.2609350080E-04    3.2271135955E-04    3.1936410131E-04    3.1605136919E-04
    3.1277280994E-04    3.0952807386E-04    3.0631681480E-04    3.0313869012E-04
    2.9999336062E-04    2.9688049056E-04    2.9379974759E-04    2.9075080272E-04
    2.8773333030E-04    2.8474700797E-04    2.8179151663E-04    2.7886654043E-04
    2.7597176670E-04    2.7310688597E-04    2.7027159187E-04    2.6746558116E-04
    2.6468855365E-04    2.6194021224E-04    2.5922026278E-04    2.5652841417E-04
    2.5386437820E-04    2.5122786964E-04    2.4861860611E-04    2.4603630813E-04
    2.4348069904E-04    2.4095150498E-04    2.3844845490E-04    2.3597128047E-04
    2.3351971610E-04    2.3109349892E-04    2.2869236868E-04    2.2631606783E-04
    2.2396434140E-04    2.2163693702E-04    2.1933360490E-04    2.1705409777E-04
    2.1479817088E-04    2.1256558199E-04    2.1035609129E-04    2.0816946144E-04
    2.0600545750E-04    2.0386384691E-04    2.0174439950E-04    1.9964688744E-04
    1.9757108520E-04    1.9551676957E-04    1.9348371959E-04    1.9147171658E-04
    1.8948054405E-04    1.8750998775E-04    1.8555983559E-04    1.8362987766E-04
    1.8171990618E-04    1.7982971548E-04    1.7795910201E-04    1.7610786426E-04
    1.7427580281E-04    1.7246272026E-04    1.7066842121E-04    1.6889271228E-04
    1.6713540205E-04    1.6539630104E-04    1.6367522174E-04    1.6197197851E-04
    1.6028638763E-04    1.5861826726E-04    1.5696743741E-04    1.5533371991E-04
    1.5371693845E-04    1.5211691849E-04    1.5053348727E-04    1.4896647382E-04
    1.4741570890E-04    1.4588102500E-04    1.4436225633E-04    1.4285923879E-04
    1.4137180996E-04    1.3989980908E-04    1.3844307703E-04    1.3700145632E-04
    1.3557479108E-04    1.3416292702E-04    1.3276571143E-04    1.3138299318E-04
    1.3001462268E-04    1.2866045185E-04    1.2732033415E-04    1.2599412453E-04
    1.2468167943E-04    1.2338285676E-04    1.2209751588E-04    1.2082551759E-04
    1.1956672413E-04    1.1832099913E-04    1.1708820763E-04    1.1586821606E-04
    1.1466089221E-04    1.1346610521E-04    1.1228372556E-04    1.1111362508E-04
    1.0995567689E-04    1.0880975542E-04    1.0767573639E-04    1.0655349679E-04
    1.0544291489E-04    1.0434387017E-04    1.0325624339E-04    1.0217991651E-04
    1.0111477269E-04    1.0006069633E-04    9.9017572969E-05    9.7985289355E-05
    9.6963733384E-05    9.5952794107E-05    9.4952361712E-05    9.3962327518E-05
    9.2982583959E-05    9.2013024573E-05    9.1053543993E-05    9.0104037933E-05
    8.9164403181E-05    8.8234537584E-05    8.7314340040E-05    8.6403710485E-05
    8.5502549886E-05    8.4610760224E-05    8.3728244493E-05    8.2854906679E-05
    8.1990651761E-05    8.1135385692E-05    8.0289015393E-05    7.9451448743E-05
    7.8622594568E-05    7.7802362633E-05    7.6990663630E-05    7.6187409173E-05
    7.5392511782E-05    7.4605884881E-05    7.3827442784E-05    7.3057100686E-05
    7.2294774656E-05    7.1540381627E-05    7.0793839389E-05    7.0055066576E-05
    6.9323982663E-05    6.8600507952E-05    6.7884563568E-05    6.7176071448E-05
    6.6474954332E-05    6.5781135758E-05    6.5094540052E-05    6.4415092318E-05
    6.3742718434E-05    6.3077345042E-05    6.2418899539E-05    6.1767310073E-05
    6.1122505529E-05    6.0484415529E-05    5.9852970419E-05    5.9228101265E-05
    5.8609739841E-05    5.7997818628E-05    5.7392270803E-05    5.6793030231E-05
    5.6200031461E-05    5.5613209716E-05    5.5032500888E-05    5.4457841531E-05
    5.3889168856E-05    5.3326420717E-05    5.2769535615E-05    5.2218452683E-05
    5.1673111682E-05    5.1133452998E-05    5.0599417629E-05    5.0070947185E-05
    4.9547983878E-05    4.9030470519E-05    4.8518350506E-05    4.8011567824E-05
    4.7510067039E-05    4.7013793284E-05    4.6522692265E-05    4.6036710246E-05
    4.5555794046E-05    4.5079891036E-05    4.4608949130E-05    4.4142916778E-05
    4.3681742968E-05    4.3225377210E-05    4.2773769540E-05    4.2326870509E-05
    4.1884631181E-05    4.1447003124E-05    4.1013938407E-05    4.0585389597E-05
    4.0161309751E-05    3.9741652409E-05    3.9326371595E-05    3.8915421807E-05
    3.8508758016E-05    3.8106335655E-05    3.7708110622E-05    3.7314039271E-05
    3.6924078405E-05    3.6538185277E-05    3.6156317581E-05    3.5778433450E-05
    3.5404491451E-05    3.5034450578E-05    3.4668270251E-05    3.4305910310E-05
    3.3947331011E-05    3.3592493022E-05    3.3241357418E-05    3.2893885676E-05
    3.2550039675E-05    3.2209781687E-05    3.1873074374E-05    3.1539880788E-05
    3.1210164360E-05    3.0883888904E-05    3.0561018605E-05    3.0241518022E-05
    2.9925352080E-05    2.9612486069E-05    2.9302885638E-05    2.8996516791E-05
    2.8693345887E-05    2.8393339631E-05    2.8096465075E-05    2.7802689613E-05
    2.7511980975E-05    2.7224307228E-05    2.6939636769E-05    2.6657938323E-05
    2.6379180940E-05    2.6103333990E-05    2.5830367161E-05    2.5560250457E-05
    2.5292954191E-05    2.5028448985E-05    2.4766705767E-05    2.4507695765E-05
    2.4251390506E-05    2.3997761813E-05    2.3746781801E-05    2.3498422874E-05
    2.3252657724E-05    2.3009459326E-05    2.2768800934E-05    2.2530656081E-05
    2.2294998576E-05    2.2061802496E-05    2.1831042193E-05    2.1602692279E-05
    2.1376727635E-05    2.1153123399E-05    2.0931854970E-05    2.0712898001E-05
    2.0496228399E-05    2.0281822320E-05    2.0069656167E-05    1.9859706592E-05
    1.9651950485E-05    1.9446364979E-05    1.9242927444E-05    1.9041615484E-05
    1.8842406938E-05    1.8645279873E-05    1.8450212585E-05    1.8257183595E-05
    1.8066171649E-05    1.7877155711E-05    1.7690114967E-05    1.7505028817E-05
    1.7321876876E-05    1.7140638970E-05    1.6961295137E-05    1.6783825621E-05
    1.6608210870E-05    1.6434431538E-05    1.6262468479E-05    1.6092302746E-05
    1.5923915589E-05    1.5757288454E-05    1.5592402978E-05    1.5429240992E-05
    1.5267784513E-05    1.5108015747E-05    1.4949917083E-05    1.4793471096E-05
    1.4638660541E-05    1.4485468352E-05    1.4333877640E-05    1.4183871695E-05
    1.4035433976E-05    1.3888548118E-05    1.3743197926E-05    1.3599367370E-05
    1.3457040592E-05    1.3316201895E-05    1.3176835747E-05    1.3038926778E-05
    1.2902459778E-05    1.2767419693E-05    1.2633791630E-05    1.2501560846E-05
    1.2370712757E-05    1.2241232926E-05    1.2113107069E-05    1.1986321051E-05
    1.1860860881E-05    1.1736712718E-05    1.1613862863E-05    1.1492297758E-05
    1.1372003990E-05    1.1252968283E-05    1.1135177499E-05    1.1018618640E-05
    1.0903278839E-05    1.0789145367E-05    1.0676205625E-05    1.0564447146E-05
    1.0453857593E-05    1.0344424759E-05    1.0236136561E-05    1.0128981044E-05
    1.0022946377E-05    9.9180208541E-06    9.8141928884E-06    9.7114510155E-06
    9.6097838900E-06    9.5091802849E-06    9.4096290903E-06    9.3111193120E-06
    9.2136400703E-06    9.1171805990E-06    9.0217302442E-06    8.9272784629E-06
    8.8338148222E-06    8.7413289976E-06    8.6498107725E-06    8.5592500371E-06
    8.4696367864E-06    8.3809611203E-06    8.2932132415E-06    8.2063834551E-06
    8.1204621672E-06    8.0354398840E-06    7.9513072105E-06    7.8680548500E-06
    7.7856736025E-06    7.7041543641E-06    7.6234881259E-06    7.5436659729E-06
    7.4646790829E-06    7.3865187261E-06    7.3091762633E-06    7.2326431458E-06
    7.1569109140E-06    7.0819711963E-06    7.0078157089E-06    6.9344362541E-06
    6.8618247197E-06    6.7899730784E-06    6.7188733863E-06    6.6485177828E-06
    6.5788984889E-06    6.5100078070E-06    6.4418381199E-06    6.3743818898E-06
    6.3076316575E-06    6.2415800417E-06    6.1762197383E-06    6.1115435191E-06
    6.0475442315E-06    5.9842147977E-06    5.9215482134E-06    5.8595375479E-06
    5.7981759425E-06    5.7374566103E-06    5.6773728350E-06    5.6179179707E-06
    5.5590854407E-06    5.5008687369E-06    5.4432614194E-06    5.3862571152E-06
    5.3298495181E-06    5.2740323877E-06    5.2187995487E-06    5.1641448903E-06
    5.1100623655E-06    5.0565459905E-06    5.0035898440E-06    4.9511880663E-06
    4.8993348591E-06    4.8480244846E-06    4.7972512651E-06    4.7470095819E-06
    4.6972938753E-06    4.6480986432E-06    4.5994184416E-06    4.5512478828E-06
    4.5035816356E-06    4.4564144245E-06    4.4097410291E-06    4.3635562835E-06
    4.3178550759E-06    4.2726323476E-06    4.2278830931E-06    4.1836023590E-06
    4.1397852436E-06    4.0964268966E-06    4.0535225181E-06    4.0110673586E-06
    3.9690567180E-06    3.9274859457E-06    3.8863504393E-06    3.8456456446E-06
    3.8053670550E-06    3.7655102111E-06    3.7260707000E-06    3.6870441548E-06
    3.6484262544E-06    3.6102127228E-06    3.5723993288E-06    3.5349818852E-06
    3.4979562487E-06    3.4613183194E-06    3.4250640400E-06    3.3891893959E-06
    3.3536904141E-06    3.3185631633E-06    3.2838037535E-06    3.2494083351E-06
    3.2153730988E-06    3.1816942751E-06    3.1483681341E-06    3.1153909846E-06
    3.0827591742E-06    3.0504690885E-06    3.0185171511E-06    2.9868998227E-06
    2.9556136013E-06    2.9246550214E-06    2.8940206536E-06    2.8637071047E-06
    2.8337110166E-06    2.8040290666E-06    2.7746579664E-06    2.7455944624E-06
    2.7168353349E-06    2.6883773979E-06    2.6602174986E-06    2.6323525174E-06
    2.6047793671E-06    2.5774949929E-06    2.5504963719E-06    2.5237805128E-06
    2.4973444557E-06    2.4711852714E-06    2.4453000615E-06    2.4196859580E-06
    2.3943401228E-06    2.3692597475E-06    2.3444420530E-06    2.3198842893E-06
    2.2955837353E-06    2.2715376982E-06    2.2477435134E-06    2.2241985441E-06
    2.2009001812E-06    2.1778458430E-06    2.1550329745E-06    2.1324590476E-06
    2.1101215608E-06    2.0880180384E-06    2.0661460309E-06    2.0445031144E-06
    2.0230868901E-06    2.0018949846E-06
 </PP_RHOATOM>
</UPF>

END_PSP
