Begin PSP_UPF
<UPF version="2.0.1">
  <PP_INFO>

 This pseudopotential file has been produced using the code
 ONCVPSP  (Optimized Norm-Conservinng Vanderbilt PSeudopotential)
 scalar-relativistic version 4.0.1 06/04/2019 by D. R. Hamann
 The code is available through a link at URL www.mat-simresearch.com.
 Documentation with the package provides a full discription of the
 input data below.


 While it is not required under the terms of the GNU GPL, it is
 suggested that you cite D. R. Hamann, Phys. Rev. B 88, 085117 (2013)
 in any publication using these pseudopotentials.

    <PP_INPUTFILE>
# ATOM AND REFERENCE CONFIGURATION
# atsym  z   nc   nv     iexc    psfile
  Xe 54.00    8    3 -116133      upf
#
#   n    l    f        energy (Ha)
    1    0    2.00
    2    0    2.00
    2    1    6.00
    3    0    2.00
    3    1    6.00
    3    2   10.00
    4    0    2.00
    4    1    6.00
    4    2   10.00
    5    0    2.00
    5    1    6.00
#
# PSEUDOPOTENTIAL AND OPTIMIZATION
# lmax
    2
#
#   l,   rc,      ep,       ncon, nbas, qcut
    0   3.01052  -0.72551    5    8   4.78447
    1   3.01052  -0.30261    5    8   5.38876
    2   2.70406  -2.18230    5    8   6.88792
#
# LOCAL POTENTIAL
# lloc, lpopt,  rc(5),   dvloc0
    4    5   2.31564      0.00000
#
# VANDERBILT-KLEINMAN-BYLANDER PROJECTORs
# l, nproj, debl
    0    2   1.39003
    1    2   0.92996
    2    2   2.33954
#
# MODEL CORE CHARGE
# icmod, fcfact, rcfact
    0   0.00000   0.00000
#
# LOG DERIVATIVE ANALYSIS
# epsh1, epsh2, depsh
   -5.00    3.00    0.02
#
# OUTPUT GRID
# rlmax, drl
    6.00    0.01
#
# TEST CONFIGURATIONS
# ncnf
    0
# nvcnf
#   n    l    f
    </PP_INPUTFILE>
  </PP_INFO>
  <!--                               -->
  <!-- END OF HUMAN READABLE SECTION -->
  <!--                               -->
    <PP_HEADER
       generated="Generated using ONCVPSP code by D. R. Hamann"
       author="anonymous"
       date="251029"
       comment=""
       element="Xe"
       pseudo_type="NC"
       relativistic="scalar"
       is_ultrasoft="F"
       is_paw="F"
       is_coulomb="F"
       has_so="F"
       has_wfc="F"
       has_gipaw="F"
       core_correction="F"
       functional="PBESOL"
       z_valence="   18.00"
       total_psenergy="  -2.31745354040E+02"
       rho_cutoff="   1.09900000000E+01"
       l_max="2"
       l_local="-1"
       mesh_size="  1100"
       number_of_wfc="3"
       number_of_proj="6"/>
 <PP_MESH>
   <PP_R type="real"  size="1100" columns="8">
    0.0000    0.0100    0.0200    0.0300    0.0400    0.0500    0.0600    0.0700
    0.0800    0.0900    0.1000    0.1100    0.1200    0.1300    0.1400    0.1500
    0.1600    0.1700    0.1800    0.1900    0.2000    0.2100    0.2200    0.2300
    0.2400    0.2500    0.2600    0.2700    0.2800    0.2900    0.3000    0.3100
    0.3200    0.3300    0.3400    0.3500    0.3600    0.3700    0.3800    0.3900
    0.4000    0.4100    0.4200    0.4300    0.4400    0.4500    0.4600    0.4700
    0.4800    0.4900    0.5000    0.5100    0.5200    0.5300    0.5400    0.5500
    0.5600    0.5700    0.5800    0.5900    0.6000    0.6100    0.6200    0.6300
    0.6400    0.6500    0.6600    0.6700    0.6800    0.6900    0.7000    0.7100
    0.7200    0.7300    0.7400    0.7500    0.7600    0.7700    0.7800    0.7900
    0.8000    0.8100    0.8200    0.8300    0.8400    0.8500    0.8600    0.8700
    0.8800    0.8900    0.9000    0.9100    0.9200    0.9300    0.9400    0.9500
    0.9600    0.9700    0.9800    0.9900    1.0000    1.0100    1.0200    1.0300
    1.0400    1.0500    1.0600    1.0700    1.0800    1.0900    1.1000    1.1100
    1.1200    1.1300    1.1400    1.1500    1.1600    1.1700    1.1800    1.1900
    1.2000    1.2100    1.2200    1.2300    1.2400    1.2500    1.2600    1.2700
    1.2800    1.2900    1.3000    1.3100    1.3200    1.3300    1.3400    1.3500
    1.3600    1.3700    1.3800    1.3900    1.4000    1.4100    1.4200    1.4300
    1.4400    1.4500    1.4600    1.4700    1.4800    1.4900    1.5000    1.5100
    1.5200    1.5300    1.5400    1.5500    1.5600    1.5700    1.5800    1.5900
    1.6000    1.6100    1.6200    1.6300    1.6400    1.6500    1.6600    1.6700
    1.6800    1.6900    1.7000    1.7100    1.7200    1.7300    1.7400    1.7500
    1.7600    1.7700    1.7800    1.7900    1.8000    1.8100    1.8200    1.8300
    1.8400    1.8500    1.8600    1.8700    1.8800    1.8900    1.9000    1.9100
    1.9200    1.9300    1.9400    1.9500    1.9600    1.9700    1.9800    1.9900
    2.0000    2.0100    2.0200    2.0300    2.0400    2.0500    2.0600    2.0700
    2.0800    2.0900    2.1000    2.1100    2.1200    2.1300    2.1400    2.1500
    2.1600    2.1700    2.1800    2.1900    2.2000    2.2100    2.2200    2.2300
    2.2400    2.2500    2.2600    2.2700    2.2800    2.2900    2.3000    2.3100
    2.3200    2.3300    2.3400    2.3500    2.3600    2.3700    2.3800    2.3900
    2.4000    2.4100    2.4200    2.4300    2.4400    2.4500    2.4600    2.4700
    2.4800    2.4900    2.5000    2.5100    2.5200    2.5300    2.5400    2.5500
    2.5600    2.5700    2.5800    2.5900    2.6000    2.6100    2.6200    2.6300
    2.6400    2.6500    2.6600    2.6700    2.6800    2.6900    2.7000    2.7100
    2.7200    2.7300    2.7400    2.7500    2.7600    2.7700    2.7800    2.7900
    2.8000    2.8100    2.8200    2.8300    2.8400    2.8500    2.8600    2.8700
    2.8800    2.8900    2.9000    2.9100    2.9200    2.9300    2.9400    2.9500
    2.9600    2.9700    2.9800    2.9900    3.0000    3.0100    3.0200    3.0300
    3.0400    3.0500    3.0600    3.0700    3.0800    3.0900    3.1000    3.1100
    3.1200    3.1300    3.1400    3.1500    3.1600    3.1700    3.1800    3.1900
    3.2000    3.2100    3.2200    3.2300    3.2400    3.2500    3.2600    3.2700
    3.2800    3.2900    3.3000    3.3100    3.3200    3.3300    3.3400    3.3500
    3.3600    3.3700    3.3800    3.3900    3.4000    3.4100    3.4200    3.4300
    3.4400    3.4500    3.4600    3.4700    3.4800    3.4900    3.5000    3.5100
    3.5200    3.5300    3.5400    3.5500    3.5600    3.5700    3.5800    3.5900
    3.6000    3.6100    3.6200    3.6300    3.6400    3.6500    3.6600    3.6700
    3.6800    3.6900    3.7000    3.7100    3.7200    3.7300    3.7400    3.7500
    3.7600    3.7700    3.7800    3.7900    3.8000    3.8100    3.8200    3.8300
    3.8400    3.8500    3.8600    3.8700    3.8800    3.8900    3.9000    3.9100
    3.9200    3.9300    3.9400    3.9500    3.9600    3.9700    3.9800    3.9900
    4.0000    4.0100    4.0200    4.0300    4.0400    4.0500    4.0600    4.0700
    4.0800    4.0900    4.1000    4.1100    4.1200    4.1300    4.1400    4.1500
    4.1600    4.1700    4.1800    4.1900    4.2000    4.2100    4.2200    4.2300
    4.2400    4.2500    4.2600    4.2700    4.2800    4.2900    4.3000    4.3100
    4.3200    4.3300    4.3400    4.3500    4.3600    4.3700    4.3800    4.3900
    4.4000    4.4100    4.4200    4.4300    4.4400    4.4500    4.4600    4.4700
    4.4800    4.4900    4.5000    4.5100    4.5200    4.5300    4.5400    4.5500
    4.5600    4.5700    4.5800    4.5900    4.6000    4.6100    4.6200    4.6300
    4.6400    4.6500    4.6600    4.6700    4.6800    4.6900    4.7000    4.7100
    4.7200    4.7300    4.7400    4.7500    4.7600    4.7700    4.7800    4.7900
    4.8000    4.8100    4.8200    4.8300    4.8400    4.8500    4.8600    4.8700
    4.8800    4.8900    4.9000    4.9100    4.9200    4.9300    4.9400    4.9500
    4.9600    4.9700    4.9800    4.9900    5.0000    5.0100    5.0200    5.0300
    5.0400    5.0500    5.0600    5.0700    5.0800    5.0900    5.1000    5.1100
    5.1200    5.1300    5.1400    5.1500    5.1600    5.1700    5.1800    5.1900
    5.2000    5.2100    5.2200    5.2300    5.2400    5.2500    5.2600    5.2700
    5.2800    5.2900    5.3000    5.3100    5.3200    5.3300    5.3400    5.3500
    5.3600    5.3700    5.3800    5.3900    5.4000    5.4100    5.4200    5.4300
    5.4400    5.4500    5.4600    5.4700    5.4800    5.4900    5.5000    5.5100
    5.5200    5.5300    5.5400    5.5500    5.5600    5.5700    5.5800    5.5900
    5.6000    5.6100    5.6200    5.6300    5.6400    5.6500    5.6600    5.6700
    5.6800    5.6900    5.7000    5.7100    5.7200    5.7300    5.7400    5.7500
    5.7600    5.7700    5.7800    5.7900    5.8000    5.8100    5.8200    5.8300
    5.8400    5.8500    5.8600    5.8700    5.8800    5.8900    5.9000    5.9100
    5.9200    5.9300    5.9400    5.9500    5.9600    5.9700    5.9800    5.9900
    6.0000    6.0100    6.0200    6.0300    6.0400    6.0500    6.0600    6.0700
    6.0800    6.0900    6.1000    6.1100    6.1200    6.1300    6.1400    6.1500
    6.1600    6.1700    6.1800    6.1900    6.2000    6.2100    6.2200    6.2300
    6.2400    6.2500    6.2600    6.2700    6.2800    6.2900    6.3000    6.3100
    6.3200    6.3300    6.3400    6.3500    6.3600    6.3700    6.3800    6.3900
    6.4000    6.4100    6.4200    6.4300    6.4400    6.4500    6.4600    6.4700
    6.4800    6.4900    6.5000    6.5100    6.5200    6.5300    6.5400    6.5500
    6.5600    6.5700    6.5800    6.5900    6.6000    6.6100    6.6200    6.6300
    6.6400    6.6500    6.6600    6.6700    6.6800    6.6900    6.7000    6.7100
    6.7200    6.7300    6.7400    6.7500    6.7600    6.7700    6.7800    6.7900
    6.8000    6.8100    6.8200    6.8300    6.8400    6.8500    6.8600    6.8700
    6.8800    6.8900    6.9000    6.9100    6.9200    6.9300    6.9400    6.9500
    6.9600    6.9700    6.9800    6.9900    7.0000    7.0100    7.0200    7.0300
    7.0400    7.0500    7.0600    7.0700    7.0800    7.0900    7.1000    7.1100
    7.1200    7.1300    7.1400    7.1500    7.1600    7.1700    7.1800    7.1900
    7.2000    7.2100    7.2200    7.2300    7.2400    7.2500    7.2600    7.2700
    7.2800    7.2900    7.3000    7.3100    7.3200    7.3300    7.3400    7.3500
    7.3600    7.3700    7.3800    7.3900    7.4000    7.4100    7.4200    7.4300
    7.4400    7.4500    7.4600    7.4700    7.4800    7.4900    7.5000    7.5100
    7.5200    7.5300    7.5400    7.5500    7.5600    7.5700    7.5800    7.5900
    7.6000    7.6100    7.6200    7.6300    7.6400    7.6500    7.6600    7.6700
    7.6800    7.6900    7.7000    7.7100    7.7200    7.7300    7.7400    7.7500
    7.7600    7.7700    7.7800    7.7900    7.8000    7.8100    7.8200    7.8300
    7.8400    7.8500    7.8600    7.8700    7.8800    7.8900    7.9000    7.9100
    7.9200    7.9300    7.9400    7.9500    7.9600    7.9700    7.9800    7.9900
    8.0000    8.0100    8.0200    8.0300    8.0400    8.0500    8.0600    8.0700
    8.0800    8.0900    8.1000    8.1100    8.1200    8.1300    8.1400    8.1500
    8.1600    8.1700    8.1800    8.1900    8.2000    8.2100    8.2200    8.2300
    8.2400    8.2500    8.2600    8.2700    8.2800    8.2900    8.3000    8.3100
    8.3200    8.3300    8.3400    8.3500    8.3600    8.3700    8.3800    8.3900
    8.4000    8.4100    8.4200    8.4300    8.4400    8.4500    8.4600    8.4700
    8.4800    8.4900    8.5000    8.5100    8.5200    8.5300    8.5400    8.5500
    8.5600    8.5700    8.5800    8.5900    8.6000    8.6100    8.6200    8.6300
    8.6400    8.6500    8.6600    8.6700    8.6800    8.6900    8.7000    8.7100
    8.7200    8.7300    8.7400    8.7500    8.7600    8.7700    8.7800    8.7900
    8.8000    8.8100    8.8200    8.8300    8.8400    8.8500    8.8600    8.8700
    8.8800    8.8900    8.9000    8.9100    8.9200    8.9300    8.9400    8.9500
    8.9600    8.9700    8.9800    8.9900    9.0000    9.0100    9.0200    9.0300
    9.0400    9.0500    9.0600    9.0700    9.0800    9.0900    9.1000    9.1100
    9.1200    9.1300    9.1400    9.1500    9.1600    9.1700    9.1800    9.1900
    9.2000    9.2100    9.2200    9.2300    9.2400    9.2500    9.2600    9.2700
    9.2800    9.2900    9.3000    9.3100    9.3200    9.3300    9.3400    9.3500
    9.3600    9.3700    9.3800    9.3900    9.4000    9.4100    9.4200    9.4300
    9.4400    9.4500    9.4600    9.4700    9.4800    9.4900    9.5000    9.5100
    9.5200    9.5300    9.5400    9.5500    9.5600    9.5700    9.5800    9.5900
    9.6000    9.6100    9.6200    9.6300    9.6400    9.6500    9.6600    9.6700
    9.6800    9.6900    9.7000    9.7100    9.7200    9.7300    9.7400    9.7500
    9.7600    9.7700    9.7800    9.7900    9.8000    9.8100    9.8200    9.8300
    9.8400    9.8500    9.8600    9.8700    9.8800    9.8900    9.9000    9.9100
    9.9200    9.9300    9.9400    9.9500    9.9600    9.9700    9.9800    9.9900
   10.0000   10.0100   10.0200   10.0300   10.0400   10.0500   10.0600   10.0700
   10.0800   10.0900   10.1000   10.1100   10.1200   10.1300   10.1400   10.1500
   10.1600   10.1700   10.1800   10.1900   10.2000   10.2100   10.2200   10.2300
   10.2400   10.2500   10.2600   10.2700   10.2800   10.2900   10.3000   10.3100
   10.3200   10.3300   10.3400   10.3500   10.3600   10.3700   10.3800   10.3900
   10.4000   10.4100   10.4200   10.4300   10.4400   10.4500   10.4600   10.4700
   10.4800   10.4900   10.5000   10.5100   10.5200   10.5300   10.5400   10.5500
   10.5600   10.5700   10.5800   10.5900   10.6000   10.6100   10.6200   10.6300
   10.6400   10.6500   10.6600   10.6700   10.6800   10.6900   10.7000   10.7100
   10.7200   10.7300   10.7400   10.7500   10.7600   10.7700   10.7800   10.7900
   10.8000   10.8100   10.8200   10.8300   10.8400   10.8500   10.8600   10.8700
   10.8800   10.8900   10.9000   10.9100   10.9200   10.9300   10.9400   10.9500
   10.9600   10.9700   10.9800   10.9900
   </PP_R>
   <PP_RAB type="real"  size="1100" columns="8">
    0.0100    0.0100    0.0100    0.0100    0.0100    0.0100    0.0100    0.0100
    0.0100    0.0100    0.0100    0.0100    0.0100    0.0100    0.0100    0.0100
    0.0100    0.0100    0.0100    0.0100    0.0100    0.0100    0.0100    0.0100
    0.0100    0.0100    0.0100    0.0100    0.0100    0.0100    0.0100    0.0100
    0.0100    0.0100    0.0100    0.0100    0.0100    0.0100    0.0100    0.0100
    0.0100    0.0100    0.0100    0.0100    0.0100    0.0100    0.0100    0.0100
    0.0100    0.0100    0.0100    0.0100    0.0100    0.0100    0.0100    0.0100
    0.0100    0.0100    0.0100    0.0100    0.0100    0.0100    0.0100    0.0100
    0.0100    0.0100    0.0100    0.0100    0.0100    0.0100    0.0100    0.0100
    0.0100    0.0100    0.0100    0.0100    0.0100    0.0100    0.0100    0.0100
    0.0100    0.0100    0.0100    0.0100    0.0100    0.0100    0.0100    0.0100
    0.0100    0.0100    0.0100    0.0100    0.0100    0.0100    0.0100    0.0100
    0.0100    0.0100    0.0100    0.0100    0.0100    0.0100    0.0100    0.0100
    0.0100    0.0100    0.0100    0.0100    0.0100    0.0100    0.0100    0.0100
    0.0100    0.0100    0.0100    0.0100    0.0100    0.0100    0.0100    0.0100
    0.0100    0.0100    0.0100    0.0100    0.0100    0.0100    0.0100    0.0100
    0.0100    0.0100    0.0100    0.0100    0.0100    0.0100    0.0100    0.0100
    0.0100    0.0100    0.0100    0.0100    0.0100    0.0100    0.0100    0.0100
    0.0100    0.0100    0.0100    0.0100    0.0100    0.0100    0.0100    0.0100
    0.0100    0.0100    0.0100    0.0100    0.0100    0.0100    0.0100    0.0100
    0.0100    0.0100    0.0100    0.0100    0.0100    0.0100    0.0100    0.0100
    0.0100    0.0100    0.0100    0.0100    0.0100    0.0100    0.0100    0.0100
    0.0100    0.0100    0.0100    0.0100    0.0100    0.0100    0.0100    0.0100
    0.0100    0.0100    0.0100    0.0100    0.0100    0.0100    0.0100    0.0100
    0.0100    0.0100    0.0100    0.0100    0.0100    0.0100    0.0100    0.0100
    0.0100    0.0100    0.0100    0.0100    0.0100    0.0100    0.0100    0.0100
    0.0100    0.0100    0.0100    0.0100    0.0100    0.0100    0.0100    0.0100
    0.0100    0.0100    0.0100    0.0100    0.0100    0.0100    0.0100    0.0100
    0.0100    0.0100    0.0100    0.0100    0.0100    0.0100    0.0100    0.0100
    0.0100    0.0100    0.0100    0.0100    0.0100    0.0100    0.0100    0.0100
    0.0100    0.0100    0.0100    0.0100    0.0100    0.0100    0.0100    0.0100
    0.0100    0.0100    0.0100    0.0100    0.0100    0.0100    0.0100    0.0100
    0.0100    0.0100    0.0100    0.0100    0.0100    0.0100    0.0100    0.0100
    0.0100    0.0100    0.0100    0.0100    0.0100    0.0100    0.0100    0.0100
    0.0100    0.0100    0.0100    0.0100    0.0100    0.0100    0.0100    0.0100
    0.0100    0.0100    0.0100    0.0100    0.0100    0.0100    0.0100    0.0100
    0.0100    0.0100    0.0100    0.0100    0.0100    0.0100    0.0100    0.0100
    0.0100    0.0100    0.0100    0.0100    0.0100    0.0100    0.0100    0.0100
    0.0100    0.0100    0.0100    0.0100    0.0100    0.0100    0.0100    0.0100
    0.0100    0.0100    0.0100    0.0100    0.0100    0.0100    0.0100    0.0100
    0.0100    0.0100    0.0100    0.0100    0.0100    0.0100    0.0100    0.0100
    0.0100    0.0100    0.0100    0.0100    0.0100    0.0100    0.0100    0.0100
    0.0100    0.0100    0.0100    0.0100    0.0100    0.0100    0.0100    0.0100
    0.0100    0.0100    0.0100    0.0100    0.0100    0.0100    0.0100    0.0100
    0.0100    0.0100    0.0100    0.0100    0.0100    0.0100    0.0100    0.0100
    0.0100    0.0100    0.0100    0.0100    0.0100    0.0100    0.0100    0.0100
    0.0100    0.0100    0.0100    0.0100    0.0100    0.0100    0.0100    0.0100
    0.0100    0.0100    0.0100    0.0100    0.0100    0.0100    0.0100    0.0100
    0.0100    0.0100    0.0100    0.0100    0.0100    0.0100    0.0100    0.0100
    0.0100    0.0100    0.0100    0.0100    0.0100    0.0100    0.0100    0.0100
    0.0100    0.0100    0.0100    0.0100    0.0100    0.0100    0.0100    0.0100
    0.0100    0.0100    0.0100    0.0100    0.0100    0.0100    0.0100    0.0100
    0.0100    0.0100    0.0100    0.0100    0.0100    0.0100    0.0100    0.0100
    0.0100    0.0100    0.0100    0.0100    0.0100    0.0100    0.0100    0.0100
    0.0100    0.0100    0.0100    0.0100    0.0100    0.0100    0.0100    0.0100
    0.0100    0.0100    0.0100    0.0100    0.0100    0.0100    0.0100    0.0100
    0.0100    0.0100    0.0100    0.0100    0.0100    0.0100    0.0100    0.0100
    0.0100    0.0100    0.0100    0.0100    0.0100    0.0100    0.0100    0.0100
    0.0100    0.0100    0.0100    0.0100    0.0100    0.0100    0.0100    0.0100
    0.0100    0.0100    0.0100    0.0100    0.0100    0.0100    0.0100    0.0100
    0.0100    0.0100    0.0100    0.0100    0.0100    0.0100    0.0100    0.0100
    0.0100    0.0100    0.0100    0.0100    0.0100    0.0100    0.0100    0.0100
    0.0100    0.0100    0.0100    0.0100    0.0100    0.0100    0.0100    0.0100
    0.0100    0.0100    0.0100    0.0100    0.0100    0.0100    0.0100    0.0100
    0.0100    0.0100    0.0100    0.0100    0.0100    0.0100    0.0100    0.0100
    0.0100    0.0100    0.0100    0.0100    0.0100    0.0100    0.0100    0.0100
    0.0100    0.0100    0.0100    0.0100    0.0100    0.0100    0.0100    0.0100
    0.0100    0.0100    0.0100    0.0100    0.0100    0.0100    0.0100    0.0100
    0.0100    0.0100    0.0100    0.0100    0.0100    0.0100    0.0100    0.0100
    0.0100    0.0100    0.0100    0.0100    0.0100    0.0100    0.0100    0.0100
    0.0100    0.0100    0.0100    0.0100    0.0100    0.0100    0.0100    0.0100
    0.0100    0.0100    0.0100    0.0100    0.0100    0.0100    0.0100    0.0100
    0.0100    0.0100    0.0100    0.0100    0.0100    0.0100    0.0100    0.0100
    0.0100    0.0100    0.0100    0.0100    0.0100    0.0100    0.0100    0.0100
    0.0100    0.0100    0.0100    0.0100    0.0100    0.0100    0.0100    0.0100
    0.0100    0.0100    0.0100    0.0100    0.0100    0.0100    0.0100    0.0100
    0.0100    0.0100    0.0100    0.0100    0.0100    0.0100    0.0100    0.0100
    0.0100    0.0100    0.0100    0.0100    0.0100    0.0100    0.0100    0.0100
    0.0100    0.0100    0.0100    0.0100    0.0100    0.0100    0.0100    0.0100
    0.0100    0.0100    0.0100    0.0100    0.0100    0.0100    0.0100    0.0100
    0.0100    0.0100    0.0100    0.0100    0.0100    0.0100    0.0100    0.0100
    0.0100    0.0100    0.0100    0.0100    0.0100    0.0100    0.0100    0.0100
    0.0100    0.0100    0.0100    0.0100    0.0100    0.0100    0.0100    0.0100
    0.0100    0.0100    0.0100    0.0100    0.0100    0.0100    0.0100    0.0100
    0.0100    0.0100    0.0100    0.0100    0.0100    0.0100    0.0100    0.0100
    0.0100    0.0100    0.0100    0.0100    0.0100    0.0100    0.0100    0.0100
    0.0100    0.0100    0.0100    0.0100    0.0100    0.0100    0.0100    0.0100
    0.0100    0.0100    0.0100    0.0100    0.0100    0.0100    0.0100    0.0100
    0.0100    0.0100    0.0100    0.0100    0.0100    0.0100    0.0100    0.0100
    0.0100    0.0100    0.0100    0.0100    0.0100    0.0100    0.0100    0.0100
    0.0100    0.0100    0.0100    0.0100    0.0100    0.0100    0.0100    0.0100
    0.0100    0.0100    0.0100    0.0100    0.0100    0.0100    0.0100    0.0100
    0.0100    0.0100    0.0100    0.0100    0.0100    0.0100    0.0100    0.0100
    0.0100    0.0100    0.0100    0.0100    0.0100    0.0100    0.0100    0.0100
    0.0100    0.0100    0.0100    0.0100    0.0100    0.0100    0.0100    0.0100
    0.0100    0.0100    0.0100    0.0100    0.0100    0.0100    0.0100    0.0100
    0.0100    0.0100    0.0100    0.0100    0.0100    0.0100    0.0100    0.0100
    0.0100    0.0100    0.0100    0.0100    0.0100    0.0100    0.0100    0.0100
    0.0100    0.0100    0.0100    0.0100    0.0100    0.0100    0.0100    0.0100
    0.0100    0.0100    0.0100    0.0100    0.0100    0.0100    0.0100    0.0100
    0.0100    0.0100    0.0100    0.0100    0.0100    0.0100    0.0100    0.0100
    0.0100    0.0100    0.0100    0.0100    0.0100    0.0100    0.0100    0.0100
    0.0100    0.0100    0.0100    0.0100    0.0100    0.0100    0.0100    0.0100
    0.0100    0.0100    0.0100    0.0100    0.0100    0.0100    0.0100    0.0100
    0.0100    0.0100    0.0100    0.0100    0.0100    0.0100    0.0100    0.0100
    0.0100    0.0100    0.0100    0.0100    0.0100    0.0100    0.0100    0.0100
    0.0100    0.0100    0.0100    0.0100    0.0100    0.0100    0.0100    0.0100
    0.0100    0.0100    0.0100    0.0100    0.0100    0.0100    0.0100    0.0100
    0.0100    0.0100    0.0100    0.0100    0.0100    0.0100    0.0100    0.0100
    0.0100    0.0100    0.0100    0.0100    0.0100    0.0100    0.0100    0.0100
    0.0100    0.0100    0.0100    0.0100    0.0100    0.0100    0.0100    0.0100
    0.0100    0.0100    0.0100    0.0100    0.0100    0.0100    0.0100    0.0100
    0.0100    0.0100    0.0100    0.0100    0.0100    0.0100    0.0100    0.0100
    0.0100    0.0100    0.0100    0.0100    0.0100    0.0100    0.0100    0.0100
    0.0100    0.0100    0.0100    0.0100    0.0100    0.0100    0.0100    0.0100
    0.0100    0.0100    0.0100    0.0100    0.0100    0.0100    0.0100    0.0100
    0.0100    0.0100    0.0100    0.0100    0.0100    0.0100    0.0100    0.0100
    0.0100    0.0100    0.0100    0.0100    0.0100    0.0100    0.0100    0.0100
    0.0100    0.0100    0.0100    0.0100    0.0100    0.0100    0.0100    0.0100
    0.0100    0.0100    0.0100    0.0100    0.0100    0.0100    0.0100    0.0100
    0.0100    0.0100    0.0100    0.0100    0.0100    0.0100    0.0100    0.0100
    0.0100    0.0100    0.0100    0.0100    0.0100    0.0100    0.0100    0.0100
    0.0100    0.0100    0.0100    0.0100    0.0100    0.0100    0.0100    0.0100
    0.0100    0.0100    0.0100    0.0100    0.0100    0.0100    0.0100    0.0100
    0.0100    0.0100    0.0100    0.0100    0.0100    0.0100    0.0100    0.0100
    0.0100    0.0100    0.0100    0.0100    0.0100    0.0100    0.0100    0.0100
    0.0100    0.0100    0.0100    0.0100    0.0100    0.0100    0.0100    0.0100
    0.0100    0.0100    0.0100    0.0100    0.0100    0.0100    0.0100    0.0100
    0.0100    0.0100    0.0100    0.0100    0.0100    0.0100    0.0100    0.0100
    0.0100    0.0100    0.0100    0.0100    0.0100    0.0100    0.0100    0.0100
    0.0100    0.0100    0.0100    0.0100    0.0100    0.0100    0.0100    0.0100
    0.0100    0.0100    0.0100    0.0100    0.0100    0.0100    0.0100    0.0100
    0.0100    0.0100    0.0100    0.0100    0.0100    0.0100    0.0100    0.0100
    0.0100    0.0100    0.0100    0.0100    0.0100    0.0100    0.0100    0.0100
    0.0100    0.0100    0.0100    0.0100    0.0100    0.0100    0.0100    0.0100
    0.0100    0.0100    0.0100    0.0100    0.0100    0.0100    0.0100    0.0100
    0.0100    0.0100    0.0100    0.0100    0.0100    0.0100    0.0100    0.0100
    0.0100    0.0100    0.0100    0.0100
   </PP_RAB>
 </PP_MESH>
  <PP_LOCAL type="real"  size="1100" columns="4">
   -2.8900594600E+01   -3.4557875295E+01   -3.4609710724E+01   -3.4814182112E+01
   -3.5332764295E+01   -3.6173001262E+01   -3.6852319766E+01   -3.6741524558E+01
   -3.6012810978E+01   -3.5323404845E+01   -3.4942165960E+01   -3.4790518633E+01
   -3.4744100322E+01   -3.4731510091E+01   -3.4724272534E+01   -3.4714208637E+01
   -3.4700516091E+01   -3.4684456242E+01   -3.4667562825E+01   -3.4651154782E+01
   -3.4636252536E+01   -3.4623587213E+01   -3.4613612923E+01   -3.4606505656E+01
   -3.4602153826E+01   -3.4600150170E+01   -3.4599794267E+01   -3.4600112787E+01
   -3.4599901540E+01   -3.4597789870E+01   -3.4592324163E+01   -3.4582063898E+01
   -3.4565681162E+01   -3.4542053568E+01   -3.4510341012E+01   -3.4470038764E+01
   -3.4421002356E+01   -3.4363443153E+01   -3.4297896728E+01   -3.4225168865E+01
   -3.4146265829E+01   -3.4062316599E+01   -3.3974494832E+01   -3.3883947620E+01
   -3.3791736644E+01   -3.3698795270E+01   -3.3605902884E+01   -3.3513675534E+01
   -3.3422570294E+01   -3.3332899701E+01   -3.3244852373E+01   -3.3158516230E+01
   -3.3073901520E+01   -3.2990961707E+01   -3.2909611174E+01   -3.2829739348E+01
   -3.2751221385E+01   -3.2673925784E+01   -3.2597719494E+01   -3.2522471025E+01
   -3.2448052100E+01   -3.2374338248E+01   -3.2301208697E+01   -3.2228545834E+01
   -3.2156234422E+01   -3.2084160740E+01   -3.2012211741E+01   -3.1940274322E+01
   -3.1868234759E+01   -3.1795978347E+01   -3.1723389284E+01   -3.1650350801E+01
   -3.1576745561E+01   -3.1502456305E+01   -3.1427366734E+01   -3.1351362595E+01
   -3.1274332938E+01   -3.1196171480E+01   -3.1116778023E+01   -3.1036059879E+01
   -3.0953933204E+01   -3.0870324223E+01   -3.0785170248E+01   -3.0698420480E+01
   -3.0610036536E+01   -3.0519992697E+01   -3.0428275870E+01   -3.0334885265E+01
   -3.0239831830E+01   -3.0143137451E+01   -3.0044833988E+01   -2.9944962166E+01
   -2.9843570392E+01   -2.9740713523E+01   -2.9636451644E+01   -2.9530848887E+01
   -2.9423972318E+01   -2.9315890916E+01   -2.9206674668E+01   -2.9096393773E+01
   -2.8985117974E+01   -2.8872916003E+01   -2.8759855142E+01   -2.8646000883E+01
   -2.8531416681E+01   -2.8416163793E+01   -2.8300301169E+01   -2.8183885415E+01
   -2.8066970790E+01   -2.7949609238E+01   -2.7831850443E+01   -2.7713741908E+01
   -2.7595329030E+01   -2.7476655194E+01   -2.7357761856E+01   -2.7238688624E+01
   -2.7119473342E+01   -2.7000152155E+01   -2.6880759572E+01   -2.6761328520E+01
   -2.6641890384E+01   -2.6522475049E+01   -2.6403110921E+01   -2.6283824949E+01
   -2.6164642642E+01   -2.6045588077E+01   -2.5926683900E+01   -2.5807951336E+01
   -2.5689410188E+01   -2.5571078836E+01   -2.5452974246E+01   -2.5335111970E+01
   -2.5217506161E+01   -2.5100169583E+01   -2.4983113632E+01   -2.4866348366E+01
   -2.4749882532E+01   -2.4633723615E+01   -2.4517877876E+01   -2.4402350417E+01
   -2.4287145237E+01   -2.4172265301E+01   -2.4057712614E+01   -2.3943488297E+01
   -2.3829592665E+01   -2.3716025306E+01   -2.3602785159E+01   -2.3489870591E+01
   -2.3377279465E+01   -2.3265009207E+01   -2.3153056868E+01   -2.3041419175E+01
   -2.2930092584E+01   -2.2819073317E+01   -2.2708357413E+01   -2.2597940763E+01
   -2.2487819158E+01   -2.2377988339E+01   -2.2268444064E+01   -2.2159182179E+01
   -2.2050198714E+01   -2.1941489997E+01   -2.1833052788E+01   -2.1724884432E+01
   -2.1616983036E+01   -2.1509347660E+01   -2.1401978509E+01   -2.1294877146E+01
   -2.1188046679E+01   -2.1081491947E+01   -2.0975219673E+01   -2.0869238582E+01
   -2.0763559479E+01   -2.0658195267E+01   -2.0553160919E+01   -2.0448473380E+01
   -2.0344151422E+01   -2.0240215436E+01   -2.0136687183E+01   -2.0033589500E+01
   -1.9930945991E+01   -1.9828780689E+01   -1.9727117722E+01   -1.9625980994E+01
   -1.9525393876E+01   -1.9425378933E+01   -1.9325957686E+01   -1.9227150412E+01
   -1.9128975998E+01   -1.9031451824E+01   -1.8934593699E+01   -1.8838415834E+01
   -1.8742930847E+01   -1.8648149797E+01   -1.8554082248E+01   -1.8460736340E+01
   -1.8368118883E+01   -1.8276235456E+01   -1.8185090505E+01   -1.8094687443E+01
   -1.8005028755E+01   -1.7916116083E+01   -1.7827950318E+01   -1.7740531676E+01
   -1.7653859767E+01   -1.7567933661E+01   -1.7482751942E+01   -1.7398312748E+01
   -1.7314613818E+01   -1.7231652524E+01   -1.7149425895E+01   -1.7067930641E+01
   -1.6987163176E+01   -1.6907119628E+01   -1.6827795855E+01   -1.6749187451E+01
   -1.6671289760E+01   -1.6594097879E+01   -1.6517606663E+01   -1.6441810733E+01
   -1.6366704479E+01   -1.6292282061E+01   -1.6218537415E+01   -1.6145464258E+01
   -1.6073056084E+01   -1.6001306173E+01   -1.5930207591E+01   -1.5859753193E+01
   -1.5789935623E+01   -1.5720747319E+01   -1.5652180512E+01   -1.5584227236E+01
   -1.5516879306E+01   -1.5450128382E+01   -1.5383966103E+01   -1.5318384207E+01
   -1.5253374552E+01   -1.5188929108E+01   -1.5125039957E+01   -1.5061699300E+01
   -1.4998899455E+01   -1.4936632858E+01   -1.4874892063E+01   -1.4813669746E+01
   -1.4752958705E+01   -1.4692751860E+01   -1.4633042252E+01   -1.4573823049E+01
   -1.4515087541E+01   -1.4456829145E+01   -1.4399041400E+01   -1.4341717973E+01
   -1.4284852656E+01   -1.4228439367E+01   -1.4172472149E+01   -1.4116945169E+01
   -1.4061852720E+01   -1.4007189217E+01   -1.3952949201E+01   -1.3899127332E+01
   -1.3845718393E+01   -1.3792717283E+01   -1.3740119019E+01   -1.3687918736E+01
   -1.3636111679E+01   -1.3584693207E+01   -1.3533658789E+01   -1.3483003996E+01
   -1.3432724508E+01   -1.3382816103E+01   -1.3333274656E+01   -1.3284096141E+01
   -1.3235276617E+01   -1.3186812228E+01   -1.3138699193E+01   -1.3090933798E+01
   -1.3043512395E+01   -1.2996431395E+01   -1.2949687274E+01   -1.2903276566E+01
   -1.2857195857E+01   -1.2811441791E+01   -1.2766011059E+01   -1.2720900401E+01
   -1.2676106603E+01   -1.2631626490E+01   -1.2587456932E+01   -1.2543594831E+01
   -1.2500037124E+01   -1.2456780785E+01   -1.2413822816E+01   -1.2371160253E+01
   -1.2328790156E+01   -1.2286709610E+01   -1.2244915720E+01   -1.2203405612E+01
   -1.2162176430E+01   -1.2121225333E+01   -1.2080549498E+01   -1.2040146112E+01
   -1.2000012373E+01   -1.1960145498E+01   -1.1920542733E+01   -1.1881201386E+01
   -1.1842118836E+01   -1.1803292530E+01   -1.1764719969E+01   -1.1726398683E+01
   -1.1688326224E+01   -1.1650500176E+01   -1.1612918151E+01   -1.1575577796E+01
   -1.1538476790E+01   -1.1501612838E+01   -1.1464983677E+01   -1.1428587069E+01
   -1.1392420809E+01   -1.1356482716E+01   -1.1320770639E+01   -1.1285282451E+01
   -1.1250016056E+01   -1.1214969380E+01   -1.1180140376E+01   -1.1145527024E+01
   -1.1111127326E+01   -1.1076939311E+01   -1.1042961031E+01   -1.1009190562E+01
   -1.0975626004E+01   -1.0942265480E+01   -1.0909107134E+01   -1.0876149136E+01
   -1.0843389673E+01   -1.0810826959E+01   -1.0778459226E+01   -1.0746284729E+01
   -1.0714301741E+01   -1.0682508560E+01   -1.0650903500E+01   -1.0619484897E+01
   -1.0588251105E+01   -1.0557200497E+01   -1.0526331467E+01   -1.0495642428E+01
   -1.0465131812E+01   -1.0434798066E+01   -1.0404639657E+01   -1.0374655069E+01
   -1.0344842802E+01   -1.0315201378E+01   -1.0285729330E+01   -1.0256425212E+01
   -1.0227287592E+01   -1.0198315056E+01   -1.0169506204E+01   -1.0140859654E+01
   -1.0112374038E+01   -1.0084048003E+01   -1.0055880212E+01   -1.0027869343E+01
   -1.0000014089E+01   -9.9723131557E+00   -9.9447652649E+00   -9.9173691518E+00
   -9.8901235654E+00   -9.8630272686E+00   -9.8360790378E+00   -9.8092776627E+00
   -9.7826219461E+00   -9.7561107039E+00   -9.7297427648E+00   -9.7035169698E+00
   -9.6774321729E+00   -9.6514872400E+00   -9.6256810491E+00   -9.6000124906E+00
   -9.5744804661E+00   -9.5490838893E+00   -9.5238216853E+00   -9.4986927904E+00
   -9.4736961523E+00   -9.4488307295E+00   -9.4240954917E+00   -9.3994894190E+00
   -9.3750115025E+00   -9.3506607436E+00   -9.3264361540E+00   -9.3023367556E+00
   -9.2783615806E+00   -9.2545096710E+00   -9.2307800785E+00   -9.2071718647E+00
   -9.1836841007E+00   -9.1603158671E+00   -9.1370662538E+00   -9.1139343599E+00
   -9.0909192935E+00   -9.0680201719E+00   -9.0452361212E+00   -9.0225662761E+00
   -9.0000097802E+00   -8.9775657855E+00   -8.9552334524E+00   -8.9330119497E+00
   -8.9109004545E+00   -8.8888981520E+00   -8.8670042352E+00   -8.8452179053E+00
   -8.8235383712E+00   -8.8019648496E+00   -8.7804965649E+00   -8.7591327489E+00
   -8.7378726409E+00   -8.7167154876E+00   -8.6956605430E+00   -8.6747070683E+00
   -8.6538543316E+00   -8.6331016084E+00   -8.6124481807E+00   -8.5918933378E+00
   -8.5714363753E+00   -8.5510765960E+00   -8.5308133088E+00   -8.5106458295E+00
   -8.4905734802E+00   -8.4705955894E+00   -8.4507114919E+00   -8.4309205288E+00
   -8.4112220473E+00   -8.3916154006E+00   -8.3720999481E+00   -8.3526750550E+00
   -8.3333400925E+00   -8.3140944375E+00   -8.2949374726E+00   -8.2758685863E+00
   -8.2568871724E+00   -8.2379926306E+00   -8.2191843657E+00   -8.2004617883E+00
   -8.1818243141E+00   -8.1632713641E+00   -8.1448023648E+00   -8.1264167475E+00
   -8.1081139489E+00   -8.0898934108E+00   -8.0717545796E+00   -8.0536969072E+00
   -8.0357198501E+00   -8.0178228695E+00   -8.0000054318E+00   -7.9822670077E+00
   -7.9646070729E+00   -7.9470251075E+00   -7.9295205964E+00   -7.9120930289E+00
   -7.8947418987E+00   -7.8774667041E+00   -7.8602669478E+00   -7.8431421366E+00
   -7.8260917817E+00   -7.8091153987E+00   -7.7922125073E+00   -7.7753826311E+00
   -7.7586252983E+00   -7.7419400406E+00   -7.7253263942E+00   -7.7087838990E+00
   -7.6923120988E+00   -7.6759105416E+00   -7.6595787789E+00   -7.6433163662E+00
   -7.6271228627E+00   -7.6109978314E+00   -7.5949408388E+00   -7.5789514552E+00
   -7.5630292547E+00   -7.5471738145E+00   -7.5313847157E+00   -7.5156615428E+00
   -7.5000038838E+00   -7.4844113301E+00   -7.4688834764E+00   -7.4534199208E+00
   -7.4380202649E+00   -7.4226841133E+00   -7.4074110740E+00   -7.3922007584E+00
   -7.3770527807E+00   -7.3619667585E+00   -7.3469423125E+00   -7.3319790664E+00
   -7.3170766471E+00   -7.3022346845E+00   -7.2874528114E+00   -7.2727306635E+00
   -7.2580678797E+00   -7.2434641016E+00   -7.2289189738E+00   -7.2144321436E+00
   -7.2000032612E+00   -7.1856319797E+00   -7.1713179548E+00   -7.1570608450E+00
   -7.1428603115E+00   -7.1287160182E+00   -7.1146276317E+00   -7.1005948212E+00
   -7.0866172584E+00   -7.0726946177E+00   -7.0588265761E+00   -7.0450128129E+00
   -7.0312530102E+00   -7.0175468523E+00   -7.0038940262E+00   -6.9902942212E+00
   -6.9767471290E+00   -6.9632524438E+00   -6.9498098619E+00   -6.9364190823E+00
   -6.9230798061E+00   -6.9097917366E+00   -6.8965545796E+00   -6.8833680431E+00
   -6.8702318371E+00   -6.8571456742E+00   -6.8441092689E+00   -6.8311223379E+00
   -6.8181846001E+00   -6.8052957766E+00   -6.7924555904E+00   -6.7796637668E+00
   -6.7669200330E+00   -6.7542241183E+00   -6.7415757541E+00   -6.7289746738E+00
   -6.7164206127E+00   -6.7039133081E+00   -6.6914524992E+00   -6.6790379274E+00
   -6.6666693356E+00   -6.6543464690E+00   -6.6420690744E+00   -6.6298369006E+00
   -6.6176496982E+00   -6.6055072197E+00   -6.5934092192E+00   -6.5813554530E+00
   -6.5693456787E+00   -6.5573796560E+00   -6.5454571463E+00   -6.5335779127E+00
   -6.5217417198E+00   -6.5099483343E+00   -6.4981975243E+00   -6.4864890597E+00
   -6.4748227120E+00   -6.4631982543E+00   -6.4516154615E+00   -6.4400741098E+00
   -6.4285739774E+00   -6.4171148437E+00   -6.4056964899E+00   -6.3943186988E+00
   -6.3829812545E+00   -6.3716839428E+00   -6.3604265509E+00   -6.3492088678E+00
   -6.3380306836E+00   -6.3268917901E+00   -6.3157919804E+00   -6.3047310493E+00
   -6.2937087928E+00   -6.2827250084E+00   -6.2717794951E+00   -6.2608720531E+00
   -6.2500024843E+00   -6.2391705916E+00   -6.2283761795E+00   -6.2176190538E+00
   -6.2068990217E+00   -6.1962158915E+00   -6.1855694732E+00   -6.1749595777E+00
   -6.1643860175E+00   -6.1538486062E+00   -6.1433471588E+00   -6.1328814914E+00
   -6.1224514215E+00   -6.1120567677E+00   -6.1016973501E+00   -6.0913729897E+00
   -6.0810835088E+00   -6.0708287311E+00   -6.0606084813E+00   -6.0504225851E+00
   -6.0402708698E+00   -6.0301531636E+00   -6.0200692958E+00   -6.0100190970E+00
   -6.0000023988E+00   -5.9900190340E+00   -5.9800688365E+00   -5.9701516412E+00
   -5.9602672843E+00   -5.9504156030E+00   -5.9405964354E+00   -5.9308096208E+00
   -5.9210549996E+00   -5.9113324133E+00   -5.9016417043E+00   -5.8919827160E+00
   -5.8823552930E+00   -5.8727592808E+00   -5.8631945260E+00   -5.8536608759E+00
   -5.8441581792E+00   -5.8346862854E+00   -5.8252450448E+00   -5.8158343091E+00
   -5.8064539305E+00   -5.7971037624E+00   -5.7877836590E+00   -5.7784934757E+00
   -5.7692330686E+00   -5.7600022947E+00   -5.7508010121E+00   -5.7416290796E+00
   -5.7324863570E+00   -5.7233727049E+00   -5.7142879851E+00   -5.7052320599E+00
   -5.6962047926E+00   -5.6872060474E+00   -5.6782356894E+00   -5.6692935844E+00
   -5.6603795992E+00   -5.6514936013E+00   -5.6426354592E+00   -5.6338050420E+00
   -5.6250022198E+00   -5.6162268634E+00   -5.6074788446E+00   -5.5987580357E+00
   -5.5900643100E+00   -5.5813975415E+00   -5.5727576051E+00   -5.5641443763E+00
   -5.5555577315E+00   -5.5469975478E+00   -5.5384637030E+00   -5.5299560759E+00
   -5.5214745457E+00   -5.5130189926E+00   -5.5045892974E+00   -5.4961853417E+00
   -5.4878070077E+00   -5.4794541785E+00   -5.4711267378E+00   -5.4628245700E+00
   -5.4545475603E+00   -5.4462955943E+00   -5.4380685588E+00   -5.4298663408E+00
   -5.4216888282E+00   -5.4135359096E+00   -5.4054074742E+00   -5.3973034119E+00
   -5.3892236132E+00   -5.3811679693E+00   -5.3731363720E+00   -5.3651287139E+00
   -5.3571448881E+00   -5.3491847883E+00   -5.3412483089E+00   -5.3333353450E+00
   -5.3254457922E+00   -5.3175795467E+00   -5.3097365055E+00   -5.3019165659E+00
   -5.2941196262E+00   -5.2863455849E+00   -5.2785943413E+00   -5.2708657954E+00
   -5.2631598474E+00   -5.2554763986E+00   -5.2478153505E+00   -5.2401766052E+00
   -5.2325600656E+00   -5.2249656349E+00   -5.2173932170E+00   -5.2098427163E+00
   -5.2023140379E+00   -5.1948070872E+00   -5.1873217704E+00   -5.1798579940E+00
   -5.1724156652E+00   -5.1649946917E+00   -5.1575949817E+00   -5.1502164439E+00
   -5.1428589877E+00   -5.1355225227E+00   -5.1282069594E+00   -5.1209122084E+00
   -5.1136381811E+00   -5.1063847893E+00   -5.0991519454E+00   -5.0919395621E+00
   -5.0847475527E+00   -5.0775758311E+00   -5.0704243115E+00   -5.0632929087E+00
   -5.0561815378E+00   -5.0490901147E+00   -5.0420185555E+00   -5.0349667769E+00
   -5.0279346959E+00   -5.0209222303E+00   -5.0139292979E+00   -5.0069558174E+00
   -5.0000017076E+00   -4.9930668879E+00   -4.9861512783E+00   -4.9792547990E+00
   -4.9723773707E+00   -4.9655189146E+00   -4.9586793524E+00   -4.9518586059E+00
   -4.9450565978E+00   -4.9382732508E+00   -4.9315084884E+00   -4.9247622342E+00
   -4.9180344123E+00   -4.9113249474E+00   -4.9046337644E+00   -4.8979607887E+00
   -4.8913059461E+00   -4.8846691628E+00   -4.8780503652E+00   -4.8714494806E+00
   -4.8648664361E+00   -4.8583011597E+00   -4.8517535794E+00   -4.8452236238E+00
   -4.8387112218E+00   -4.8322163028E+00   -4.8257387965E+00   -4.8192786328E+00
   -4.8128357423E+00   -4.8064100558E+00   -4.8000015045E+00   -4.7936100198E+00
   -4.7872355338E+00   -4.7808779787E+00   -4.7745372871E+00   -4.7682133921E+00
   -4.7619062269E+00   -4.7556157253E+00   -4.7493418213E+00   -4.7430844494E+00
   -4.7368435442E+00   -4.7306190409E+00   -4.7244108748E+00   -4.7182189818E+00
   -4.7120432980E+00   -4.7058837597E+00   -4.6997403038E+00   -4.6936128673E+00
   -4.6875013876E+00   -4.6814058026E+00   -4.6753260503E+00   -4.6692620691E+00
   -4.6632137976E+00   -4.6571811750E+00   -4.6511641405E+00   -4.6451626339E+00
   -4.6391765951E+00   -4.6332059644E+00   -4.6272506823E+00   -4.6213106898E+00
   -4.6153859281E+00   -4.6094763386E+00   -4.6035818631E+00   -4.5977024438E+00
   -4.5918380230E+00   -4.5859885434E+00   -4.5801539480E+00   -4.5743341800E+00
   -4.5685291830E+00   -4.5627389008E+00   -4.5569632776E+00   -4.5512022578E+00
   -4.5454557859E+00   -4.5397238071E+00   -4.5340062665E+00   -4.5283031096E+00
   -4.5226142823E+00   -4.5169397306E+00   -4.5112794009E+00   -4.5056332397E+00
   -4.5000011939E+00   -4.4943832106E+00   -4.4887792373E+00   -4.4831892216E+00
   -4.4776131114E+00   -4.4720508549E+00   -4.4665024005E+00   -4.4609676969E+00
   -4.4554466932E+00   -4.4499393383E+00   -4.4444455819E+00   -4.4389653736E+00
   -4.4334986634E+00   -4.4280454014E+00   -4.4226055381E+00   -4.4171790242E+00
   -4.4117658105E+00   -4.4063658483E+00   -4.4009790890E+00   -4.3956054841E+00
   -4.3902449856E+00   -4.3848975456E+00   -4.3795631164E+00   -4.3742416505E+00
   -4.3689331009E+00   -4.3636374205E+00   -4.3583545625E+00   -4.3530844805E+00
   -4.3478271282E+00   -4.3425824595E+00   -4.3373504286E+00   -4.3321309898E+00
   -4.3269240977E+00   -4.3217297072E+00   -4.3165477733E+00   -4.3113782512E+00
   -4.3062210964E+00   -4.3010762645E+00   -4.2959437115E+00   -4.2908233934E+00
   -4.2857152666E+00   -4.2806192875E+00   -4.2755354129E+00   -4.2704635997E+00
   -4.2654038050E+00   -4.2603559862E+00   -4.2553201008E+00   -4.2502961065E+00
   -4.2452839612E+00   -4.2402836231E+00   -4.2352950505E+00   -4.2303182020E+00
   -4.2253530362E+00   -4.2203995121E+00   -4.2154575887E+00   -4.2105272255E+00
   -4.2056083817E+00   -4.2007010172E+00   -4.1958050918E+00   -4.1909205655E+00
   -4.1860473986E+00   -4.1811855515E+00   -4.1763349847E+00   -4.1714956592E+00
   -4.1666675358E+00   -4.1618505757E+00   -4.1570447403E+00   -4.1522499910E+00
   -4.1474662895E+00   -4.1426935976E+00   -4.1379318775E+00   -4.1331810913E+00
   -4.1284412015E+00   -4.1237121705E+00   -4.1189939610E+00   -4.1142865361E+00
   -4.1095898587E+00   -4.1049038922E+00   -4.1002285998E+00   -4.0955639451E+00
   -4.0909098920E+00   -4.0862664043E+00   -4.0816334460E+00   -4.0770109814E+00
   -4.0723989749E+00   -4.0677973910E+00   -4.0632061945E+00   -4.0586253501E+00
   -4.0540548230E+00   -4.0494945783E+00   -4.0449445813E+00   -4.0404047976E+00
   -4.0358751928E+00   -4.0313557327E+00   -4.0268463832E+00   -4.0223471105E+00
   -4.0178578808E+00   -4.0133786606E+00   -4.0089094164E+00   -4.0044501149E+00
   -4.0000007229E+00   -3.9955612076E+00   -3.9911315359E+00   -3.9867116753E+00
   -3.9823015931E+00   -3.9779012570E+00   -3.9735106347E+00   -3.9691296940E+00
   -3.9647584030E+00   -3.9603967297E+00   -3.9560446426E+00   -3.9517021100E+00
   -3.9473691006E+00   -3.9430455829E+00   -3.9387315259E+00   -3.9344268986E+00
   -3.9301316700E+00   -3.9258458094E+00   -3.9215692862E+00   -3.9173020699E+00
   -3.9130441302E+00   -3.9087954369E+00   -3.9045559598E+00   -3.9003256690E+00
   -3.8961045347E+00   -3.8918925272E+00   -3.8876896169E+00   -3.8834957744E+00
   -3.8793109703E+00   -3.8751351755E+00   -3.8709683610E+00   -3.8668104977E+00
   -3.8626615568E+00   -3.8585215098E+00   -3.8543903279E+00   -3.8502679828E+00
   -3.8461544462E+00   -3.8420496898E+00   -3.8379536855E+00   -3.8338664054E+00
   -3.8297878217E+00   -3.8257179066E+00   -3.8216566326E+00   -3.8176039720E+00
   -3.8135598976E+00   -3.8095243821E+00   -3.8054973984E+00   -3.8014789194E+00
   -3.7974689181E+00   -3.7934673680E+00   -3.7894742421E+00   -3.7854895140E+00
   -3.7815131571E+00   -3.7775451452E+00   -3.7735854520E+00   -3.7696340514E+00
   -3.7656909173E+00   -3.7617560238E+00   -3.7578293451E+00   -3.7539108556E+00
   -3.7500005295E+00   -3.7460983416E+00   -3.7422042662E+00   -3.7383182783E+00
   -3.7344403526E+00   -3.7305704641E+00   -3.7267085878E+00   -3.7228546988E+00
   -3.7190087724E+00   -3.7151707839E+00   -3.7113407088E+00   -3.7075185227E+00
   -3.7037042011E+00   -3.6998977199E+00   -3.6960990549E+00   -3.6923081820E+00
   -3.6885250773E+00   -3.6847497169E+00   -3.6809820771E+00   -3.6772221343E+00
   -3.6734698648E+00   -3.6697252452E+00   -3.6659882521E+00   -3.6622588623E+00
   -3.6585370525E+00   -3.6548227997E+00   -3.6511160810E+00   -3.6474168733E+00
   -3.6437251538E+00   -3.6400409000E+00   -3.6363640891E+00   -3.6326946986E+00
   -3.6290327061E+00   -3.6253780892E+00   -3.6217308256E+00   -3.6180908933E+00
   -3.6144582701E+00   -3.6108329339E+00   -3.6072148630E+00   -3.6036040355E+00
   -3.6000004297E+00   -3.5964040238E+00   -3.5928147964E+00   -3.5892327260E+00
   -3.5856577913E+00   -3.5820899708E+00   -3.5785292434E+00   -3.5749755880E+00
   -3.5714289835E+00   -3.5678894089E+00   -3.5643568434E+00   -3.5608312661E+00
   -3.5573126565E+00   -3.5538009937E+00   -3.5502962573E+00   -3.5467984268E+00
   -3.5433074817E+00   -3.5398234019E+00   -3.5363461670E+00   -3.5328757570E+00
   -3.5294121516E+00   -3.5259553310E+00   -3.5225052753E+00   -3.5190619645E+00
   -3.5156253789E+00   -3.5121954989E+00   -3.5087723048E+00   -3.5053557771E+00
   -3.5019458963E+00   -3.4985426432E+00   -3.4951459983E+00   -3.4917559424E+00
   -3.4883724564E+00   -3.4849955212E+00   -3.4816251178E+00   -3.4782612273E+00
   -3.4749038307E+00   -3.4715529094E+00   -3.4682084446E+00   -3.4648704176E+00
   -3.4615388100E+00   -3.4582136031E+00   -3.4548947786E+00   -3.4515823181E+00
   -3.4482762033E+00   -3.4449764160E+00   -3.4416829380E+00   -3.4383957514E+00
   -3.4351148379E+00   -3.4318401799E+00   -3.4285717592E+00   -3.4253095582E+00
   -3.4220535591E+00   -3.4188037443E+00   -3.4155600961E+00   -3.4123225970E+00
   -3.4090912295E+00   -3.4058659763E+00   -3.4026468199E+00   -3.3994337432E+00
   -3.3962267289E+00   -3.3930257598E+00   -3.3898308190E+00   -3.3866418893E+00
   -3.3834589539E+00   -3.3802819958E+00   -3.3771109982E+00   -3.3739459444E+00
   -3.3707868177E+00   -3.3676336015E+00   -3.3644862791E+00   -3.3613448340E+00
   -3.3582092499E+00   -3.3550795102E+00   -3.3519555988E+00   -3.3488374993E+00
   -3.3457251956E+00   -3.3426186714E+00   -3.3395179107E+00   -3.3364228976E+00
   -3.3333336159E+00   -3.3302500498E+00   -3.3271721835E+00   -3.3241000011E+00
   -3.3210334870E+00   -3.3179726255E+00   -3.3149174009E+00   -3.3118677977E+00
   -3.3088238003E+00   -3.3057853935E+00   -3.3027525617E+00   -3.2997252896E+00
   -3.2967035620E+00   -3.2936873637E+00   -3.2906766794E+00   -3.2876714941E+00
   -3.2846717927E+00   -3.2816775602E+00   -3.2786887817E+00   -3.2757054423E+00
  </PP_LOCAL>
 <PP_NONLOCAL>
   <PP_BETA.1
       type="real"
       size="1100"
       columns="4"
       index="1"
       angular_momentum="0"
       cutoff_radius_index=" 308"
       cutoff_radius="    3.0700000000E+00" >
   -4.2565950764E-13    2.8455767002E-02    5.6895212280E-02    8.5302025305E-02
    1.1365991792E-01    1.4195263548E-01    1.7016396791E-01    1.9827776075E-01
    2.2627792602E-01    2.5414845303E-01    2.8187341903E-01    3.0943699974E-01
    3.3682347971E-01    3.6401726244E-01    3.9100288043E-01    4.1776500490E-01
    4.4428845537E-01    4.7055820899E-01    4.9655940964E-01    5.2227737676E-01
    5.4769761396E-01    5.7280581737E-01    5.9758788368E-01    6.2202991800E-01
    6.4611824138E-01    6.6983939809E-01    6.9318016269E-01    7.1612754673E-01
    7.3866880530E-01    7.6079144325E-01    7.8248322126E-01    8.0373216155E-01
    8.2452655350E-01    8.4485495894E-01    8.6470621732E-01    8.8406945065E-01
    9.0293406829E-01    9.2128977150E-01    9.3912655799E-01    9.5643472619E-01
    9.7320487950E-01    9.8942793038E-01    1.0050951044E+00    1.0201979443E+00
    1.0347283138E+00    1.0486784014E+00    1.0620407246E+00    1.0748081335E+00
    1.0869738147E+00    1.0985312953E+00    1.1094744470E+00    1.1197974899E+00
    1.1294949968E+00    1.1385618973E+00    1.1469934820E+00    1.1547854071E+00
    1.1619336988E+00    1.1684347576E+00    1.1742853637E+00    1.1794826810E+00
    1.1840242629E+00    1.1879080567E+00    1.1911324091E+00    1.1936960715E+00
    1.1955982054E+00    1.1968383876E+00    1.1974166162E+00    1.1973333160E+00
    1.1965893440E+00    1.1951859954E+00    1.1931250091E+00    1.1904085735E+00
    1.1870393321E+00    1.1830203890E+00    1.1783553145E+00    1.1730481503E+00
    1.1671034148E+00    1.1605261081E+00    1.1533217168E+00    1.1454962182E+00
    1.1370560851E+00    1.1280082888E+00    1.1183603035E+00    1.1081201086E+00
    1.0972961916E+00    1.0858975504E+00    1.0739336943E+00    1.0614146453E+00
    1.0483509383E+00    1.0347536208E+00    1.0206342517E+00    1.0060048996E+00
    9.9087814009E-01    9.7526705223E-01    9.5918521435E-01    9.4264669881E-01
    9.2566606576E-01    9.0825835612E-01    8.9043908340E-01    8.7222422461E-01
    8.5363021010E-01    8.3467391231E-01    8.1537263351E-01    7.9574409238E-01
    7.7580640953E-01    7.5557809193E-01    7.3507801617E-01    7.1432541070E-01
    6.9333983687E-01    6.7214116894E-01    6.5074957300E-01    6.2918548481E-01
    6.0746958660E-01    5.8562278286E-01    5.6366617512E-01    5.4162103581E-01
    5.1950878119E-01    4.9735094336E-01    4.7516914154E-01    4.5298505247E-01
    4.3082038017E-01    4.0869682496E-01    3.8663605194E-01    3.6465965891E-01
    3.4278914382E-01    3.2104587179E-01    2.9945104191E-01    2.7802565366E-01
    2.5679047328E-01    2.3576600001E-01    2.1497243232E-01    1.9442963430E-01
    1.7415710214E-01    1.5417393093E-01    1.3449878184E-01    1.1514984969E-01
    9.6144831113E-02    7.7500893334E-02    5.9234643658E-02    4.1362099794E-02
    2.3898661069E-02    6.8590806360E-03   -9.7425612401E-03   -2.5892882740E-02
   -4.1579224800E-02   -5.6789674110E-02   -7.1513084704E-02   -8.5739098084E-02
   -9.9458161813E-02   -1.1266154649E-01   -1.2534136109E-01   -1.3749056651E-01
   -1.4910298747E-01   -1.6017332242E-01   -1.7069715179E-01   -1.8067094413E-01
   -1.9009206049E-01   -1.9895875675E-01   -2.0727018402E-01   -2.1502638699E-01
   -2.2222830039E-01   -2.2887774336E-01   -2.3497741186E-01   -2.4053086907E-01
   -2.4554253390E-01   -2.5001766749E-01   -2.5396235779E-01   -2.5738350231E-01
   -2.6028878901E-01   -2.6268667537E-01   -2.6458636582E-01   -2.6599778732E-01
   -2.6693156353E-01   -2.6739898725E-01   -2.6741199151E-01   -2.6698311918E-01
   -2.6612549134E-01   -2.6485277434E-01   -2.6317914580E-01   -2.6111925952E-01
   -2.5868820946E-01   -2.5590149285E-01   -2.5277497257E-01   -2.4932483891E-01
   -2.4556757072E-01   -2.4151989625E-01   -2.3719875352E-01   -2.3262125060E-01
   -2.2780462573E-01   -2.2276620742E-01   -2.1752337472E-01   -2.1209351764E-01
   -2.0649399795E-01   -2.0074211034E-01   -1.9485504418E-01   -1.8884984583E-01
   -1.8274338170E-01   -1.7655230210E-01   -1.7029300604E-01   -1.6398160695E-01
   -1.5763389947E-01   -1.5126532741E-01   -1.4489095289E-01   -1.3852542678E-01
   -1.3218296043E-01   -1.2587729883E-01   -1.1962169522E-01   -1.1342888712E-01
   -1.0731107398E-01   -1.0127989630E-01   -9.5346416364E-02   -8.9521100600E-02
   -8.3813803534E-02   -7.8233753372E-02   -7.2789539226E-02   -6.7489099961E-02
   -6.2339714657E-02   -5.7347994686E-02   -5.2519877371E-02   -4.7860621201E-02
   -4.3374802586E-02   -3.9066314099E-02   -3.4938364179E-02   -3.0993478243E-02
   -2.7233501160E-02   -2.3659601041E-02   -2.0272274274E-02   -1.7071351764E-02
   -1.4056006246E-02   -1.1224760978E-02   -8.5754981721E-03   -6.1054750009E-03
   -3.8113155279E-03   -1.6890787295E-03    2.6561151221E-04    2.0574322270E-03
    3.6913184767E-03    5.1724473600E-03    6.5062076895E-03    7.6981737833E-03
    8.7540792971E-03    9.6797913679E-03    1.0481285188E-02    1.1164619093E-02
    1.1735910237E-02    1.2201310929E-02    1.2566985704E-02    1.2839089182E-02
    1.3023744779E-02    1.3127024331E-02    1.3154928668E-02    1.3113369197E-02
    1.3008150532E-02    1.2844954191E-02    1.2629323417E-02    1.2366649124E-02
    1.2062157001E-02    1.1720895784E-02    1.1347726707E-02    1.0947314134E-02
    1.0524117368E-02    1.0082383643E-02    9.6261422658E-03    9.1591999125E-03
    8.6851370470E-03    8.2073054343E-03    7.7288267248E-03    7.2525920698E-03
    6.7812627302E-03    6.3172716382E-03    5.8628258599E-03    5.4199099138E-03
    4.9902898925E-03    4.5755183304E-03    4.1769397579E-03    3.7956968862E-03
    3.4327373699E-03    3.0888210349E-03    2.7645275539E-03    2.4602645511E-03
    2.1762759765E-03    1.9126515030E-03    1.6693328077E-03    1.4461180464E-03
    1.2427000481E-03    1.0586265755E-03    8.9334726039E-04    7.4593270466E-04
    6.1479386546E-04    4.9880545329E-04    3.9750637401E-04    3.1024829824E-04
    2.3622165689E-04    1.7457152161E-04    1.2435393173E-04    8.4558026121E-05
    5.4105426445E-05    3.1856238048E-05    1.6615025671E-05    7.1203138125E-06
    2.1233357506E-06    2.6069904960E-07   -8.1399994326E-08   -3.1479462239E-08
    2.6838481302E-08    1.1176435626E-08   -7.6236349847E-09   -1.2884356783E-09
 0. 0. 0. 0.
 0. 0. 0. 0.
 0. 0. 0. 0.
 0. 0. 0. 0.
 0. 0. 0. 0.
 0. 0. 0. 0.
 0. 0. 0. 0.
 0. 0. 0. 0.
 0. 0. 0. 0.
 0. 0. 0. 0.
 0. 0. 0. 0.
 0. 0. 0. 0.
 0. 0. 0. 0.
 0. 0. 0. 0.
 0. 0. 0. 0.
 0. 0. 0. 0.
 0. 0. 0. 0.
 0. 0. 0. 0.
 0. 0. 0. 0.
 0. 0. 0. 0.
 0. 0. 0. 0.
 0. 0. 0. 0.
 0. 0. 0. 0.
 0. 0. 0. 0.
 0. 0. 0. 0.
 0. 0. 0. 0.
 0. 0. 0. 0.
 0. 0. 0. 0.
 0. 0. 0. 0.
 0. 0. 0. 0.
 0. 0. 0. 0.
 0. 0. 0. 0.
 0. 0. 0. 0.
 0. 0. 0. 0.
 0. 0. 0. 0.
 0. 0. 0. 0.
 0. 0. 0. 0.
 0. 0. 0. 0.
 0. 0. 0. 0.
 0. 0. 0. 0.
 0. 0. 0. 0.
 0. 0. 0. 0.
 0. 0. 0. 0.
 0. 0. 0. 0.
 0. 0. 0. 0.
 0. 0. 0. 0.
 0. 0. 0. 0.
 0. 0. 0. 0.
 0. 0. 0. 0.
 0. 0. 0. 0.
 0. 0. 0. 0.
 0. 0. 0. 0.
 0. 0. 0. 0.
 0. 0. 0. 0.
 0. 0. 0. 0.
 0. 0. 0. 0.
 0. 0. 0. 0.
 0. 0. 0. 0.
 0. 0. 0. 0.
 0. 0. 0. 0.
 0. 0. 0. 0.
 0. 0. 0. 0.
 0. 0. 0. 0.
 0. 0. 0. 0.
 0. 0. 0. 0.
 0. 0. 0. 0.
 0. 0. 0. 0.
 0. 0. 0. 0.
 0. 0. 0. 0.
 0. 0. 0. 0.
 0. 0. 0. 0.
 0. 0. 0. 0.
 0. 0. 0. 0.
 0. 0. 0. 0.
 0. 0. 0. 0.
 0. 0. 0. 0.
 0. 0. 0. 0.
 0. 0. 0. 0.
 0. 0. 0. 0.
 0. 0. 0. 0.
 0. 0. 0. 0.
 0. 0. 0. 0.
 0. 0. 0. 0.
 0. 0. 0. 0.
 0. 0. 0. 0.
 0. 0. 0. 0.
 0. 0. 0. 0.
 0. 0. 0. 0.
 0. 0. 0. 0.
 0. 0. 0. 0.
 0. 0. 0. 0.
 0. 0. 0. 0.
 0. 0. 0. 0.
 0. 0. 0. 0.
 0. 0. 0. 0.
 0. 0. 0. 0.
 0. 0. 0. 0.
 0. 0. 0. 0.
 0. 0. 0. 0.
 0. 0. 0. 0.
 0. 0. 0. 0.
 0. 0. 0. 0.
 0. 0. 0. 0.
 0. 0. 0. 0.
 0. 0. 0. 0.
 0. 0. 0. 0.
 0. 0. 0. 0.
 0. 0. 0. 0.
 0. 0. 0. 0.
 0. 0. 0. 0.
 0. 0. 0. 0.
 0. 0. 0. 0.
 0. 0. 0. 0.
 0. 0. 0. 0.
 0. 0. 0. 0.
 0. 0. 0. 0.
 0. 0. 0. 0.
 0. 0. 0. 0.
 0. 0. 0. 0.
 0. 0. 0. 0.
 0. 0. 0. 0.
 0. 0. 0. 0.
 0. 0. 0. 0.
 0. 0. 0. 0.
 0. 0. 0. 0.
 0. 0. 0. 0.
 0. 0. 0. 0.
 0. 0. 0. 0.
 0. 0. 0. 0.
 0. 0. 0. 0.
 0. 0. 0. 0.
 0. 0. 0. 0.
 0. 0. 0. 0.
 0. 0. 0. 0.
 0. 0. 0. 0.
 0. 0. 0. 0.
 0. 0. 0. 0.
 0. 0. 0. 0.
 0. 0. 0. 0.
 0. 0. 0. 0.
 0. 0. 0. 0.
 0. 0. 0. 0.
 0. 0. 0. 0.
 0. 0. 0. 0.
 0. 0. 0. 0.
 0. 0. 0. 0.
 0. 0. 0. 0.
 0. 0. 0. 0.
 0. 0. 0. 0.
 0. 0. 0. 0.
 0. 0. 0. 0.
 0. 0. 0. 0.
 0. 0. 0. 0.
 0. 0. 0. 0.
 0. 0. 0. 0.
 0. 0. 0. 0.
 0. 0. 0. 0.
 0. 0. 0. 0.
 0. 0. 0. 0.
 0. 0. 0. 0.
 0. 0. 0. 0.
 0. 0. 0. 0.
 0. 0. 0. 0.
 0. 0. 0. 0.
 0. 0. 0. 0.
 0. 0. 0. 0.
 0. 0. 0. 0.
 0. 0. 0. 0.
 0. 0. 0. 0.
 0. 0. 0. 0.
 0. 0. 0. 0.
 0. 0. 0. 0.
 0. 0. 0. 0.
 0. 0. 0. 0.
 0. 0. 0. 0.
 0. 0. 0. 0.
 0. 0. 0. 0.
 0. 0. 0. 0.
 0. 0. 0. 0.
 0. 0. 0. 0.
 0. 0. 0. 0.
 0. 0. 0. 0.
 0. 0. 0. 0.
 0. 0. 0. 0.
 0. 0. 0. 0.
 0. 0. 0. 0.
 0. 0. 0. 0.
 0. 0. 0. 0.
 0. 0. 0. 0.
 0. 0. 0. 0.
 0. 0. 0. 0.
 0. 0. 0. 0.
 0. 0. 0. 0.
 0. 0. 0. 0.
 0. 0. 0. 0.
 0. 0. 0. 0.
 0. 0. 0. 0.
 0. 0. 0. 0.
   </PP_BETA.1>
   <PP_BETA.2
       type="real"
       size="1100"
       columns="4"
       index="2"
       angular_momentum="0"
       cutoff_radius_index=" 308"
       cutoff_radius="    3.0700000000E+00" >
    1.9356738434E-12   -1.0647379974E-02   -2.1278580141E-02   -3.1877444945E-02
   -4.2427867244E-02   -5.2913812283E-02   -6.3319341406E-02   -7.3628635400E-02
   -8.3826017400E-02   -9.3895975255E-02   -1.0382318329E-01   -1.1359252339E-01
   -1.2318910528E-01   -1.3259828603E-01   -1.4180568862E-01   -1.5079721957E-01
   -1.5955908552E-01   -1.6807780880E-01   -1.7634024185E-01   -1.8433358052E-01
   -1.9204537615E-01   -1.9946354651E-01   -2.0657638547E-01   -2.1337257144E-01
   -2.1984117460E-01   -2.2597166286E-01   -2.3175390660E-01   -2.3717818219E-01
   -2.4223517437E-01   -2.4691597736E-01   -2.5121209492E-01   -2.5511543934E-01
   -2.5861832931E-01   -2.6171348685E-01   -2.6439403334E-01   -2.6665348463E-01
   -2.6848574536E-01   -2.6988510265E-01   -2.7084621902E-01   -2.7136412482E-01
   -2.7143421019E-01   -2.7105221662E-01   -2.7021422822E-01   -2.6891666274E-01
   -2.6715626258E-01   -2.6493008571E-01   -2.6223549667E-01   -2.5907015781E-01
   -2.5543202071E-01   -2.5131931805E-01   -2.4673055589E-01   -2.4166450646E-01
   -2.3612020168E-01   -2.3009692729E-01   -2.2359421780E-01   -2.1661185230E-01
   -2.0914985127E-01   -2.0120847420E-01   -1.9278821848E-01   -1.8388981924E-01
   -1.7451425036E-01   -1.6466272670E-01   -1.5433670747E-01   -1.4353790093E-01
   -1.3226827019E-01   -1.2053004038E-01   -1.0832570697E-01   -9.5658045393E-02
   -8.2530121797E-02   -6.8945305031E-02   -5.4907279729E-02   -4.0420060501E-02
   -2.5488007140E-02   -1.0115840803E-02    5.6913389276E-03    2.1928036168E-02
    3.8588340146E-02    5.5665905992E-02    7.3153935018E-02    9.1045154596E-02
    1.0933179775E-01    1.2800558262E-01    1.4705769182E-01    1.6647875203E-01
    1.8625881372E-01    2.0638733132E-01    2.2685314395E-01    2.4764445677E-01
    2.6874882326E-01    2.9015312840E-01    3.1184357307E-01    3.3380565970E-01
    3.5602417936E-01    3.7848320052E-01    4.0116605943E-01    4.2405535251E-01
    4.4713293064E-01    4.7037989574E-01    4.9377659947E-01    5.1730264448E-01
    5.4093688810E-01    5.6465744861E-01    5.8844171435E-01    6.1226635551E-01
    6.3610733884E-01    6.5993994533E-01    6.8373879086E-01    7.0747784987E-01
    7.3113048218E-01    7.5466946281E-01    7.7806701497E-01    8.0129484607E-01
    8.2432418687E-01    8.4712583359E-01    8.6967019305E-01    8.9192733075E-01
    9.1386702169E-01    9.3545880408E-01    9.5667203556E-01    9.7747595209E-01
    9.9783972910E-01    1.0177325450E+00    1.0371236467E+00    1.0559824171E+00
    1.0742784444E+00    1.0919815927E+00    1.1090620743E+00    1.1254905229E+00
    1.1412380676E+00    1.1562764081E+00    1.1705778896E+00    1.1841155784E+00
    1.1968633374E+00    1.2087959011E+00    1.2198889501E+00    1.2301191849E+00
    1.2394643981E+00    1.2479035462E+00    1.2554168183E+00    1.2619857045E+00
    1.2675930608E+00    1.2722231724E+00    1.2758618141E+00    1.2784963073E+00
    1.2801155745E+00    1.2807101900E+00    1.2802724269E+00    1.2787963007E+00
    1.2762776082E+00    1.2727139625E+00    1.2681048235E+00    1.2624515239E+00
    1.2557572901E+00    1.2480272586E+00    1.2392684873E+00    1.2294899609E+00
    1.2187025927E+00    1.2069192195E+00    1.1941545918E+00    1.1804253591E+00
    1.1657500487E+00    1.1501490405E+00    1.1336445349E+00    1.1162605168E+00
    1.0980227132E+00    1.0789585465E+00    1.0590970822E+00    1.0384689718E+00
    1.0171063907E+00    9.9504297169E-01    9.7231373403E-01    9.4895500768E-01
    9.2500435395E-01    9.0050048205E-01    8.7548316201E-01    8.4999313421E-01
    8.2407201578E-01    7.9776220412E-01    7.7110677784E-01    7.4414939545E-01
    7.1693419198E-01    6.8950567406E-01    6.6190861351E-01    6.3418793998E-01
    6.0638863288E-01    5.7855561285E-01    5.5073363332E-01    5.2296717219E-01
    4.9530032420E-01    4.6777669425E-01    4.4043929191E-01    4.1333042749E-01
    3.8649161005E-01    3.5996344748E-01    3.3378554916E-01    3.0799643123E-01
    2.8263342494E-01    2.5773258831E-01    2.3332862117E-01    2.0945478404E-01
    1.8614282095E-01    1.6342288632E-01    1.4132347626E-01    1.1987136430E-01
    9.9091541758E-02    7.9007162865E-02    5.9639494722E-02    4.1007872229E-02
    2.3129657998E-02    6.0202073191E-03   -1.0307161788E-02   -2.5841193453E-02
   -4.0572713766E-02   -5.4494645551E-02   -6.7602018176E-02   -7.9891972448E-02
   -9.1363760705E-02   -1.0201874221E-01   -1.1186037396E-01   -1.2089419709E-01
   -1.2912781899E-01   -1.3657089133E-01   -1.4323508422E-01   -1.4913405658E-01
   -1.5428342317E-01   -1.5870071823E-01   -1.6240535614E-01   -1.6541858934E-01
   -1.6776346397E-01   -1.6946477164E-01   -1.7054900557E-01   -1.7104428174E-01
   -1.7098038376E-01   -1.7038842695E-01   -1.6930021779E-01   -1.6774761339E-01
   -1.6576234991E-01   -1.6337601097E-01   -1.6061992338E-01   -1.5752507562E-01
   -1.5412203752E-01   -1.5044088244E-01   -1.4651111248E-01   -1.4236158696E-01
   -1.3802045430E-01   -1.3351508768E-01   -1.2887202456E-01   -1.2411691033E-01
   -1.1927444617E-01   -1.1436834131E-01   -1.0942126983E-01   -1.0445483211E-01
   -9.9489520937E-02   -9.4544692498E-02   -8.9638542136E-02   -8.4788085016E-02
   -8.0009141652E-02   -7.5316328304E-02   -7.0723052210E-02   -6.6241511588E-02
   -6.1882700344E-02   -5.7656417399E-02   -5.3571280518E-02   -4.9634744503E-02
   -4.5853123618E-02   -4.2231618066E-02   -3.8774344348E-02   -3.5484369308E-02
   -3.2363747645E-02   -2.9413562665E-02   -2.6633970053E-02   -2.4024244382E-02
   -2.1582828146E-02   -1.9307383014E-02   -1.7194843033E-02   -1.5241469513E-02
   -1.3442907347E-02   -1.1794242255E-02   -1.0290058868E-02   -8.9244995586E-03
   -7.6913233154E-03   -6.5839673135E-03   -5.5955962999E-03   -4.7191445644E-03
   -3.9474767641E-03   -3.2732699619E-03   -2.6892059233E-03   -2.1869850438E-03
   -1.7563410641E-03   -1.3890695173E-03   -1.0797630253E-03   -8.2279823981E-04
   -6.1244253288E-04   -4.4327679744E-04   -3.1005138508E-04   -2.0777390052E-04
   -1.3171463641E-04   -7.7440548396E-05   -4.0809507585E-05   -1.7986520816E-05
   -5.7089347850E-06   -7.9789726827E-07    2.8525494517E-07    1.2740672256E-07
   -8.2722814245E-08   -3.4932789456E-08    2.1174671502E-08    3.5708547526E-09
 0. 0. 0. 0.
 0. 0. 0. 0.
 0. 0. 0. 0.
 0. 0. 0. 0.
 0. 0. 0. 0.
 0. 0. 0. 0.
 0. 0. 0. 0.
 0. 0. 0. 0.
 0. 0. 0. 0.
 0. 0. 0. 0.
 0. 0. 0. 0.
 0. 0. 0. 0.
 0. 0. 0. 0.
 0. 0. 0. 0.
 0. 0. 0. 0.
 0. 0. 0. 0.
 0. 0. 0. 0.
 0. 0. 0. 0.
 0. 0. 0. 0.
 0. 0. 0. 0.
 0. 0. 0. 0.
 0. 0. 0. 0.
 0. 0. 0. 0.
 0. 0. 0. 0.
 0. 0. 0. 0.
 0. 0. 0. 0.
 0. 0. 0. 0.
 0. 0. 0. 0.
 0. 0. 0. 0.
 0. 0. 0. 0.
 0. 0. 0. 0.
 0. 0. 0. 0.
 0. 0. 0. 0.
 0. 0. 0. 0.
 0. 0. 0. 0.
 0. 0. 0. 0.
 0. 0. 0. 0.
 0. 0. 0. 0.
 0. 0. 0. 0.
 0. 0. 0. 0.
 0. 0. 0. 0.
 0. 0. 0. 0.
 0. 0. 0. 0.
 0. 0. 0. 0.
 0. 0. 0. 0.
 0. 0. 0. 0.
 0. 0. 0. 0.
 0. 0. 0. 0.
 0. 0. 0. 0.
 0. 0. 0. 0.
 0. 0. 0. 0.
 0. 0. 0. 0.
 0. 0. 0. 0.
 0. 0. 0. 0.
 0. 0. 0. 0.
 0. 0. 0. 0.
 0. 0. 0. 0.
 0. 0. 0. 0.
 0. 0. 0. 0.
 0. 0. 0. 0.
 0. 0. 0. 0.
 0. 0. 0. 0.
 0. 0. 0. 0.
 0. 0. 0. 0.
 0. 0. 0. 0.
 0. 0. 0. 0.
 0. 0. 0. 0.
 0. 0. 0. 0.
 0. 0. 0. 0.
 0. 0. 0. 0.
 0. 0. 0. 0.
 0. 0. 0. 0.
 0. 0. 0. 0.
 0. 0. 0. 0.
 0. 0. 0. 0.
 0. 0. 0. 0.
 0. 0. 0. 0.
 0. 0. 0. 0.
 0. 0. 0. 0.
 0. 0. 0. 0.
 0. 0. 0. 0.
 0. 0. 0. 0.
 0. 0. 0. 0.
 0. 0. 0. 0.
 0. 0. 0. 0.
 0. 0. 0. 0.
 0. 0. 0. 0.
 0. 0. 0. 0.
 0. 0. 0. 0.
 0. 0. 0. 0.
 0. 0. 0. 0.
 0. 0. 0. 0.
 0. 0. 0. 0.
 0. 0. 0. 0.
 0. 0. 0. 0.
 0. 0. 0. 0.
 0. 0. 0. 0.
 0. 0. 0. 0.
 0. 0. 0. 0.
 0. 0. 0. 0.
 0. 0. 0. 0.
 0. 0. 0. 0.
 0. 0. 0. 0.
 0. 0. 0. 0.
 0. 0. 0. 0.
 0. 0. 0. 0.
 0. 0. 0. 0.
 0. 0. 0. 0.
 0. 0. 0. 0.
 0. 0. 0. 0.
 0. 0. 0. 0.
 0. 0. 0. 0.
 0. 0. 0. 0.
 0. 0. 0. 0.
 0. 0. 0. 0.
 0. 0. 0. 0.
 0. 0. 0. 0.
 0. 0. 0. 0.
 0. 0. 0. 0.
 0. 0. 0. 0.
 0. 0. 0. 0.
 0. 0. 0. 0.
 0. 0. 0. 0.
 0. 0. 0. 0.
 0. 0. 0. 0.
 0. 0. 0. 0.
 0. 0. 0. 0.
 0. 0. 0. 0.
 0. 0. 0. 0.
 0. 0. 0. 0.
 0. 0. 0. 0.
 0. 0. 0. 0.
 0. 0. 0. 0.
 0. 0. 0. 0.
 0. 0. 0. 0.
 0. 0. 0. 0.
 0. 0. 0. 0.
 0. 0. 0. 0.
 0. 0. 0. 0.
 0. 0. 0. 0.
 0. 0. 0. 0.
 0. 0. 0. 0.
 0. 0. 0. 0.
 0. 0. 0. 0.
 0. 0. 0. 0.
 0. 0. 0. 0.
 0. 0. 0. 0.
 0. 0. 0. 0.
 0. 0. 0. 0.
 0. 0. 0. 0.
 0. 0. 0. 0.
 0. 0. 0. 0.
 0. 0. 0. 0.
 0. 0. 0. 0.
 0. 0. 0. 0.
 0. 0. 0. 0.
 0. 0. 0. 0.
 0. 0. 0. 0.
 0. 0. 0. 0.
 0. 0. 0. 0.
 0. 0. 0. 0.
 0. 0. 0. 0.
 0. 0. 0. 0.
 0. 0. 0. 0.
 0. 0. 0. 0.
 0. 0. 0. 0.
 0. 0. 0. 0.
 0. 0. 0. 0.
 0. 0. 0. 0.
 0. 0. 0. 0.
 0. 0. 0. 0.
 0. 0. 0. 0.
 0. 0. 0. 0.
 0. 0. 0. 0.
 0. 0. 0. 0.
 0. 0. 0. 0.
 0. 0. 0. 0.
 0. 0. 0. 0.
 0. 0. 0. 0.
 0. 0. 0. 0.
 0. 0. 0. 0.
 0. 0. 0. 0.
 0. 0. 0. 0.
 0. 0. 0. 0.
 0. 0. 0. 0.
 0. 0. 0. 0.
 0. 0. 0. 0.
 0. 0. 0. 0.
 0. 0. 0. 0.
 0. 0. 0. 0.
 0. 0. 0. 0.
 0. 0. 0. 0.
 0. 0. 0. 0.
 0. 0. 0. 0.
 0. 0. 0. 0.
 0. 0. 0. 0.
 0. 0. 0. 0.
 0. 0. 0. 0.
   </PP_BETA.2>
   <PP_BETA.3
       type="real"
       size="1100"
       columns="4"
       index="3"
       angular_momentum="1"
       cutoff_radius_index=" 308"
       cutoff_radius="    3.0700000000E+00" >
    2.0191175121E-12    4.0807213077E-04    1.6317547029E-03    3.6694469545E-03
    6.5184832771E-03    1.0175136704E-02    1.4634623784E-02    1.9891110845E-02
    2.5937721615E-02    3.2766546215E-02    4.0368651496E-02    4.8734092705E-02
    5.7851926469E-02    6.7710225075E-02    7.8296092024E-02    8.9595678836E-02
    1.0159420309E-01    1.1427596765E-01    1.2762438111E-01    1.4162197930E-01
    1.5625044800E-01    1.7149064669E-01    1.8732263337E-01    2.0372569032E-01
    2.2067835099E-01    2.3815842768E-01    2.5614304022E-01    2.7460864547E-01
    2.9353106767E-01    3.1288552954E-01    3.3264668420E-01    3.5278864768E-01
    3.7328503218E-01    3.9410897992E-01    4.1523319755E-01    4.3662999105E-01
    4.5827130123E-01    4.8012873953E-01    5.0217362431E-01    5.2437701746E-01
    5.4670976125E-01    5.6914251556E-01    5.9164579526E-01    6.1419000767E-01
    6.3674549033E-01    6.5928254868E-01    6.8177149386E-01    7.0418268046E-01
    7.2648654424E-01    7.4865363976E-01    7.7065467780E-01    7.9246056267E-01
    8.1404242927E-01    8.3537167982E-01    8.5642002038E-01    8.7715949694E-01
    8.9756253112E-01    9.1760195544E-01    9.3725104813E-01    9.5648356742E-01
    9.7527378523E-01    9.9359652031E-01    1.0114271707E+00    1.0287417456E+00
    1.0455168965E+00    1.0617299474E+00    1.0773589243E+00    1.0923825845E+00
    1.1067804438E+00    1.1205328038E+00    1.1336207781E+00    1.1460263172E+00
    1.1577322327E+00    1.1687222205E+00    1.1789808824E+00    1.1884937477E+00
    1.1972472924E+00    1.2052289583E+00    1.2124271700E+00    1.2188313518E+00
    1.2244319420E+00    1.2292204072E+00    1.2331892544E+00    1.2363320422E+00
    1.2386433910E+00    1.2401189905E+00    1.2407556075E+00    1.2405510912E+00
    1.2395043773E+00    1.2376154910E+00    1.2348855475E+00    1.2313167528E+00
    1.2269124008E+00    1.2216768711E+00    1.2156156231E+00    1.2087351906E+00
    1.2010431734E+00    1.1925482277E+00    1.1832600556E+00    1.1731893922E+00
    1.1623479916E+00    1.1507486111E+00    1.1384049942E+00    1.1253318518E+00
    1.1115448417E+00    1.0970605472E+00    1.0818964537E+00    1.0660709238E+00
    1.0496031712E+00    1.0325132334E+00    1.0148219420E+00    9.9655089323E-01
    9.7772241535E-01    9.5835953627E-01    9.3848594907E-01    9.1812597657E-01
    8.9730453474E-01    8.7604709497E-01    8.5437964531E-01    8.3232865067E-01
    8.0992101214E-01    7.8718402538E-01    7.6414533824E-01    7.4083290758E-01
    7.1727495550E-01    6.9349992493E-01    6.6953643467E-01    6.4541323402E-01
    6.2115915705E-01    5.9680307661E-01    5.7237385808E-01    5.4790031304E-01
    5.2341115298E-01    4.9893494301E-01    4.7450005571E-01    4.5013462533E-01
    4.2586650223E-01    4.0172320781E-01    3.7773188997E-01    3.5391927916E-01
    3.3031164517E-01    3.0693475472E-01    2.8381382994E-01    2.6097350785E-01
    2.3843780090E-01    2.1623005869E-01    1.9437293094E-01    1.7288833175E-01
    1.5179740535E-01    1.3112049327E-01    1.1087710313E-01    9.1085879008E-02
    7.1764573610E-02    5.2930022113E-02    3.4598117911E-02    1.6783790230E-02
   -4.9901631032E-04   -1.7237360135E-02   -3.3419319115E-02   -4.9034004889E-02
   -6.4071575074E-02   -7.8523243335E-02   -9.2381287279E-02   -1.0563905418E-01
   -1.1829096448E-01   -1.3033251311E-01   -1.4176026862E-01   -1.5257187001E-01
   -1.6276602149E-01   -1.7234248496E-01   -1.8130207039E-01   -1.8964662403E-01
   -1.9737901451E-01   -2.0450311689E-01   -2.1102379470E-01   -2.1694687991E-01
   -2.2227915109E-01   -2.2702830962E-01   -2.3120295410E-01   -2.3481255300E-01
   -2.3786741570E-01   -2.4037866180E-01   -2.4235818906E-01   -2.4381863976E-01
   -2.4477336576E-01   -2.4523639229E-01   -2.4522238053E-01   -2.4474658911E-01
   -2.4382483462E-01   -2.4247345120E-01   -2.4070924932E-01   -2.3854947388E-01
   -2.3601176170E-01   -2.3311409844E-01   -2.2987477519E-01   -2.2631234473E-01
   -2.2244557752E-01   -2.1829341762E-01   -2.1387493864E-01   -2.0920929965E-01
   -2.0431570137E-01   -1.9921334252E-01   -1.9392137661E-01   -1.8845886909E-01
   -1.8284475507E-01   -1.7709779753E-01   -1.7123654636E-01   -1.6527929798E-01
   -1.5924405586E-01   -1.5314849187E-01   -1.4700990857E-01   -1.4084520250E-01
   -1.3467082843E-01   -1.2850276481E-01   -1.2235648022E-01   -1.1624690102E-01
   -1.1018838024E-01   -1.0419466754E-01   -9.8278880561E-02   -9.2453477409E-02
   -8.6730230448E-02   -8.1120201346E-02   -7.5633717386E-02   -7.0280349045E-02
   -6.5068888826E-02   -6.0007331339E-02   -5.5102854609E-02   -5.0361802596E-02
   -4.5789668832E-02   -4.1391081630E-02   -3.7169788728E-02   -3.3128651958E-02
   -2.9269609656E-02   -2.5593740205E-02   -2.2101409940E-02   -1.8792433473E-02
   -1.5666115631E-02   -1.2721259345E-02   -9.9561928003E-03   -7.3687921562E-03
   -4.9565050506E-03   -2.7163745937E-03   -6.4506372065E-04    1.2611201822E-03
    3.0062004553E-03    4.5945062257E-03    6.0306474232E-03    7.3194898251E-03
    8.4661301983E-03    9.4758716086E-03    1.0354198962E-02    1.1106754840E-02
    1.1739315690E-02    1.2257768423E-02    1.2668087478E-02    1.2976312394E-02
    1.3188525943E-02    1.3310832864E-02    1.3349339232E-02    1.3310132501E-02
    1.3199262248E-02    1.3022721654E-02    1.2786429729E-02    1.2496214310E-02
    1.2157795850E-02    1.1776771996E-02    1.1358602977E-02    1.0908597795E-02
    1.0431901231E-02    9.9334816467E-03    9.4181195890E-03    8.8903971756E-03
    8.3546882608E-03    7.8151493583E-03    7.2757113004E-03    6.7400716197E-03
    6.2116876474E-03    5.6937702174E-03    5.1892780309E-03    4.7009127309E-03
    4.2311145021E-03    3.7820592589E-03    3.3556519860E-03    2.9535182596E-03
    2.5770394859E-03    2.2272872199E-03    1.9050778720E-03    1.6105770452E-03
    1.3429075901E-03    1.1016214211E-03    8.8696016020E-04    6.9874701328E-04
    5.3641130681E-04    3.9912447211E-04    2.8573624072E-04    1.9479476610E-04
    1.2453840891E-04    7.2892833085E-05    3.7493517310E-05    1.5633708595E-05
    4.3813804765E-06    4.2026834285E-07   -1.7110634613E-07   -4.9514395915E-08
    5.3891774891E-08    2.1951506000E-08   -1.6726684590E-08   -2.8204721516E-09
 0. 0. 0. 0.
 0. 0. 0. 0.
 0. 0. 0. 0.
 0. 0. 0. 0.
 0. 0. 0. 0.
 0. 0. 0. 0.
 0. 0. 0. 0.
 0. 0. 0. 0.
 0. 0. 0. 0.
 0. 0. 0. 0.
 0. 0. 0. 0.
 0. 0. 0. 0.
 0. 0. 0. 0.
 0. 0. 0. 0.
 0. 0. 0. 0.
 0. 0. 0. 0.
 0. 0. 0. 0.
 0. 0. 0. 0.
 0. 0. 0. 0.
 0. 0. 0. 0.
 0. 0. 0. 0.
 0. 0. 0. 0.
 0. 0. 0. 0.
 0. 0. 0. 0.
 0. 0. 0. 0.
 0. 0. 0. 0.
 0. 0. 0. 0.
 0. 0. 0. 0.
 0. 0. 0. 0.
 0. 0. 0. 0.
 0. 0. 0. 0.
 0. 0. 0. 0.
 0. 0. 0. 0.
 0. 0. 0. 0.
 0. 0. 0. 0.
 0. 0. 0. 0.
 0. 0. 0. 0.
 0. 0. 0. 0.
 0. 0. 0. 0.
 0. 0. 0. 0.
 0. 0. 0. 0.
 0. 0. 0. 0.
 0. 0. 0. 0.
 0. 0. 0. 0.
 0. 0. 0. 0.
 0. 0. 0. 0.
 0. 0. 0. 0.
 0. 0. 0. 0.
 0. 0. 0. 0.
 0. 0. 0. 0.
 0. 0. 0. 0.
 0. 0. 0. 0.
 0. 0. 0. 0.
 0. 0. 0. 0.
 0. 0. 0. 0.
 0. 0. 0. 0.
 0. 0. 0. 0.
 0. 0. 0. 0.
 0. 0. 0. 0.
 0. 0. 0. 0.
 0. 0. 0. 0.
 0. 0. 0. 0.
 0. 0. 0. 0.
 0. 0. 0. 0.
 0. 0. 0. 0.
 0. 0. 0. 0.
 0. 0. 0. 0.
 0. 0. 0. 0.
 0. 0. 0. 0.
 0. 0. 0. 0.
 0. 0. 0. 0.
 0. 0. 0. 0.
 0. 0. 0. 0.
 0. 0. 0. 0.
 0. 0. 0. 0.
 0. 0. 0. 0.
 0. 0. 0. 0.
 0. 0. 0. 0.
 0. 0. 0. 0.
 0. 0. 0. 0.
 0. 0. 0. 0.
 0. 0. 0. 0.
 0. 0. 0. 0.
 0. 0. 0. 0.
 0. 0. 0. 0.
 0. 0. 0. 0.
 0. 0. 0. 0.
 0. 0. 0. 0.
 0. 0. 0. 0.
 0. 0. 0. 0.
 0. 0. 0. 0.
 0. 0. 0. 0.
 0. 0. 0. 0.
 0. 0. 0. 0.
 0. 0. 0. 0.
 0. 0. 0. 0.
 0. 0. 0. 0.
 0. 0. 0. 0.
 0. 0. 0. 0.
 0. 0. 0. 0.
 0. 0. 0. 0.
 0. 0. 0. 0.
 0. 0. 0. 0.
 0. 0. 0. 0.
 0. 0. 0. 0.
 0. 0. 0. 0.
 0. 0. 0. 0.
 0. 0. 0. 0.
 0. 0. 0. 0.
 0. 0. 0. 0.
 0. 0. 0. 0.
 0. 0. 0. 0.
 0. 0. 0. 0.
 0. 0. 0. 0.
 0. 0. 0. 0.
 0. 0. 0. 0.
 0. 0. 0. 0.
 0. 0. 0. 0.
 0. 0. 0. 0.
 0. 0. 0. 0.
 0. 0. 0. 0.
 0. 0. 0. 0.
 0. 0. 0. 0.
 0. 0. 0. 0.
 0. 0. 0. 0.
 0. 0. 0. 0.
 0. 0. 0. 0.
 0. 0. 0. 0.
 0. 0. 0. 0.
 0. 0. 0. 0.
 0. 0. 0. 0.
 0. 0. 0. 0.
 0. 0. 0. 0.
 0. 0. 0. 0.
 0. 0. 0. 0.
 0. 0. 0. 0.
 0. 0. 0. 0.
 0. 0. 0. 0.
 0. 0. 0. 0.
 0. 0. 0. 0.
 0. 0. 0. 0.
 0. 0. 0. 0.
 0. 0. 0. 0.
 0. 0. 0. 0.
 0. 0. 0. 0.
 0. 0. 0. 0.
 0. 0. 0. 0.
 0. 0. 0. 0.
 0. 0. 0. 0.
 0. 0. 0. 0.
 0. 0. 0. 0.
 0. 0. 0. 0.
 0. 0. 0. 0.
 0. 0. 0. 0.
 0. 0. 0. 0.
 0. 0. 0. 0.
 0. 0. 0. 0.
 0. 0. 0. 0.
 0. 0. 0. 0.
 0. 0. 0. 0.
 0. 0. 0. 0.
 0. 0. 0. 0.
 0. 0. 0. 0.
 0. 0. 0. 0.
 0. 0. 0. 0.
 0. 0. 0. 0.
 0. 0. 0. 0.
 0. 0. 0. 0.
 0. 0. 0. 0.
 0. 0. 0. 0.
 0. 0. 0. 0.
 0. 0. 0. 0.
 0. 0. 0. 0.
 0. 0. 0. 0.
 0. 0. 0. 0.
 0. 0. 0. 0.
 0. 0. 0. 0.
 0. 0. 0. 0.
 0. 0. 0. 0.
 0. 0. 0. 0.
 0. 0. 0. 0.
 0. 0. 0. 0.
 0. 0. 0. 0.
 0. 0. 0. 0.
 0. 0. 0. 0.
 0. 0. 0. 0.
 0. 0. 0. 0.
 0. 0. 0. 0.
 0. 0. 0. 0.
 0. 0. 0. 0.
 0. 0. 0. 0.
 0. 0. 0. 0.
 0. 0. 0. 0.
 0. 0. 0. 0.
 0. 0. 0. 0.
 0. 0. 0. 0.
 0. 0. 0. 0.
 0. 0. 0. 0.
   </PP_BETA.3>
   <PP_BETA.4
       type="real"
       size="1100"
       columns="4"
       index="4"
       angular_momentum="1"
       cutoff_radius_index=" 308"
       cutoff_radius="    3.0700000000E+00" >
   -4.2958067659E-12   -2.2384370390E-04   -8.9486300937E-04   -2.0115234380E-03
   -3.5712706581E-03   -5.5705351748E-03   -8.0047388817E-03   -1.0868303457E-02
   -1.4154660583E-02   -1.7856263975E-02   -2.1964603167E-02   -2.6470219060E-02
   -3.1362721153E-02   -3.6630806457E-02   -4.2262280015E-02   -4.8244077011E-02
   -5.4562286391E-02   -6.1202175959E-02   -6.8148218892E-02   -7.5384121604E-02
   -8.2892852909E-02   -9.0656674413E-02   -9.8657172077E-02   -1.0687528887E-01
   -1.1529135846E-01   -1.2388513988E-01   -1.3263585302E-01   -1.4152221504E-01
   -1.5052247746E-01   -1.5961446390E-01   -1.6877560853E-01   -1.7798299490E-01
   -1.8721339539E-01   -1.9644331091E-01   -2.0564901100E-01   -2.1480657412E-01
   -2.2389192820E-01   -2.3288089123E-01   -2.4174921191E-01   -2.5047261033E-01
   -2.5902681851E-01   -2.6738762086E-01   -2.7553089442E-01   -2.8343264886E-01
   -2.9106906615E-01   -2.9841653995E-01   -3.0545171450E-01   -3.1215152315E-01
   -3.1849322634E-01   -3.2445444908E-01   -3.3001321786E-01   -3.3514799692E-01
   -3.3983772389E-01   -3.4406184478E-01   -3.4780034823E-01   -3.5103379902E-01
   -3.5374337083E-01   -3.5591087823E-01   -3.5751880780E-01   -3.5855034849E-01
   -3.5898942103E-01   -3.5882070657E-01   -3.5802967431E-01   -3.5660260832E-01
   -3.5452663337E-01   -3.5178973980E-01   -3.4838080746E-01   -3.4428962865E-01
   -3.3950693007E-01   -3.3402439373E-01   -3.2783467684E-01   -3.2093143067E-01
   -3.1330931830E-01   -3.0496403131E-01   -2.9589230535E-01   -2.8609193459E-01
   -2.7556178501E-01   -2.6430180650E-01   -2.5231304385E-01   -2.3959764635E-01
   -2.2615887636E-01   -2.1200111638E-01   -1.9712987502E-01   -1.8155179150E-01
   -1.6527463883E-01   -1.4830732561E-01   -1.3065989641E-01   -1.1234353063E-01
   -9.3370539967E-02   -7.3754364253E-02   -5.3509565810E-02   -3.2651822167E-02
   -1.1197917162E-02    1.0834269618E-02    3.3425775098E-02    5.6556566699E-02
    8.0205558088E-02    1.0435062672E-01    1.2896863317E-01    1.5403544237E-01
    1.7952594664E-01    2.0541409066E-01    2.3167289834E-01    2.5827450160E-01
    2.8519017109E-01    3.1239034884E-01    3.3984468289E-01    3.6752206383E-01
    3.9539066332E-01    4.2341797444E-01    4.5157085410E-01    4.7981556721E-01
    5.0811783277E-01    5.3644287180E-01    5.6475545701E-01    5.9301996426E-01
    6.2120042568E-01    6.4926058443E-01    6.7716395103E-01    7.0487386115E-01
    7.3235353482E-01    7.5956613701E-01    7.8647483935E-01    8.1304288303E-01
    8.3923364272E-01    8.6501069136E-01    8.9033786577E-01    9.1517933287E-01
    9.3949965646E-01    9.6326386436E-01    9.8643751578E-01    1.0089867688E+00
    1.0308784478E+00    1.0520801105E+00    1.0725601148E+00    1.0922876852E+00
    1.1112329780E+00    1.1293671460E+00    1.1466624019E+00    1.1630920810E+00
    1.1786307013E+00    1.1932540236E+00    1.2069391082E+00    1.2196643708E+00
    1.2314096359E+00    1.2421561878E+00    1.2518868191E+00    1.2605858768E+00
    1.2682393057E+00    1.2748346883E+00    1.2803612823E+00    1.2848100543E+00
    1.2881737105E+00    1.2904467239E+00    1.2916253573E+00    1.2917076839E+00
    1.2906936022E+00    1.2885848488E+00    1.2853850061E+00    1.2810995061E+00
    1.2757356304E+00    1.2693025059E+00    1.2618110961E+00    1.2532741881E+00
    1.2437063759E+00    1.2331240388E+00    1.2215453161E+00    1.2089900770E+00
    1.1954798871E+00    1.1810379699E+00    1.1656891652E+00    1.1494598826E+00
    1.1323780515E+00    1.1144730680E+00    1.0957757365E+00    1.0763182094E+00
    1.0561339226E+00    1.0352575275E+00    1.0137248205E+00    9.9157266905E-01
    9.6883893525E-01    9.4556239658E-01    9.2178266439E-01    8.9754010010E-01
    8.7287572941E-01    8.4783115469E-01    8.2244846574E-01    7.9677014923E-01
    7.7083899689E-01    7.4469801284E-01    7.1839032011E-01    6.9195906668E-01
    6.6544733127E-01    6.3889802898E-01    6.1235381716E-01    5.8585700155E-01
    5.5944944302E-01    5.3317246510E-01    5.0706676244E-01    4.8117231039E-01
    4.5552827598E-01    4.3017293035E-01    4.0514356284E-01    3.8047639699E-01
    3.5620650838E-01    3.3236774468E-01    3.0899264785E-01    2.8611237875E-01
    2.6375664408E-01    2.4195362595E-01    2.2072991396E-01    2.0011043997E-01
    1.8011841556E-01    1.6077527222E-01    1.4210060434E-01    1.2411211483E-01
    1.0682556367E-01    9.0254719086E-02    7.4411311413E-02    5.9304989716E-02
    4.4943280931E-02    3.1331551576E-02    1.8472971922E-02    6.3684825264E-03
   -4.9832369641E-03   -1.5585796840E-02   -2.5445124320E-02   -3.4569488612E-02
   -4.2969524598E-02   -5.0658252599E-02   -5.7651105691E-02   -6.3965908353E-02
   -6.9623031353E-02   -7.4645009525E-02   -7.9055723706E-02   -8.2879560860E-02
   -8.6141226906E-02   -8.8865751989E-02   -9.1078392940E-02   -9.2804564600E-02
   -9.4069770366E-02   -9.4899533559E-02   -9.5319330079E-02   -9.5354522600E-02
   -9.5030296505E-02   -9.4371597762E-02   -9.3403072926E-02   -9.2149011443E-02
   -9.0633290398E-02   -8.8879321881E-02   -8.6910003098E-02   -8.4747669346E-02
   -8.2414049988E-02   -7.9930227501E-02   -7.7316599681E-02   -7.4592845092E-02
   -7.1777891805E-02   -6.8889889467E-02   -6.5946184725E-02   -6.2963300015E-02
   -5.9956915704E-02   -5.6941855596E-02   -5.3932075726E-02   -5.0940656431E-02
   -4.7979797610E-02   -4.5060817109E-02   -4.2194152145E-02   -3.9389363667E-02
   -3.6655143538E-02   -3.3999324412E-02   -3.1428892170E-02   -2.8950000764E-02
   -2.6567989340E-02   -2.4287401449E-02   -2.2112006181E-02   -2.0044821059E-02
   -1.8088136586E-02   -1.6243541894E-02   -1.4511951649E-02   -1.2893634366E-02
   -1.1388241250E-02   -9.9948389179E-03   -8.7119285302E-03   -7.5374579590E-03
   -6.4689705310E-03   -5.5034335308E-03   -4.6374479922E-03   -3.8660251138E-03
   -3.1813737566E-03   -2.5775847117E-03   -2.0514849602E-03   -1.5991684605E-03
   -1.2160966622E-03   -8.9754620314E-04   -6.3842658990E-04   -4.3335962234E-04
   -2.7666729838E-04   -1.6238536966E-04   -8.4289429194E-05   -3.5823649959E-05
   -1.0449854708E-05   -1.0805577684E-06    5.4149191497E-07    1.8798766837E-07
   -1.4884327608E-07   -6.1391203840E-08    4.2118863129E-08    7.0819450260E-09
 0. 0. 0. 0.
 0. 0. 0. 0.
 0. 0. 0. 0.
 0. 0. 0. 0.
 0. 0. 0. 0.
 0. 0. 0. 0.
 0. 0. 0. 0.
 0. 0. 0. 0.
 0. 0. 0. 0.
 0. 0. 0. 0.
 0. 0. 0. 0.
 0. 0. 0. 0.
 0. 0. 0. 0.
 0. 0. 0. 0.
 0. 0. 0. 0.
 0. 0. 0. 0.
 0. 0. 0. 0.
 0. 0. 0. 0.
 0. 0. 0. 0.
 0. 0. 0. 0.
 0. 0. 0. 0.
 0. 0. 0. 0.
 0. 0. 0. 0.
 0. 0. 0. 0.
 0. 0. 0. 0.
 0. 0. 0. 0.
 0. 0. 0. 0.
 0. 0. 0. 0.
 0. 0. 0. 0.
 0. 0. 0. 0.
 0. 0. 0. 0.
 0. 0. 0. 0.
 0. 0. 0. 0.
 0. 0. 0. 0.
 0. 0. 0. 0.
 0. 0. 0. 0.
 0. 0. 0. 0.
 0. 0. 0. 0.
 0. 0. 0. 0.
 0. 0. 0. 0.
 0. 0. 0. 0.
 0. 0. 0. 0.
 0. 0. 0. 0.
 0. 0. 0. 0.
 0. 0. 0. 0.
 0. 0. 0. 0.
 0. 0. 0. 0.
 0. 0. 0. 0.
 0. 0. 0. 0.
 0. 0. 0. 0.
 0. 0. 0. 0.
 0. 0. 0. 0.
 0. 0. 0. 0.
 0. 0. 0. 0.
 0. 0. 0. 0.
 0. 0. 0. 0.
 0. 0. 0. 0.
 0. 0. 0. 0.
 0. 0. 0. 0.
 0. 0. 0. 0.
 0. 0. 0. 0.
 0. 0. 0. 0.
 0. 0. 0. 0.
 0. 0. 0. 0.
 0. 0. 0. 0.
 0. 0. 0. 0.
 0. 0. 0. 0.
 0. 0. 0. 0.
 0. 0. 0. 0.
 0. 0. 0. 0.
 0. 0. 0. 0.
 0. 0. 0. 0.
 0. 0. 0. 0.
 0. 0. 0. 0.
 0. 0. 0. 0.
 0. 0. 0. 0.
 0. 0. 0. 0.
 0. 0. 0. 0.
 0. 0. 0. 0.
 0. 0. 0. 0.
 0. 0. 0. 0.
 0. 0. 0. 0.
 0. 0. 0. 0.
 0. 0. 0. 0.
 0. 0. 0. 0.
 0. 0. 0. 0.
 0. 0. 0. 0.
 0. 0. 0. 0.
 0. 0. 0. 0.
 0. 0. 0. 0.
 0. 0. 0. 0.
 0. 0. 0. 0.
 0. 0. 0. 0.
 0. 0. 0. 0.
 0. 0. 0. 0.
 0. 0. 0. 0.
 0. 0. 0. 0.
 0. 0. 0. 0.
 0. 0. 0. 0.
 0. 0. 0. 0.
 0. 0. 0. 0.
 0. 0. 0. 0.
 0. 0. 0. 0.
 0. 0. 0. 0.
 0. 0. 0. 0.
 0. 0. 0. 0.
 0. 0. 0. 0.
 0. 0. 0. 0.
 0. 0. 0. 0.
 0. 0. 0. 0.
 0. 0. 0. 0.
 0. 0. 0. 0.
 0. 0. 0. 0.
 0. 0. 0. 0.
 0. 0. 0. 0.
 0. 0. 0. 0.
 0. 0. 0. 0.
 0. 0. 0. 0.
 0. 0. 0. 0.
 0. 0. 0. 0.
 0. 0. 0. 0.
 0. 0. 0. 0.
 0. 0. 0. 0.
 0. 0. 0. 0.
 0. 0. 0. 0.
 0. 0. 0. 0.
 0. 0. 0. 0.
 0. 0. 0. 0.
 0. 0. 0. 0.
 0. 0. 0. 0.
 0. 0. 0. 0.
 0. 0. 0. 0.
 0. 0. 0. 0.
 0. 0. 0. 0.
 0. 0. 0. 0.
 0. 0. 0. 0.
 0. 0. 0. 0.
 0. 0. 0. 0.
 0. 0. 0. 0.
 0. 0. 0. 0.
 0. 0. 0. 0.
 0. 0. 0. 0.
 0. 0. 0. 0.
 0. 0. 0. 0.
 0. 0. 0. 0.
 0. 0. 0. 0.
 0. 0. 0. 0.
 0. 0. 0. 0.
 0. 0. 0. 0.
 0. 0. 0. 0.
 0. 0. 0. 0.
 0. 0. 0. 0.
 0. 0. 0. 0.
 0. 0. 0. 0.
 0. 0. 0. 0.
 0. 0. 0. 0.
 0. 0. 0. 0.
 0. 0. 0. 0.
 0. 0. 0. 0.
 0. 0. 0. 0.
 0. 0. 0. 0.
 0. 0. 0. 0.
 0. 0. 0. 0.
 0. 0. 0. 0.
 0. 0. 0. 0.
 0. 0. 0. 0.
 0. 0. 0. 0.
 0. 0. 0. 0.
 0. 0. 0. 0.
 0. 0. 0. 0.
 0. 0. 0. 0.
 0. 0. 0. 0.
 0. 0. 0. 0.
 0. 0. 0. 0.
 0. 0. 0. 0.
 0. 0. 0. 0.
 0. 0. 0. 0.
 0. 0. 0. 0.
 0. 0. 0. 0.
 0. 0. 0. 0.
 0. 0. 0. 0.
 0. 0. 0. 0.
 0. 0. 0. 0.
 0. 0. 0. 0.
 0. 0. 0. 0.
 0. 0. 0. 0.
 0. 0. 0. 0.
 0. 0. 0. 0.
 0. 0. 0. 0.
 0. 0. 0. 0.
 0. 0. 0. 0.
 0. 0. 0. 0.
 0. 0. 0. 0.
 0. 0. 0. 0.
 0. 0. 0. 0.
 0. 0. 0. 0.
 0. 0. 0. 0.
 0. 0. 0. 0.
   </PP_BETA.4>
   <PP_BETA.5
       type="real"
       size="1100"
       columns="4"
       index="5"
       angular_momentum="2"
       cutoff_radius_index=" 308"
       cutoff_radius="    3.0700000000E+00" >
    9.7608067462E-12    8.4878893389E-06    6.7867696266E-05    2.2885437662E-04
    5.4180957105E-04    1.0565664658E-03    1.8222564687E-03    2.8871382935E-03
    4.2984300373E-03    6.1021448213E-03    8.3429305542E-03    1.1063914356E-02
    1.4306552170E-02    1.8110484051E-02    2.2513395632E-02    2.7550886193E-02
    3.3256343787E-02    3.9660827806E-02    4.6792959366E-02    5.4678819849E-02
    6.3341857910E-02    7.2802805227E-02    8.3079601238E-02    9.4187327069E-02
    1.0613814884E-01    1.1894127045E-01    1.3260289603E-01    1.4712620203E-01
    1.6251131903E-01    1.7875532331E-01    1.9585223802E-01    2.1379304407E-01
    2.3256570045E-01    2.5215517400E-01    2.7254347832E-01    2.9370972180E-01
    3.1563016435E-01    3.3827828284E-01    3.6162484462E-01    3.8563798922E-01
    4.1028331756E-01    4.3552398858E-01    4.6132082276E-01    4.8763241228E-01
    5.1441523728E-01    5.4162378796E-01    5.6921069201E-01    5.9712684692E-01
    6.2532155686E-01    6.5374267344E-01    6.8233674019E-01    7.1104914009E-01
    7.3982424571E-01    7.6860557168E-01    7.9733592877E-01    8.2595757933E-01
    8.5441239357E-01    8.8264200619E-01    9.1058797303E-01    9.3819192717E-01
    9.6539573423E-01    9.9214164626E-01    1.0183724540E+00    1.0440316372E+00
    1.0690635119E+00    1.0934133759E+00    1.1170276498E+00    1.1398540158E+00
    1.1618415518E+00    1.1829408615E+00    1.2031042006E+00    1.2222855977E+00
    1.2404409708E+00    1.2575282378E+00    1.2735074228E+00    1.2883407559E+00
    1.3019927670E+00    1.3144303747E+00    1.3256229678E+00    1.3355424815E+00
    1.3441634663E+00    1.3514631512E+00    1.3574214994E+00    1.3620212581E+00
    1.3652480004E+00    1.3670901614E+00    1.3675390669E+00    1.3665889543E+00
    1.3642369881E+00    1.3604832672E+00    1.3553308250E+00    1.3487856237E+00
    1.3408565400E+00    1.3315553454E+00    1.3208966782E+00    1.3088980097E+00
    1.2955796027E+00    1.2809644644E+00    1.2650782915E+00    1.2479494096E+00
    1.2296087059E+00    1.2100895558E+00    1.1894277433E+00    1.1676613756E+00
    1.1448307918E+00    1.1209784662E+00    1.0961489059E+00    1.0703885439E+00
    1.0437456265E+00    1.0162700966E+00    9.8801347255E-01    9.5902872239E-01
    9.2937013484E-01    8.9909318639E-01    8.6825440523E-01    8.3691123229E-01
    8.0512187969E-01    7.7294518702E-01    7.4044047567E-01    7.0766740183E-01
    6.7468580825E-01    6.4155557543E-01    6.0833647244E-01    5.7508800793E-01
    5.4186928167E-01    5.0873883701E-01    4.7575451485E-01    4.4297330937E-01
    4.1045122609E-01    3.7824314258E-01    3.4640267243E-01    3.1498203268E-01
    2.8403191533E-01    2.5360136330E-01    2.2373765119E-01    1.9448617132E-01
    1.6589032539E-01    1.3799142221E-01    1.1082858173E-01    8.4438645922E-02
    5.8856096583E-02    3.4112980599E-02    1.0238842814E-02   -1.2739333203E-02
   -3.4797176242E-02   -5.5912970212E-02   -7.6067688380E-02   -9.5245018960E-02
   -1.1343138193E-01   -1.3061593698E-01   -1.4679058263E-01   -1.6194994635E-01
   -1.7609136586E-01   -1.8921486158E-01   -2.0132310038E-01   -2.1242135070E-01
   -2.2251742924E-01   -2.3162163947E-01   -2.3974670207E-01   -2.4690767778E-01
   -2.5312188269E-01   -2.5840879660E-01   -2.6278996459E-01   -2.6628889237E-01
   -2.6893093571E-01   -2.7074318449E-01   -2.7175434182E-01   -2.7199459877E-01
   -2.7149550516E-01   -2.7028983705E-01   -2.6841146138E-01   -2.6589519847E-01
   -2.6277668282E-01   -2.5909222288E-01   -2.5487866040E-01   -2.5017322988E-01
   -2.4501341877E-01   -2.3943682902E-01   -2.3348104049E-01   -2.2718347692E-01
   -2.2058127481E-01   -2.1371115599E-01   -2.0660930427E-01   -1.9931124662E-01
   -1.9185173950E-01   -1.8426466065E-01   -1.7658290691E-01   -1.6883829821E-01
   -1.6106148844E-01   -1.5328188310E-01   -1.4552756440E-01   -1.3782522379E-01
   -1.3020010219E-01   -1.2267593815E-01   -1.1527492397E-01   -1.0801766987E-01
   -1.0092317632E-01   -9.4008814407E-02   -8.7290314242E-02   -8.0781761363E-02
   -7.4495600897E-02   -6.8442649387E-02   -6.2632114031E-02   -5.7071619102E-02
   -5.1767239246E-02   -4.6723539350E-02   -4.1943620627E-02   -3.7429172524E-02
   -3.3180530066E-02   -2.9196736181E-02   -2.5475608570E-02   -2.2013810639E-02
   -1.8806926010E-02   -1.5849536101E-02   -1.3135300285E-02   -1.0657038085E-02
   -8.4068129068E-03   -6.3760167849E-03   -4.5554556176E-03   -2.9354343957E-03
   -1.5058419169E-03   -2.5623450293E-04    8.2408175215E-04    1.7459706513E-03
    2.5203879172E-03    3.1583059709E-03    3.6706418500E-03    4.0681886138E-03
    4.3615505573E-03    4.5610825800E-03    4.6768337011E-03    4.7184962772E-03
    4.6953557696E-03    4.6162582406E-03    4.4895930884E-03    4.3232807456E-03
    4.1247496610E-03    3.9009137088E-03    3.6581572001E-03    3.4023242175E-03
    3.1387128940E-03    2.8720744629E-03    2.6066169085E-03    2.3460130120E-03
    2.0934125583E-03    1.8514584554E-03    1.6223064824E-03    1.4076483638E-03
    1.2087378491E-03    1.0264194638E-03    8.6115957524E-04    7.1307941366E-04
    5.8198967975E-04    4.6742623048E-04    3.6868766834E-04    2.8486983379E-04
    2.1490620682E-04    1.5760392934E-04    1.1171727756E-04    7.5981528062E-05
    4.9025321228E-05    2.9452820480E-05    1.5930286546E-05    7.1946303632E-06
    2.0820120411E-06   -4.4951665569E-07   -1.2997074404E-06   -1.2088515690E-06
   -7.4497410155E-07   -2.9282616245E-07   -5.3394661590E-08    4.3446241816E-09
    4.0552572301E-09   -2.8373185276E-09   -5.4687352683E-10    5.7032368511E-10
   -1.0747517997E-12   -1.3924947010E-12    0.0000000000E+00    0.0000000000E+00
    0.0000000000E+00    0.0000000000E+00    0.0000000000E+00    0.0000000000E+00
    0.0000000000E+00    0.0000000000E+00    0.0000000000E+00    0.0000000000E+00
    0.0000000000E+00    0.0000000000E+00    0.0000000000E+00    0.0000000000E+00
    0.0000000000E+00    0.0000000000E+00    0.0000000000E+00    0.0000000000E+00
    0.0000000000E+00    0.0000000000E+00    0.0000000000E+00    0.0000000000E+00
    0.0000000000E+00    0.0000000000E+00    0.0000000000E+00    0.0000000000E+00
    0.0000000000E+00    0.0000000000E+00    0.0000000000E+00    0.0000000000E+00
 0. 0. 0. 0.
 0. 0. 0. 0.
 0. 0. 0. 0.
 0. 0. 0. 0.
 0. 0. 0. 0.
 0. 0. 0. 0.
 0. 0. 0. 0.
 0. 0. 0. 0.
 0. 0. 0. 0.
 0. 0. 0. 0.
 0. 0. 0. 0.
 0. 0. 0. 0.
 0. 0. 0. 0.
 0. 0. 0. 0.
 0. 0. 0. 0.
 0. 0. 0. 0.
 0. 0. 0. 0.
 0. 0. 0. 0.
 0. 0. 0. 0.
 0. 0. 0. 0.
 0. 0. 0. 0.
 0. 0. 0. 0.
 0. 0. 0. 0.
 0. 0. 0. 0.
 0. 0. 0. 0.
 0. 0. 0. 0.
 0. 0. 0. 0.
 0. 0. 0. 0.
 0. 0. 0. 0.
 0. 0. 0. 0.
 0. 0. 0. 0.
 0. 0. 0. 0.
 0. 0. 0. 0.
 0. 0. 0. 0.
 0. 0. 0. 0.
 0. 0. 0. 0.
 0. 0. 0. 0.
 0. 0. 0. 0.
 0. 0. 0. 0.
 0. 0. 0. 0.
 0. 0. 0. 0.
 0. 0. 0. 0.
 0. 0. 0. 0.
 0. 0. 0. 0.
 0. 0. 0. 0.
 0. 0. 0. 0.
 0. 0. 0. 0.
 0. 0. 0. 0.
 0. 0. 0. 0.
 0. 0. 0. 0.
 0. 0. 0. 0.
 0. 0. 0. 0.
 0. 0. 0. 0.
 0. 0. 0. 0.
 0. 0. 0. 0.
 0. 0. 0. 0.
 0. 0. 0. 0.
 0. 0. 0. 0.
 0. 0. 0. 0.
 0. 0. 0. 0.
 0. 0. 0. 0.
 0. 0. 0. 0.
 0. 0. 0. 0.
 0. 0. 0. 0.
 0. 0. 0. 0.
 0. 0. 0. 0.
 0. 0. 0. 0.
 0. 0. 0. 0.
 0. 0. 0. 0.
 0. 0. 0. 0.
 0. 0. 0. 0.
 0. 0. 0. 0.
 0. 0. 0. 0.
 0. 0. 0. 0.
 0. 0. 0. 0.
 0. 0. 0. 0.
 0. 0. 0. 0.
 0. 0. 0. 0.
 0. 0. 0. 0.
 0. 0. 0. 0.
 0. 0. 0. 0.
 0. 0. 0. 0.
 0. 0. 0. 0.
 0. 0. 0. 0.
 0. 0. 0. 0.
 0. 0. 0. 0.
 0. 0. 0. 0.
 0. 0. 0. 0.
 0. 0. 0. 0.
 0. 0. 0. 0.
 0. 0. 0. 0.
 0. 0. 0. 0.
 0. 0. 0. 0.
 0. 0. 0. 0.
 0. 0. 0. 0.
 0. 0. 0. 0.
 0. 0. 0. 0.
 0. 0. 0. 0.
 0. 0. 0. 0.
 0. 0. 0. 0.
 0. 0. 0. 0.
 0. 0. 0. 0.
 0. 0. 0. 0.
 0. 0. 0. 0.
 0. 0. 0. 0.
 0. 0. 0. 0.
 0. 0. 0. 0.
 0. 0. 0. 0.
 0. 0. 0. 0.
 0. 0. 0. 0.
 0. 0. 0. 0.
 0. 0. 0. 0.
 0. 0. 0. 0.
 0. 0. 0. 0.
 0. 0. 0. 0.
 0. 0. 0. 0.
 0. 0. 0. 0.
 0. 0. 0. 0.
 0. 0. 0. 0.
 0. 0. 0. 0.
 0. 0. 0. 0.
 0. 0. 0. 0.
 0. 0. 0. 0.
 0. 0. 0. 0.
 0. 0. 0. 0.
 0. 0. 0. 0.
 0. 0. 0. 0.
 0. 0. 0. 0.
 0. 0. 0. 0.
 0. 0. 0. 0.
 0. 0. 0. 0.
 0. 0. 0. 0.
 0. 0. 0. 0.
 0. 0. 0. 0.
 0. 0. 0. 0.
 0. 0. 0. 0.
 0. 0. 0. 0.
 0. 0. 0. 0.
 0. 0. 0. 0.
 0. 0. 0. 0.
 0. 0. 0. 0.
 0. 0. 0. 0.
 0. 0. 0. 0.
 0. 0. 0. 0.
 0. 0. 0. 0.
 0. 0. 0. 0.
 0. 0. 0. 0.
 0. 0. 0. 0.
 0. 0. 0. 0.
 0. 0. 0. 0.
 0. 0. 0. 0.
 0. 0. 0. 0.
 0. 0. 0. 0.
 0. 0. 0. 0.
 0. 0. 0. 0.
 0. 0. 0. 0.
 0. 0. 0. 0.
 0. 0. 0. 0.
 0. 0. 0. 0.
 0. 0. 0. 0.
 0. 0. 0. 0.
 0. 0. 0. 0.
 0. 0. 0. 0.
 0. 0. 0. 0.
 0. 0. 0. 0.
 0. 0. 0. 0.
 0. 0. 0. 0.
 0. 0. 0. 0.
 0. 0. 0. 0.
 0. 0. 0. 0.
 0. 0. 0. 0.
 0. 0. 0. 0.
 0. 0. 0. 0.
 0. 0. 0. 0.
 0. 0. 0. 0.
 0. 0. 0. 0.
 0. 0. 0. 0.
 0. 0. 0. 0.
 0. 0. 0. 0.
 0. 0. 0. 0.
 0. 0. 0. 0.
 0. 0. 0. 0.
 0. 0. 0. 0.
 0. 0. 0. 0.
 0. 0. 0. 0.
 0. 0. 0. 0.
 0. 0. 0. 0.
 0. 0. 0. 0.
 0. 0. 0. 0.
 0. 0. 0. 0.
 0. 0. 0. 0.
 0. 0. 0. 0.
 0. 0. 0. 0.
 0. 0. 0. 0.
 0. 0. 0. 0.
 0. 0. 0. 0.
 0. 0. 0. 0.
 0. 0. 0. 0.
   </PP_BETA.5>
   <PP_BETA.6
       type="real"
       size="1100"
       columns="4"
       index="6"
       angular_momentum="2"
       cutoff_radius_index=" 308"
       cutoff_radius="    3.0700000000E+00" >
   -2.1551561317E-11   -6.7283837959E-06   -5.3783096875E-05   -1.8127082338E-04
   -4.2885999346E-04   -8.3556424147E-04   -1.4395289512E-03   -2.2778218917E-03
   -3.3862289257E-03   -4.7990557462E-03   -6.5489365645E-03   -8.6666506380E-03
   -1.1180947482E-02   -1.4118381570E-02   -1.7503157270E-02   -2.1356984717E-02
   -2.5698947269E-02   -3.0545381115E-02   -3.5909767580E-02   -4.1802638552E-02
   -4.8231495448E-02   -5.5200742024E-02   -6.2711631292E-02   -7.0762226711E-02
   -7.9347377788E-02   -8.8458710110E-02   -9.8084629788E-02   -1.0821034222E-01
   -1.1881788501E-01   -1.2988617479E-01   -1.4139106771E-01   -1.5330543318E-01
   -1.6559924045E-01   -1.7823965764E-01   -1.9119116260E-01   -2.0441566512E-01
   -2.1787263972E-01   -2.3151926863E-01   -2.4531059395E-01   -2.5919967853E-01
   -2.7313777465E-01   -2.8707449976E-01   -3.0095801856E-01   -3.1473523049E-01
   -3.2835196184E-01   -3.4175316175E-01   -3.5488310106E-01   -3.6768557343E-01
   -3.8010409773E-01   -3.9208212088E-01   -4.0356322057E-01   -4.1449130674E-01
   -4.2481082136E-01   -4.3446693565E-01   -4.4340574401E-01   -4.5157445410E-01
   -4.5892157231E-01   -4.6539708413E-01   -4.7095262879E-01   -4.7554166761E-01
   -4.7911964573E-01   -4.8164414661E-01   -4.8307503894E-01   -4.8337461570E-01
   -4.8250772494E-01   -4.8044189204E-01   -4.7714743320E-01   -4.7259756008E-01
   -4.6676847522E-01   -4.5963945832E-01   -4.5119294323E-01   -4.4141458558E-01
   -4.3029332105E-01   -4.1782141435E-01   -4.0399449886E-01   -3.8881160714E-01
   -3.7227519224E-01   -3.5439114010E-01   -3.3516877302E-01   -3.1462084455E-01
   -2.9276352570E-01   -2.6961638295E-01   -2.4520234807E-01   -2.1954767994E-01
   -1.9268191872E-01   -1.6463783246E-01   -1.3545135634E-01   -1.0516152493E-01
   -7.3810397467E-02   -4.1442976514E-02   -8.1071201230E-03    2.6146552233E-02
    6.1264759801E-02    9.7191666548E-02    1.3386899283E-01    1.7123613253E-01
    2.0923027556E-01    2.4778653539E-01    2.8683808162E-01    3.2631627727E-01
    3.6615082073E-01    4.0626989207E-01    4.4660030373E-01    4.8706765522E-01
    5.2759649174E-01    5.6811046655E-01    6.0853250690E-01    6.4878498328E-01
    6.8878988176E-01    7.2846897928E-01    7.6774402160E-01    8.0653690359E-01
    8.4476985175E-01    8.8236560851E-01    9.1924761800E-01    9.5534021312E-01
    9.9056880336E-01    1.0248600631E+00    1.0581421198E+00    1.0903447422E+00
    1.1213995272E+00    1.1512400855E+00    1.1798022257E+00    1.2070241358E+00
    1.2328465619E+00    1.2572129832E+00    1.2800697831E+00    1.3013664156E+00
    1.3210555665E+00    1.3390933087E+00    1.3554392503E+00    1.3700566764E+00
    1.3829126825E+00    1.3939782995E+00    1.4032286092E+00    1.4106428507E+00
    1.4162045156E+00    1.4199014329E+00    1.4217258414E+00    1.4216744505E+00
    1.4197484883E+00    1.4159537362E+00    1.4103005497E+00    1.4028038656E+00
    1.3934831943E+00    1.3823625972E+00    1.3694706496E+00    1.3548403877E+00
    1.3385092404E+00    1.3205189462E+00    1.3009154535E+00    1.2797488061E+00
    1.2570730138E+00    1.2329459071E+00    1.2074289774E+00    1.1805872029E+00
    1.1524888605E+00    1.1232053241E+00    1.0928108497E+00    1.0613823488E+00
    1.0289991504E+00    9.9574275119E-01    9.6169655759E-01    9.2694561754E-01
    8.9157634522E-01    8.5567623867E-01    8.1933359183E-01    7.8263720210E-01
    7.4567607453E-01    7.0853912400E-01    6.7131487662E-01    6.3409117164E-01
    5.9695486521E-01    5.5999153724E-01    5.2328520285E-01    4.8691802951E-01
    4.5097006140E-01    4.1551895208E-01    3.8063970694E-01    3.4640443645E-01
    3.1288212154E-01    2.8013839219E-01    2.4823532033E-01    2.1723122802E-01
    1.8718051191E-01    1.5813348478E-01    1.3013623509E-01    1.0323050496E-01
    7.7453587552E-02    5.2838243996E-02    2.9412640546E-02    7.2003061053E-03
   -1.3779889621E-02   -3.3513737273E-02   -5.1991668311E-02   -6.9208714952E-02
   -8.5164449814E-02   -9.9862905629E-02   -1.1331247548E-01   -1.2552579418E-01
   -1.3651960134E-01   -1.4631458715E-01   -1.5493522146E-01   -1.6240956730E-01
   -1.6876907992E-01   -1.7404839231E-01   -1.7828508860E-01   -1.8151946649E-01
   -1.8379429008E-01   -1.8515453447E-01   -1.8564712362E-01   -1.8532066280E-01
   -1.8422516732E-01   -1.8241178877E-01   -1.7993254058E-01   -1.7684002415E-01
   -1.7318715726E-01   -1.6902690608E-01   -1.6441202227E-01   -1.5939478669E-01
   -1.5402676093E-01   -1.4835854799E-01   -1.4243956351E-01   -1.3631781850E-01
   -1.3003971481E-01   -1.2364985432E-01   -1.1719086271E-01   -1.1070322868E-01
   -1.0422515933E-01   -9.7792452413E-02   -9.1438385189E-02   -8.5193624572E-02
   -7.9086141306E-02   -7.3141184420E-02   -6.7381307204E-02   -6.1826410015E-02
   -5.6493748426E-02   -5.1397943285E-02   -4.6551016184E-02   -4.1962439152E-02
   -3.7639200314E-02   -3.3585884689E-02   -2.9804769272E-02   -2.6295931462E-02
   -2.3057369820E-02   -2.0085136094E-02   -1.7373477356E-02   -1.4914987036E-02
   -1.2700763605E-02   -1.0720575615E-02   -8.9630317522E-03   -7.4157545522E-03
   -6.0655564263E-03   -4.8986161328E-03   -3.9006587243E-03   -3.0571207544E-03
   -2.3533336359E-03   -1.7746874005E-03   -1.3069287933E-03   -9.3631111717E-04
   -6.4929647768E-04   -4.3287463672E-04   -2.7489508225E-04   -1.6411224860E-04
   -9.0300665093E-05   -4.4345500312E-05   -1.8321814377E-05   -5.5597033038E-06
   -6.9468984151E-07    3.0787830000E-07    1.4982945696E-07   -1.7903123081E-08
   -2.6433922210E-08    1.1577601718E-08    2.4192016063E-09   -8.2063105532E-10
    2.3260926919E-12    3.0137858326E-12    0.0000000000E+00    0.0000000000E+00
    0.0000000000E+00    0.0000000000E+00    0.0000000000E+00    0.0000000000E+00
    0.0000000000E+00    0.0000000000E+00    0.0000000000E+00    0.0000000000E+00
    0.0000000000E+00    0.0000000000E+00    0.0000000000E+00    0.0000000000E+00
    0.0000000000E+00    0.0000000000E+00    0.0000000000E+00    0.0000000000E+00
    0.0000000000E+00    0.0000000000E+00    0.0000000000E+00    0.0000000000E+00
    0.0000000000E+00    0.0000000000E+00    0.0000000000E+00    0.0000000000E+00
    0.0000000000E+00    0.0000000000E+00    0.0000000000E+00    0.0000000000E+00
 0. 0. 0. 0.
 0. 0. 0. 0.
 0. 0. 0. 0.
 0. 0. 0. 0.
 0. 0. 0. 0.
 0. 0. 0. 0.
 0. 0. 0. 0.
 0. 0. 0. 0.
 0. 0. 0. 0.
 0. 0. 0. 0.
 0. 0. 0. 0.
 0. 0. 0. 0.
 0. 0. 0. 0.
 0. 0. 0. 0.
 0. 0. 0. 0.
 0. 0. 0. 0.
 0. 0. 0. 0.
 0. 0. 0. 0.
 0. 0. 0. 0.
 0. 0. 0. 0.
 0. 0. 0. 0.
 0. 0. 0. 0.
 0. 0. 0. 0.
 0. 0. 0. 0.
 0. 0. 0. 0.
 0. 0. 0. 0.
 0. 0. 0. 0.
 0. 0. 0. 0.
 0. 0. 0. 0.
 0. 0. 0. 0.
 0. 0. 0. 0.
 0. 0. 0. 0.
 0. 0. 0. 0.
 0. 0. 0. 0.
 0. 0. 0. 0.
 0. 0. 0. 0.
 0. 0. 0. 0.
 0. 0. 0. 0.
 0. 0. 0. 0.
 0. 0. 0. 0.
 0. 0. 0. 0.
 0. 0. 0. 0.
 0. 0. 0. 0.
 0. 0. 0. 0.
 0. 0. 0. 0.
 0. 0. 0. 0.
 0. 0. 0. 0.
 0. 0. 0. 0.
 0. 0. 0. 0.
 0. 0. 0. 0.
 0. 0. 0. 0.
 0. 0. 0. 0.
 0. 0. 0. 0.
 0. 0. 0. 0.
 0. 0. 0. 0.
 0. 0. 0. 0.
 0. 0. 0. 0.
 0. 0. 0. 0.
 0. 0. 0. 0.
 0. 0. 0. 0.
 0. 0. 0. 0.
 0. 0. 0. 0.
 0. 0. 0. 0.
 0. 0. 0. 0.
 0. 0. 0. 0.
 0. 0. 0. 0.
 0. 0. 0. 0.
 0. 0. 0. 0.
 0. 0. 0. 0.
 0. 0. 0. 0.
 0. 0. 0. 0.
 0. 0. 0. 0.
 0. 0. 0. 0.
 0. 0. 0. 0.
 0. 0. 0. 0.
 0. 0. 0. 0.
 0. 0. 0. 0.
 0. 0. 0. 0.
 0. 0. 0. 0.
 0. 0. 0. 0.
 0. 0. 0. 0.
 0. 0. 0. 0.
 0. 0. 0. 0.
 0. 0. 0. 0.
 0. 0. 0. 0.
 0. 0. 0. 0.
 0. 0. 0. 0.
 0. 0. 0. 0.
 0. 0. 0. 0.
 0. 0. 0. 0.
 0. 0. 0. 0.
 0. 0. 0. 0.
 0. 0. 0. 0.
 0. 0. 0. 0.
 0. 0. 0. 0.
 0. 0. 0. 0.
 0. 0. 0. 0.
 0. 0. 0. 0.
 0. 0. 0. 0.
 0. 0. 0. 0.
 0. 0. 0. 0.
 0. 0. 0. 0.
 0. 0. 0. 0.
 0. 0. 0. 0.
 0. 0. 0. 0.
 0. 0. 0. 0.
 0. 0. 0. 0.
 0. 0. 0. 0.
 0. 0. 0. 0.
 0. 0. 0. 0.
 0. 0. 0. 0.
 0. 0. 0. 0.
 0. 0. 0. 0.
 0. 0. 0. 0.
 0. 0. 0. 0.
 0. 0. 0. 0.
 0. 0. 0. 0.
 0. 0. 0. 0.
 0. 0. 0. 0.
 0. 0. 0. 0.
 0. 0. 0. 0.
 0. 0. 0. 0.
 0. 0. 0. 0.
 0. 0. 0. 0.
 0. 0. 0. 0.
 0. 0. 0. 0.
 0. 0. 0. 0.
 0. 0. 0. 0.
 0. 0. 0. 0.
 0. 0. 0. 0.
 0. 0. 0. 0.
 0. 0. 0. 0.
 0. 0. 0. 0.
 0. 0. 0. 0.
 0. 0. 0. 0.
 0. 0. 0. 0.
 0. 0. 0. 0.
 0. 0. 0. 0.
 0. 0. 0. 0.
 0. 0. 0. 0.
 0. 0. 0. 0.
 0. 0. 0. 0.
 0. 0. 0. 0.
 0. 0. 0. 0.
 0. 0. 0. 0.
 0. 0. 0. 0.
 0. 0. 0. 0.
 0. 0. 0. 0.
 0. 0. 0. 0.
 0. 0. 0. 0.
 0. 0. 0. 0.
 0. 0. 0. 0.
 0. 0. 0. 0.
 0. 0. 0. 0.
 0. 0. 0. 0.
 0. 0. 0. 0.
 0. 0. 0. 0.
 0. 0. 0. 0.
 0. 0. 0. 0.
 0. 0. 0. 0.
 0. 0. 0. 0.
 0. 0. 0. 0.
 0. 0. 0. 0.
 0. 0. 0. 0.
 0. 0. 0. 0.
 0. 0. 0. 0.
 0. 0. 0. 0.
 0. 0. 0. 0.
 0. 0. 0. 0.
 0. 0. 0. 0.
 0. 0. 0. 0.
 0. 0. 0. 0.
 0. 0. 0. 0.
 0. 0. 0. 0.
 0. 0. 0. 0.
 0. 0. 0. 0.
 0. 0. 0. 0.
 0. 0. 0. 0.
 0. 0. 0. 0.
 0. 0. 0. 0.
 0. 0. 0. 0.
 0. 0. 0. 0.
 0. 0. 0. 0.
 0. 0. 0. 0.
 0. 0. 0. 0.
 0. 0. 0. 0.
 0. 0. 0. 0.
 0. 0. 0. 0.
 0. 0. 0. 0.
 0. 0. 0. 0.
 0. 0. 0. 0.
 0. 0. 0. 0.
 0. 0. 0. 0.
 0. 0. 0. 0.
 0. 0. 0. 0.
 0. 0. 0. 0.
 0. 0. 0. 0.
 0. 0. 0. 0.
   </PP_BETA.6>
   <PP_DIJ type="real"  size="  36" columns="4">
    7.9210299483E+00    0.0000000000E+00    0.0000000000E+00    0.0000000000E+00
    0.0000000000E+00    0.0000000000E+00    0.0000000000E+00    7.4862057262E-01
    0.0000000000E+00    0.0000000000E+00    0.0000000000E+00    0.0000000000E+00
    0.0000000000E+00    0.0000000000E+00    4.9867648659E+00    0.0000000000E+00
    0.0000000000E+00    0.0000000000E+00    0.0000000000E+00    0.0000000000E+00
    0.0000000000E+00    5.1627167324E-01    0.0000000000E+00    0.0000000000E+00
    0.0000000000E+00    0.0000000000E+00    0.0000000000E+00    0.0000000000E+00
   -1.1492911461E+01    0.0000000000E+00    0.0000000000E+00    0.0000000000E+00
    0.0000000000E+00    0.0000000000E+00    0.0000000000E+00   -4.7331528250E+00
   </PP_DIJ>
 </PP_NONLOCAL>
 <PP_PSWFC>
   <PP_CHI.1
       type="real"
       size="1100"
       columns="4"
       index="1"
       occupation="10.000"
       pseudo_energy="   -0.4359468075E+01"
       label="4D"
       l="2" >
    1.5151629951E-12    3.9837204600E-06    3.1858035838E-05    1.0745493211E-04
    2.5448932116E-04    4.9650086381E-04    8.5679622380E-04    1.3583918948E-03
    2.0239577408E-03    2.8757613881E-03    3.9356136053E-03    5.2248148053E-03
    6.7641027987E-03    8.5736019270E-03    1.0672773699E-02    1.3080369049E-02
    1.5814382335E-02    1.8892007181E-02    2.2329594280E-02    2.6142611247E-02
    3.0345604624E-02    3.4952164126E-02    3.9974889207E-02    4.5425358034E-02
    5.1314098922E-02    5.7650564319E-02    6.4443107378E-02    7.1698961175E-02
    7.9424220625E-02    8.7623827119E-02    9.6301555925E-02    1.0546000637E-01
    1.1510059481E-01    1.2522355044E-01    1.3582791388E-01    1.4691153855E-01
    1.5847109490E-01    1.7050207736E-01    1.8299881403E-01    1.9595447914E-01
    2.0936110809E-01    2.2320961520E-01    2.3748981400E-01    2.5219043999E-01
    2.6729917594E-01    2.8280267944E-01    2.9868661289E-01    3.1493567555E-01
    3.3153363784E-01    3.4846337761E-01    3.6570691836E-01    3.8324546929E-01
    4.0105946707E-01    4.1912861924E-01    4.3743194911E-01    4.5594784201E-01
    4.7465409286E-01    4.9352795488E-01    5.1254618923E-01    5.3168511569E-01
    5.5092066398E-01    5.7022842575E-01    5.8958370716E-01    6.0896158170E-01
    6.2833694336E-01    6.4768455991E-01    6.6697912610E-01    6.8619531679E-01
    7.0530783981E-01    7.2429148840E-01    7.4312119314E-01    7.6177207328E-01
    7.8021948728E-01    7.9843908248E-01    8.1640684387E-01    8.3409914161E-01
    8.5149277756E-01    8.6856503034E-01    8.8529369906E-01    9.0165714564E-01
    9.1763433542E-01    9.3320487622E-01    9.4834905562E-01    9.6304787642E-01
    9.7728309028E-01    9.9103722939E-01    1.0042936361E+00    1.0170364905E+00
    1.0292508363E+00    1.0409226036E+00    1.0520386306E+00    1.0625866828E+00
    1.0725554691E+00    1.0819346573E+00    1.0907148858E+00    1.0988877738E+00
    1.1064459295E+00    1.1133829555E+00    1.1196934520E+00    1.1253730184E+00
    1.1304182519E+00    1.1348267446E+00    1.1385970782E+00    1.1417288164E+00
    1.1442224958E+00    1.1460796144E+00    1.1473026180E+00    1.1478948854E+00
    1.1478607111E+00    1.1472052864E+00    1.1459346791E+00    1.1440558115E+00
    1.1415764361E+00    1.1385051115E+00    1.1348511748E+00    1.1306247147E+00
    1.1258365419E+00    1.1204981591E+00    1.1146217298E+00    1.1082200464E+00
    1.1013064967E+00    1.0938950305E+00    1.0860001249E+00    1.0776367497E+00
    1.0688203312E+00    1.0595667168E+00    1.0498921384E+00    1.0398131764E+00
    1.0293467227E+00    1.0185099442E+00    1.0073202463E+00    9.9579523665E-01
    9.8395268849E-01    9.7181050519E-01    9.5938668456E-01    9.4669928385E-01
    9.3376638522E-01    9.2060606188E-01    9.0723634488E-01    8.9367519064E-01
    8.7994044931E-01    8.6604983401E-01    8.5202089096E-01    8.3787097063E-01
    8.2361719992E-01    8.0927645540E-01    7.9486533767E-01    7.8040014691E-01
    7.6589685962E-01    7.5137110652E-01    7.3683815181E-01    7.2231287361E-01
    7.0780974578E-01    6.9334282098E-01    6.7892571510E-01    6.6457159301E-01
    6.5029315565E-01    6.3610262844E-01    6.2201175107E-01    6.0803176859E-01
    5.9417342378E-01    5.8044695094E-01    5.6686207086E-01    5.5342798714E-01
    5.4015338369E-01    5.2704642353E-01    5.1411474876E-01    5.0136548169E-01
    4.8880522709E-01    4.7644007561E-01    4.6427560820E-01    4.5231690157E-01
    4.4056853465E-01    4.2903459601E-01    4.1771869211E-01    4.0662395652E-01
    3.9575305981E-01    3.8510822030E-01    3.7469121549E-01    3.6450339417E-01
    3.5454568907E-01    3.4481863020E-01    3.3532235857E-01    3.2605664046E-01
    3.1702088207E-01    3.0821414454E-01    2.9963515923E-01    2.9128234337E-01
    2.8315381582E-01    2.7524741300E-01    2.6756070505E-01    2.6009101189E-01
    2.5283541945E-01    2.4579079579E-01    2.3895380720E-01    2.3232093420E-01
    2.2588848735E-01    2.1965262296E-01    2.1360935847E-01    2.0775458769E-01
    2.0208409566E-01    1.9659357324E-01    1.9127863138E-01    1.8613481490E-01
    1.8115761598E-01    1.7634248719E-01    1.7168485406E-01    1.6718012715E-01
    1.6282371372E-01    1.5861102879E-01    1.5453750578E-01    1.5059860656E-01
    1.4678983095E-01    1.4310672577E-01    1.3954489318E-01    1.3609999862E-01
    1.3276777809E-01    1.2954404488E-01    1.2642469579E-01    1.2340571674E-01
    1.2048318788E-01    1.1765328809E-01    1.1491229897E-01    1.1225660836E-01
    1.0968271324E-01    1.0718722219E-01    1.0476685733E-01    1.0241845584E-01
    1.0013897089E-01    9.7925472298E-02    9.5775146581E-02    9.3685296744E-02
    9.1653341592E-02    8.9676814704E-02    8.7753363052E-02    8.5880745293E-02
    8.4056829755E-02    8.2279592136E-02    8.0547112949E-02    7.8857574722E-02
    7.7209258983E-02    7.5600543055E-02    7.4029896676E-02    7.2495878482E-02
    7.0997132350E-02    6.9532383655E-02    6.8100435434E-02    6.6700164503E-02
    6.5330517527E-02    6.3990507079E-02    6.2679207703E-02    6.1395752002E-02
    6.0139326761E-02    5.8909169142E-02    5.7704562946E-02    5.6524834978E-02
    5.5369351516E-02    5.4237514910E-02    5.3128760315E-02    5.2042552586E-02
    5.0978383331E-02    4.9935768143E-02    4.8914244000E-02    4.7913366853E-02
    4.6932709422E-02    4.5971859199E-02    4.5030416655E-02    4.4107993667E-02
    4.3204212164E-02    4.2318702986E-02    4.1451104973E-02    4.0601064259E-02
    3.9768233808E-02    3.8952273114E-02    3.8152848092E-02    3.7369630974E-02
    3.6602300239E-02    3.5850540477E-02    3.5114042272E-02    3.4392502107E-02
    3.3685622263E-02    3.2993110717E-02    3.2314681040E-02    3.1650052302E-02
    3.0998948972E-02    3.0361100826E-02    2.9736242851E-02    2.9124115151E-02
    2.8524462858E-02    2.7937036038E-02    2.7361589608E-02    2.6797883242E-02
    2.6245681289E-02    2.5704752687E-02    2.5174870879E-02    2.4655813729E-02
    2.4147363446E-02    2.3649306496E-02    2.3161433534E-02    2.2683539315E-02
    2.2215422627E-02    2.1756886214E-02    2.1307736697E-02    2.0867784508E-02
    2.0436843818E-02    2.0014732463E-02    1.9601271878E-02    1.9196287028E-02
    1.8799606342E-02    1.8411061648E-02    1.8030488108E-02    1.7657724154E-02
    1.7292611426E-02    1.6934994712E-02    1.6584721886E-02    1.6241643852E-02
    1.5905614481E-02    1.5576490560E-02    1.5254131731E-02    1.4938400437E-02
    1.4629161872E-02    1.4326283923E-02    1.4029637119E-02    1.3739094580E-02
    1.3454531970E-02    1.3175827441E-02    1.2902861592E-02    1.2635517415E-02
    1.2373680252E-02    1.2117237748E-02    1.1866079806E-02    1.1620098543E-02
    1.1379188246E-02    1.1143245330E-02    1.0912168297E-02    1.0685857692E-02
    1.0464216072E-02    1.0247147957E-02    1.0034559756E-02    9.8263597923E-03
    9.6224583915E-03    9.4227676683E-03    9.2272012798E-03    9.0356746021E-03
    8.8481048759E-03    8.6644110417E-03    8.4845136406E-03    8.3083348221E-03
    8.1357983192E-03    7.9668294102E-03    7.8013548882E-03    7.6393030311E-03
    7.4806035719E-03    7.3251876701E-03    7.1729878826E-03    7.0239381362E-03
    6.8779737004E-03    6.7350311600E-03    6.5950483891E-03    6.4579645253E-03
    6.3237199444E-03    6.1922562356E-03    6.0635161770E-03    5.9374437118E-03
    5.8139839253E-03    5.6930830213E-03    5.5746883003E-03    5.4587481368E-03
    5.3452119586E-03    5.2340302245E-03    5.1251544046E-03    5.0185369593E-03
    4.9141313194E-03    4.8118918671E-03    4.7117739161E-03    4.6137336933E-03
    4.5177283201E-03    4.4237157948E-03    4.3316549742E-03    4.2415055571E-03
    4.1532280666E-03    4.0667838337E-03    3.9821349813E-03    3.8992444075E-03
    3.8180757707E-03    3.7385934736E-03    3.6607626484E-03    3.5845491423E-03
    3.5099195023E-03    3.4368409620E-03    3.3652814267E-03    3.2952094605E-03
    3.2265942728E-03    3.1594057049E-03    3.0936142176E-03    3.0291908784E-03
    2.9661073491E-03    2.9043358742E-03    2.8438492684E-03    2.7846209055E-03
    2.7266247070E-03    2.6698351306E-03    2.6142271599E-03    2.5597762932E-03
    2.5064585332E-03    2.4542503768E-03    2.4031288050E-03    2.3530712729E-03
    2.3040557004E-03    2.2560604622E-03    2.2090643792E-03    2.1630467089E-03
    2.1179871364E-03    2.0738657662E-03    2.0306631134E-03    1.9883600951E-03
    1.9469380225E-03    1.9063785926E-03    1.8666638806E-03    1.8277763319E-03
    1.7896987548E-03    1.7524143127E-03    1.7159065172E-03    1.6801592210E-03
    1.6451566105E-03    1.6108831994E-03    1.5773238216E-03    1.5444636253E-03
    1.5122880657E-03    1.4807828994E-03    1.4499341778E-03    1.4197282413E-03
    1.3901517132E-03    1.3611914942E-03    1.3328347561E-03    1.3050689369E-03
    1.2778817350E-03    1.2512611038E-03    1.2251952466E-03    1.1996726115E-03
    1.1746818861E-03    1.1502119928E-03    1.1262520841E-03    1.1027915375E-03
    1.0798199510E-03    1.0573271387E-03    1.0353031263E-03    1.0137381466E-03
    9.9262263533E-04    9.7194722701E-04    9.5170275074E-04    9.3188022626E-04
    9.1247085999E-04    8.9346604118E-04    8.7485733813E-04    8.5663649451E-04
    8.3879542571E-04    8.2132621530E-04    8.0422111156E-04    7.8747252406E-04
    7.7107302035E-04    7.5501532265E-04    7.3929230469E-04    7.2389698855E-04
    7.0882254159E-04    6.9406227345E-04    6.7960963310E-04    6.6545820594E-04
    6.5160171099E-04    6.3803399810E-04    6.2474904527E-04    6.1174095596E-04
    5.9900395649E-04    5.8653239351E-04    5.7432073148E-04    5.6236355026E-04
    5.5065554265E-04    5.3919151212E-04    5.2796637046E-04    5.1697513554E-04
    5.0621292913E-04    4.9567497469E-04    4.8535659531E-04    4.7525321161E-04
    4.6536033971E-04    4.5567358926E-04    4.4618866148E-04    4.3690134726E-04
    4.2780752529E-04    4.1890316025E-04    4.1018430098E-04    4.0164707877E-04
    3.9328770564E-04    3.8510247262E-04    3.7708774815E-04    3.6923997643E-04
    3.6155567587E-04    3.5403143752E-04    3.4666392360E-04    3.3944986594E-04
    3.3238606461E-04    3.2546938644E-04    3.1869676366E-04    3.1206519253E-04
    3.0557173198E-04    2.9921350235E-04    2.9298768405E-04    2.8689151638E-04
    2.8092229622E-04    2.7507737689E-04    2.6935416696E-04    2.6375012905E-04
    2.5826277878E-04    2.5288968362E-04    2.4762846178E-04    2.4247678121E-04
    2.3743235853E-04    2.3249295802E-04    2.2765639061E-04    2.2292051292E-04
    2.1828322632E-04    2.1374247596E-04    2.0929624990E-04    2.0494257817E-04
    2.0067953192E-04    1.9650522255E-04    1.9241780087E-04    1.8841545630E-04
    1.8449641602E-04    1.8065894422E-04    1.7690134130E-04    1.7322194314E-04
    1.6961912034E-04    1.6609127748E-04    1.6263685246E-04    1.5925431575E-04
    1.5594216974E-04    1.5269894806E-04    1.4952321495E-04    1.4641356458E-04
    1.4336862046E-04    1.4038703482E-04    1.3746748799E-04    1.3460868784E-04
    1.3180936919E-04    1.2906829325E-04    1.2638424706E-04    1.2375604297E-04
    1.2118251809E-04    1.1866253379E-04    1.1619497518E-04    1.1377875063E-04
    1.1141279125E-04    1.0909605046E-04    1.0682750350E-04    1.0460614697E-04
    1.0243099840E-04    1.0030109579E-04    9.8215497198E-05    9.6173280336E-05
    9.4173542125E-05    9.2215398317E-05    9.0297983096E-05    8.8420448691E-05
    8.6581965003E-05    8.4781719235E-05    8.3018915527E-05    8.1292774608E-05
    7.9602533445E-05    7.7947444905E-05    7.6326777427E-05    7.4739814691E-05
    7.3185855303E-05    7.1664212482E-05    7.0174213759E-05    6.8715200671E-05
    6.7286528477E-05    6.5887565863E-05    6.4517694669E-05    6.3176309611E-05
    6.1862818012E-05    6.0576639541E-05    5.9317205954E-05    5.8083960841E-05
    5.6876359380E-05    5.5693868098E-05    5.4535964627E-05    5.3402137480E-05
    5.2291885821E-05    5.1204719241E-05    5.0140157543E-05    4.9097730528E-05
    4.8076977786E-05    4.7077448495E-05    4.6098701215E-05    4.5140303698E-05
    4.4201832694E-05    4.3282873764E-05    4.2383021095E-05    4.1501877321E-05
    4.0639053348E-05    3.9794168179E-05    3.8966848748E-05    3.8156729753E-05
    3.7363453494E-05    3.6586669716E-05    3.5826035453E-05    3.5081214874E-05
    3.4351879140E-05    3.3637706251E-05    3.2938380909E-05    3.2253594376E-05
    3.1583044339E-05    3.0926434773E-05    3.0283475814E-05    2.9653883626E-05
    2.9037380280E-05    2.8433693629E-05    2.7842557188E-05    2.7263710012E-05
    2.6696896589E-05    2.6141866720E-05    2.5598375410E-05    2.5066182760E-05
    2.4545053862E-05    2.4034758694E-05    2.3535072017E-05    2.3045773277E-05
    2.2566646509E-05    2.2097480237E-05    2.1638067386E-05    2.1188205184E-05
    2.0747695079E-05    2.0316342647E-05    1.9893957508E-05    1.9480353239E-05
    1.9075347295E-05    1.8678760928E-05    1.8290419105E-05    1.7910150434E-05
    1.7537787086E-05    1.7173164722E-05    1.6816122420E-05    1.6466502605E-05
    1.6124150977E-05    1.5788916445E-05    1.5460651058E-05    1.5139209944E-05
    1.4824451239E-05    1.4516236033E-05    1.4214428301E-05    1.3918894846E-05
    1.3629505242E-05    1.3346131772E-05    1.3068649378E-05    1.2796935597E-05
    1.2530870517E-05    1.2270336714E-05    1.2015219209E-05    1.1765405410E-05
    1.1520785069E-05    1.1281250227E-05    1.1046695171E-05    1.0817016384E-05
    1.0592112502E-05    1.0371884268E-05    1.0156234489E-05    9.9450679897E-06
    9.7382915761E-06    9.5358139902E-06    9.3375458710E-06    9.1433997151E-06
    8.9532898380E-06    8.7671323362E-06    8.5848450503E-06    8.4063475289E-06
    8.2315609924E-06    8.0604082991E-06    7.8928139106E-06    7.7287038587E-06
    7.5680057128E-06    7.4106485475E-06    7.2565629119E-06    7.1056807986E-06
    6.9579356139E-06    6.8132621480E-06    6.6715965468E-06    6.5328762833E-06
    6.3970401302E-06    6.2640281327E-06    6.1337815825E-06    6.0062429912E-06
    5.8813560655E-06    5.7590656823E-06    5.6393178640E-06    5.5220597551E-06
    5.4072395986E-06    5.2948067135E-06    5.1847114719E-06    5.0769052778E-06
    4.9713405450E-06    4.8679706766E-06    4.7667500440E-06    4.6676339672E-06
    4.5705786948E-06    4.4755413850E-06    4.3824800862E-06    4.2913537189E-06
    4.2021220574E-06    4.1147457124E-06    4.0291861130E-06    3.9454054901E-06
    3.8633668598E-06    3.7830340069E-06    3.7043714687E-06    3.6273445200E-06
    3.5519191573E-06    3.4780620836E-06    3.4057406945E-06    3.3349230629E-06
    3.2655779257E-06    3.1976746693E-06    3.1311833166E-06    3.0660745138E-06
    3.0023195169E-06    2.9398901797E-06    2.8787589409E-06    2.8188988123E-06
    2.7602833663E-06    2.7028867251E-06    2.6466835486E-06    2.5916490235E-06
    2.5377588522E-06    2.4849892423E-06    2.4333168960E-06    2.3827189997E-06
    2.3331732140E-06    2.2846576641E-06    2.2371509297E-06    2.1906320359E-06
    2.1450804438E-06    2.1004760415E-06    2.0567991352E-06    2.0140304403E-06
    1.9721510733E-06    1.9311425433E-06    1.8909867435E-06    1.8516659439E-06
    1.8131627829E-06    1.7754602597E-06    1.7385417272E-06    1.7023908840E-06
    1.6669917681E-06    1.6323287489E-06    1.5983865210E-06    1.5651500969E-06
    1.5326048012E-06    1.5007362630E-06    1.4695304105E-06    1.4389734645E-06
    1.4090519321E-06    1.3797526010E-06    1.3510625335E-06    1.3229690610E-06
    1.2954597783E-06    1.2685225379E-06    1.2421454450E-06    1.2163168522E-06
    1.1910253541E-06    1.1662597824E-06    1.1420092012E-06    1.1182629017E-06
    1.0950103980E-06    1.0722414221E-06    1.0499459194E-06    1.0281140446E-06
    1.0067361568E-06    9.8580281570E-07    9.6530477733E-07    9.4523298983E-07
    9.2557858957E-07    9.0633289722E-07    8.8748741390E-07    8.6903381746E-07
    8.5096395876E-07    8.3326985812E-07    8.1594370178E-07    7.9897783841E-07
    7.8236477583E-07    7.6609717760E-07    7.5016785984E-07    7.3456978803E-07
    7.1929607395E-07    7.0433997258E-07    6.8969487916E-07    6.7535432626E-07
    6.6131198093E-07    6.4756164191E-07    6.3409723688E-07    6.2091281979E-07
    6.0800256823E-07    5.9536078084E-07    5.8298187485E-07    5.7086038354E-07
    5.5899095391E-07    5.4736834421E-07    5.3598742174E-07    5.2484316050E-07
    5.1393063903E-07    5.0324503819E-07    4.9278163903E-07    4.8253582077E-07
    4.7250305870E-07    4.6267892219E-07    4.5305907276E-07    4.4363926212E-07
    4.3441533037E-07    4.2538320406E-07    4.1653889450E-07    4.0787849590E-07
    3.9939818370E-07    3.9109421291E-07    3.8296291637E-07    3.7500070322E-07
    3.6720405723E-07    3.5956953532E-07    3.5209376600E-07    3.4477344791E-07
    3.3760534833E-07    3.3058630175E-07    3.2371320851E-07    3.1698303341E-07
    3.1039280437E-07    3.0393961109E-07    2.9762060383E-07    2.9143299208E-07
    2.8537404338E-07    2.7944108211E-07    2.7363148825E-07    2.6794269629E-07
    2.6237219408E-07    2.5691752171E-07    2.5157627040E-07    2.4634608151E-07
    2.4122464540E-07    2.3620970050E-07    2.3129903226E-07    2.2649047219E-07
    2.2178189687E-07    2.1717122708E-07    2.1265642681E-07    2.0823550240E-07
    2.0390650166E-07    1.9966751299E-07    1.9551666455E-07    1.9145212342E-07
    1.8747209480E-07    1.8357482121E-07    1.7975858175E-07    1.7602169128E-07
    1.7236249970E-07    1.6877939125E-07    1.6527078375E-07    1.6183512795E-07
    1.5847090679E-07    1.5517663479E-07    1.5195085733E-07    1.4879215007E-07
    1.4569911827E-07    1.4267039623E-07    1.3970464660E-07    1.3680055988E-07
    1.3395685380E-07    1.3117227275E-07    1.2844558723E-07    1.2577559332E-07
    1.2316111212E-07    1.2060098927E-07    1.1809409440E-07    1.1563932065E-07
    1.1323558419E-07    1.1088182372E-07    1.0857700001E-07    1.0632009545E-07
    1.0411011359E-07    1.0194607871E-07    9.9827035356E-08    9.7752047975E-08
    9.5720200457E-08    9.3730595745E-08    9.1782355436E-08    8.9874619398E-08
    8.8006545382E-08    8.6177308662E-08    8.4386101659E-08    8.2632133590E-08
    8.0914630116E-08    7.9232833002E-08    7.7585999782E-08    7.5973403434E-08
    7.4394332051E-08    7.2848088532E-08    7.1333990273E-08    6.9851368867E-08
    6.8399569807E-08    6.6977952197E-08    6.5585888471E-08    6.4222764110E-08
    6.2887977376E-08    6.1580939048E-08    6.0301072157E-08    5.9047811731E-08
    5.7820604548E-08    5.6618908891E-08    5.5442194307E-08    5.4289941379E-08
    5.3161641488E-08    5.2056796592E-08    5.0974919007E-08    4.9915531189E-08
    4.8878165529E-08    4.7862364140E-08    4.6867678656E-08    4.5893670036E-08
    4.4939908369E-08    4.4005972683E-08    4.3091450764E-08    4.2195938967E-08
    4.1319042042E-08    4.0460372957E-08    3.9619552728E-08    3.8796210256E-08
    3.7989982157E-08    3.7200512602E-08    3.6427453163E-08    3.5670462656E-08
    3.4929206993E-08    3.4203359035E-08    3.3492598444E-08    3.2796611544E-08
    3.2115091180E-08    3.1447736585E-08    3.0794253248E-08    3.0154352781E-08
    2.9527752794E-08    2.8914176766E-08    2.8313353930E-08    2.7725019145E-08
    2.7148912787E-08    2.6584780631E-08    2.6032373736E-08    2.5491448339E-08
    2.4961765744E-08    2.4443092219E-08    2.3935198895E-08    2.3437861658E-08
    2.2950861058E-08    2.2473982205E-08    2.2007014676E-08    2.1549752429E-08
    2.1101993703E-08    2.0663540931E-08    2.0234200657E-08    1.9813783444E-08
    1.9402103797E-08    1.8998980078E-08    1.8604234423E-08    1.8217692670E-08
    1.7839184275E-08    1.7468542241E-08    1.7105603045E-08    1.6750206562E-08
    1.6402195998E-08    1.6061417817E-08    1.5727721678E-08    1.5400960363E-08
    1.5080989718E-08    1.4767668584E-08    1.4460858738E-08    1.4160424831E-08
    1.3866234327E-08    1.3578157447E-08    1.3296067109E-08    1.3019838875E-08
    1.2749350892E-08    1.2484483844E-08    1.2225120891E-08    1.1971147625E-08
    1.1722452017E-08    1.1478924367E-08    1.1240457254E-08    1.1006945493E-08
    1.0778286083E-08    1.0554378167E-08    1.0335122983E-08    1.0120423824E-08
    9.9101859927E-09    9.7043167600E-09    9.5027253255E-09    9.3053227755E-09
    9.1120220464E-09    8.9227378836E-09    8.7373868054E-09    8.5558870651E-09
    8.3781586158E-09    8.2041230742E-09    8.0337036874E-09    7.8668252980E-09
    7.7034143107E-09    7.5433986603E-09    7.3867077797E-09    7.2332725682E-09
    7.0830253630E-09    6.9358999072E-09    6.7918313212E-09    6.6507560742E-09
    6.5126119561E-09    6.3773380496E-09    6.2448747046E-09    6.1151635108E-09
    5.9881472718E-09    5.8637699804E-09    5.7419767936E-09    5.6227140080E-09
    5.5059290373E-09    5.3915703882E-09    5.2795876377E-09    5.1699314108E-09
    5.0625533590E-09    4.9574061383E-09    4.8544433897E-09    4.7536197176E-09
    4.6548906698E-09    4.5582127182E-09    4.4635432395E-09    4.3708404961E-09
    4.2800636183E-09    4.1911725861E-09    4.1041282111E-09    4.0188921194E-09
    3.9354267349E-09    3.8536952622E-09    3.7736616710E-09    3.6952906799E-09
    3.6185477410E-09    3.5433990243E-09    3.4698114028E-09    3.3977524382E-09
    3.3271903661E-09    3.2580940831E-09    3.1904331317E-09    3.1241776875E-09
    3.0592985462E-09    2.9957671102E-09    2.9335553761E-09    2.8726359231E-09
    2.8129819000E-09    2.7545670139E-09    2.6973655180E-09    2.6413522009E-09
    2.5865023748E-09    2.5327918653E-09    2.4801970006E-09    2.4286946006E-09
    2.3782619671E-09    2.3288768734E-09    2.2805175549E-09    2.2331626991E-09
    2.1867914368E-09    2.1413833325E-09    2.0969183752E-09    2.0533769698E-09
    2.0107399283E-09    1.9689884616E-09    1.9281041711E-09    1.8880690407E-09
    1.8488654284E-09    1.8104760591E-09    1.7728840164E-09    1.7360727357E-09
    1.7000259963E-09    1.6647279151E-09    1.6301629387E-09    1.5963158370E-09
    1.5631716965E-09    1.5307159134E-09    1.4989341873E-09    1.4678125152E-09
    1.4373371852E-09    1.4074947701E-09    1.3782721217E-09    1.3496563652E-09
    1.3216348931E-09    1.2941953599E-09    1.2673256770E-09    1.2410140065E-09
    1.2152487569E-09    1.1900185772E-09    1.1653123526E-09    1.1411191989E-09
   </PP_CHI.1>
   <PP_CHI.2
       type="real"
       size="1100"
       columns="4"
       index="2"
       occupation=" 2.000"
       pseudo_energy="   -0.1453824527E+01"
       label="5S"
       l="0" >
   -1.9834828224E-14    2.7907415217E-03    5.5844354732E-03    8.3840306489E-03
    1.1192468578E-02    1.4012679900E-02    1.6847580761E-02    1.9700069220E-02
    2.2573021677E-02    2.5469289339E-02    2.8391694701E-02    3.1343028072E-02
    3.4326044141E-02    3.7343458578E-02    4.0397944692E-02    4.3492130135E-02
    4.6628593663E-02    4.9809861957E-02    5.3038406505E-02    5.6316640555E-02
    5.9646916137E-02    6.3031521153E-02    6.6472676557E-02    6.9972533604E-02
    7.3533171191E-02    7.7156593280E-02    8.0844726413E-02    8.4599417322E-02
    8.8422430633E-02    9.2315446667E-02    9.6280059342E-02    1.0031777418E-01
    1.0443000642E-01    1.0861807924E-01    1.1288322207E-01    1.1722656904E-01
    1.2164915754E-01    1.2615192687E-01    1.3073571703E-01    1.3540126762E-01
    1.4014921682E-01    1.4498010059E-01    1.4989435183E-01    1.5489229985E-01
    1.5997416977E-01    1.6514008220E-01    1.7039005292E-01    1.7572399276E-01
    1.8114170756E-01    1.8664289824E-01    1.9222716106E-01    1.9789398787E-01
    2.0364276663E-01    2.0947278191E-01    2.1538321559E-01    2.2137314765E-01
    2.2744155706E-01    2.3358732279E-01    2.3980922494E-01    2.4610594595E-01
    2.5247607195E-01    2.5891809419E-01    2.6543041058E-01    2.7201132730E-01
    2.7865906058E-01    2.8537173848E-01    2.9214740283E-01    2.9898401124E-01
    3.0587943918E-01    3.1283148215E-01    3.1983785795E-01    3.2689620902E-01
    3.3400410481E-01    3.4115904428E-01    3.4835845846E-01    3.5559971301E-01
    3.6288011093E-01    3.7019689528E-01    3.7754725192E-01    3.8492831241E-01
    3.9233715682E-01    3.9977081668E-01    4.0722627792E-01    4.1470048389E-01
    4.2219033838E-01    4.2969270864E-01    4.3720442852E-01    4.4472230151E-01
    4.5224310391E-01    4.5976358791E-01    4.6728048478E-01    4.7479050799E-01
    4.8229035638E-01    4.8977671729E-01    4.9724626973E-01    5.0469568750E-01
    5.1212164232E-01    5.1952080695E-01    5.2688985831E-01    5.3422548048E-01
    5.4152436784E-01    5.4878322803E-01    5.5599878495E-01    5.6316778175E-01
    5.7028698369E-01    5.7735318109E-01    5.8436319209E-01    5.9131386551E-01
    5.9820208354E-01    6.0502476446E-01    6.1177886526E-01    6.1846138421E-01
    6.2506936344E-01    6.3159989130E-01    6.3805010485E-01    6.4441719216E-01
    6.5069839454E-01    6.5689100878E-01    6.6299238926E-01    6.6899995000E-01
    6.7491116662E-01    6.8072357826E-01    6.8643478942E-01    6.9204247166E-01
    6.9754436528E-01    7.0293828093E-01    7.0822210108E-01    7.1339378145E-01
    7.1845135234E-01    7.2339291988E-01    7.2821666720E-01    7.3292085552E-01
    7.3750382510E-01    7.4196399619E-01    7.4629986982E-01    7.5051002858E-01
    7.5459313721E-01    7.5854794317E-01    7.6237327716E-01    7.6606805346E-01
    7.6963127025E-01    7.7306200983E-01    7.7635943874E-01    7.7952280783E-01
    7.8255145219E-01    7.8544479108E-01    7.8820232770E-01    7.9082364892E-01
    7.9330842492E-01    7.9565640875E-01    7.9786743583E-01    7.9994142337E-01
    8.0187836966E-01    8.0367835340E-01    8.0534153284E-01    8.0686814495E-01
    8.0825850442E-01    8.0951300271E-01    8.1063210694E-01    8.1161635876E-01
    8.1246637314E-01    8.1318283716E-01    8.1376650865E-01    8.1421821481E-01
    8.1453885087E-01    8.1472937851E-01    8.1479082442E-01    8.1472427873E-01
    8.1453089334E-01    8.1421188034E-01    8.1376851027E-01    8.1320211041E-01
    8.1251406302E-01    8.1170580354E-01    8.1077881876E-01    8.0973464498E-01
    8.0857486610E-01    8.0730111175E-01    8.0591505536E-01    8.0441841221E-01
    8.0281293745E-01    8.0110042420E-01    7.9928270149E-01    7.9736163231E-01
    7.9533911159E-01    7.9321706424E-01    7.9099744309E-01    7.8868222692E-01
    7.8627341847E-01    7.8377304241E-01    7.8118314338E-01    7.7850578399E-01
    7.7574304289E-01    7.7289701275E-01    7.6996979841E-01    7.6696351487E-01
    7.6388028546E-01    7.6072223992E-01    7.5749151258E-01    7.5419024050E-01
    7.5082056166E-01    7.4738461324E-01    7.4388452983E-01    7.4032244175E-01
    7.3670047335E-01    7.3302074140E-01    7.2928535345E-01    7.2549640631E-01
    7.2165598452E-01    7.1776615882E-01    7.1382898478E-01    7.0984650136E-01
    7.0582072957E-01    7.0175367117E-01    6.9764730740E-01    6.9350359780E-01
    6.8932447900E-01    6.8511186365E-01    6.8086763933E-01    6.7659366755E-01
    6.7229178278E-01    6.6796379156E-01    6.6361147159E-01    6.5923657098E-01
    6.5484080748E-01    6.5042586774E-01    6.4599340671E-01    6.4154504699E-01
    6.3708237833E-01    6.3260695712E-01    6.2812030592E-01    6.2362391311E-01
    6.1911923250E-01    6.1460768310E-01    6.1009064882E-01    6.0556947830E-01
    6.0104548480E-01    5.9651994605E-01    5.9199410422E-01    5.8746916594E-01
    5.8294630231E-01    5.7842664903E-01    5.7391130647E-01    5.6940133989E-01
    5.6489777965E-01    5.6040162142E-01    5.5591382653E-01    5.5143532225E-01
    5.4696700219E-01    5.4250972666E-01    5.3806432312E-01    5.3363158666E-01
    5.2921228046E-01    5.2480713632E-01    5.2041685520E-01    5.1604210781E-01
    5.1168353519E-01    5.0734174933E-01    5.0301733378E-01    4.9871084434E-01
    4.9442280973E-01    4.9015373223E-01    4.8590408842E-01    4.8167432989E-01
    4.7746488392E-01    4.7327615425E-01    4.6910852177E-01    4.6496234530E-01
    4.6083796230E-01    4.5673568962E-01    4.5265582423E-01    4.4859864397E-01
    4.4456440828E-01    4.4055335891E-01    4.3656572066E-01    4.3260170209E-01
    4.2866149621E-01    4.2474528118E-01    4.2085322096E-01    4.1698546601E-01
    4.1314215391E-01    4.0932340999E-01    4.0552934796E-01    4.0176007046E-01
    3.9801566967E-01    3.9429622782E-01    3.9060181776E-01    3.8693250342E-01
    3.8328834030E-01    3.7966937591E-01    3.7607565020E-01    3.7250719597E-01
    3.6896403921E-01    3.6544619947E-01    3.6195369016E-01    3.5848651883E-01
    3.5504468745E-01    3.5162819259E-01    3.4823702565E-01    3.4487117300E-01
    3.4153061615E-01    3.3821533177E-01    3.3492529187E-01    3.3166046378E-01
    3.2842081024E-01    3.2520628953E-01    3.2201685560E-01    3.1885245824E-01
    3.1571304326E-01    3.1259855254E-01    3.0950892424E-01    3.0644409290E-01
    3.0340398954E-01    3.0038854183E-01    2.9739767420E-01    2.9443130792E-01
    2.9148936126E-01    2.8857174958E-01    2.8567838544E-01    2.8280917870E-01
    2.7996403663E-01    2.7714286401E-01    2.7434556324E-01    2.7157203440E-01
    2.6882217536E-01    2.6609588190E-01    2.6339304775E-01    2.6071356468E-01
    2.5805732263E-01    2.5542420973E-01    2.5281411242E-01    2.5022691550E-01
    2.4766250223E-01    2.4512075438E-01    2.4260155230E-01    2.4010477501E-01
    2.3763030023E-01    2.3517800449E-01    2.3274776316E-01    2.3033945051E-01
    2.2795293979E-01    2.2558810327E-01    2.2324481231E-01    2.2092293738E-01
    2.1862234819E-01    2.1634291363E-01    2.1408450193E-01    2.1184698062E-01
    2.0963021666E-01    2.0743407639E-01    2.0525842568E-01    2.0310312987E-01
    2.0096805390E-01    1.9885306229E-01    1.9675801922E-01    1.9468278853E-01
    1.9262723380E-01    1.9059121836E-01    1.8857460531E-01    1.8657725761E-01
    1.8459903804E-01    1.8263980932E-01    1.8069943404E-01    1.7877777477E-01
    1.7687469407E-01    1.7499005451E-01    1.7312371867E-01    1.7127554923E-01
    1.6944540897E-01    1.6763316075E-01    1.6583866761E-01    1.6406179275E-01
    1.6230239955E-01    1.6056035163E-01    1.5883551282E-01    1.5712774722E-01
    1.5543691923E-01    1.5376289351E-01    1.5210553508E-01    1.5046470928E-01
    1.4884028179E-01    1.4723211870E-01    1.4564008647E-01    1.4406405198E-01
    1.4250388252E-01    1.4095944585E-01    1.3943061016E-01    1.3791724412E-01
    1.3641921689E-01    1.3493639812E-01    1.3346865799E-01    1.3201586718E-01
    1.3057789694E-01    1.2915461904E-01    1.2774590584E-01    1.2635163025E-01
    1.2497166577E-01    1.2360588651E-01    1.2225416716E-01    1.2091638304E-01
    1.1959241008E-01    1.1828212487E-01    1.1698540460E-01    1.1570212714E-01
    1.1443217102E-01    1.1317541540E-01    1.1193174014E-01    1.1070102577E-01
    1.0948315351E-01    1.0827800526E-01    1.0708546363E-01    1.0590541192E-01
    1.0473773415E-01    1.0358231503E-01    1.0243904002E-01    1.0130779528E-01
    1.0018846769E-01    9.9080944895E-02    9.7985115235E-02    9.6900867807E-02
    9.5828092444E-02    9.4766679724E-02    9.3716520970E-02    9.2677508254E-02
    9.1649534398E-02    9.0632492979E-02    8.9626278326E-02    8.8630785527E-02
    8.7645910426E-02    8.6671549627E-02    8.5707600493E-02    8.4753961147E-02
    8.3810530476E-02    8.2877208125E-02    8.1953894504E-02    8.1040490784E-02
    8.0136898897E-02    7.9243021538E-02    7.8358762163E-02    7.7484024986E-02
    7.6618714985E-02    7.5762737893E-02    7.4916000203E-02    7.4078409165E-02
    7.3249872782E-02    7.2430299812E-02    7.1619599766E-02    7.0817682905E-02
    7.0024460237E-02    6.9239843518E-02    6.8463745249E-02    6.7696078672E-02
    6.6936757770E-02    6.6185697262E-02    6.5442812603E-02    6.4708019980E-02
    6.3981236310E-02    6.3262379236E-02    6.2551367126E-02    6.1848119067E-02
    6.1152554865E-02    6.0464595041E-02    5.9784160826E-02    5.9111174159E-02
    5.8445557685E-02    5.7787234749E-02    5.7136129393E-02    5.6492166355E-02
    5.5855271061E-02    5.5225369625E-02    5.4602388844E-02    5.3986256192E-02
    5.3376899820E-02    5.2774248550E-02    5.2178231872E-02    5.1588779936E-02
    5.1005823554E-02    5.0429294193E-02    4.9859123970E-02    4.9295245648E-02
    4.8737592634E-02    4.8186098972E-02    4.7640699343E-02    4.7101329053E-02
    4.6567924037E-02    4.6040420851E-02    4.5518756665E-02    4.5002869265E-02
    4.4492697042E-02    4.3988178992E-02    4.3489254711E-02    4.2995864387E-02
    4.2507948801E-02    4.2025449318E-02    4.1548307887E-02    4.1076467029E-02
    4.0609869843E-02    4.0148459993E-02    3.9692181706E-02    3.9240979769E-02
    3.8794799524E-02    3.8353586862E-02    3.7917288220E-02    3.7485850575E-02
    3.7059221443E-02    3.6637348871E-02    3.6220181432E-02    3.5807668225E-02
    3.5399758866E-02    3.4996403486E-02    3.4597552726E-02    3.4203157732E-02
    3.3813170152E-02    3.3427542131E-02    3.3046226305E-02    3.2669175800E-02
    3.2296344224E-02    3.1927685666E-02    3.1563154688E-02    3.1202706326E-02
    3.0846296079E-02    3.0493879912E-02    3.0145414246E-02    2.9800855955E-02
    2.9460162365E-02    2.9123291247E-02    2.8790200813E-02    2.8460849712E-02
    2.8135197027E-02    2.7813202270E-02    2.7494825378E-02    2.7180026709E-02
    2.6868767038E-02    2.6561007554E-02    2.6256709854E-02    2.5955835941E-02
    2.5658348219E-02    2.5364209491E-02    2.5073382950E-02    2.4785832182E-02
    2.4501521159E-02    2.4220414234E-02    2.3942476138E-02    2.3667671978E-02
    2.3395967233E-02    2.3127327746E-02    2.2861719728E-02    2.2599109746E-02
    2.2339464728E-02    2.2082751952E-02    2.1828939046E-02    2.1577993984E-02
    2.1329885084E-02    2.1084581003E-02    2.0842050730E-02    2.0602263592E-02
    2.0365189241E-02    2.0130797656E-02    1.9899059137E-02    1.9669944306E-02
    1.9443424098E-02    1.9219469763E-02    1.8998052857E-02    1.8779145245E-02
    1.8562719095E-02    1.8348746874E-02    1.8137201347E-02    1.7928055572E-02
    1.7721282897E-02    1.7516856960E-02    1.7314751683E-02    1.7114941269E-02
    1.6917400201E-02    1.6722103238E-02    1.6529025412E-02    1.6338142026E-02
    1.6149428649E-02    1.5962861117E-02    1.5778415527E-02    1.5596068234E-02
    1.5415795853E-02    1.5237575250E-02    1.5061383543E-02    1.4887198100E-02
    1.4714996532E-02    1.4544756697E-02    1.4376456691E-02    1.4210074851E-02
    1.4045589748E-02    1.3882980187E-02    1.3722225204E-02    1.3563304062E-02
    1.3406196254E-02    1.3250881492E-02    1.3097339714E-02    1.2945551072E-02
    1.2795495938E-02    1.2647154898E-02    1.2500508750E-02    1.2355538502E-02
    1.2212225368E-02    1.2070550770E-02    1.1930496332E-02    1.1792043878E-02
    1.1655175434E-02    1.1519873219E-02    1.1386119651E-02    1.1253897337E-02
    1.1123189077E-02    1.0993977858E-02    1.0866246855E-02    1.0739979427E-02
    1.0615159116E-02    1.0491769644E-02    1.0369794913E-02    1.0249219000E-02
    1.0130026158E-02    1.0012200815E-02    9.8957275662E-03    9.7805911799E-03
    9.6667765902E-03    9.5542688975E-03    9.4430533663E-03    9.3331154231E-03
    9.2244406553E-03    9.1170148089E-03    9.0108237872E-03    8.9058536488E-03
    8.8020906063E-03    8.6995210241E-03    8.5981314174E-03    8.4979084501E-03
    8.3988389335E-03    8.3009098246E-03    8.2041082244E-03    8.1084213766E-03
    8.0138366659E-03    7.9203416166E-03    7.8279238910E-03    7.7365712878E-03
    7.6462717411E-03    7.5570133182E-03    7.4687842190E-03    7.3815727739E-03
    7.2953674427E-03    7.2101568132E-03    7.1259295996E-03    7.0426746414E-03
    6.9603809022E-03    6.8790374677E-03    6.7986335451E-03    6.7191584612E-03
    6.6406016617E-03    6.5629527094E-03    6.4862012831E-03    6.4103371766E-03
    6.3353502970E-03    6.2612306639E-03    6.1879684077E-03    6.1155537691E-03
    6.0439770971E-03    5.9732288486E-03    5.9032995864E-03    5.8341799789E-03
    5.7658607983E-03    5.6983329200E-03    5.6315873209E-03    5.5656150788E-03
    5.5004073710E-03    5.4359554734E-03    5.3722507595E-03    5.3092846989E-03
    5.2470488566E-03    5.1855348923E-03    5.1247345584E-03    5.0646397000E-03
    5.0052422533E-03    4.9465342448E-03    4.8885077903E-03    4.8311550939E-03
    4.7744684470E-03    4.7184402275E-03    4.6630628987E-03    4.6083290084E-03
    4.5542311881E-03    4.5007621518E-03    4.4479146955E-03    4.3956816959E-03
    4.3440561099E-03    4.2930309733E-03    4.2425994004E-03    4.1927545827E-03
    4.1434897884E-03    4.0947983614E-03    4.0466737204E-03    3.9991093583E-03
    3.9520988411E-03    3.9056358075E-03    3.8597139677E-03    3.8143271027E-03
    3.7694690637E-03    3.7251337713E-03    3.6813152145E-03    3.6380074503E-03
    3.5952046025E-03    3.5529008615E-03    3.5110904832E-03    3.4697677884E-03
    3.4289271619E-03    3.3885630522E-03    3.3486699703E-03    3.3092424897E-03
    3.2702752447E-03    3.2317629307E-03    3.1937003032E-03    3.1560821766E-03
    3.1189034246E-03    3.0821589786E-03    3.0458438275E-03    3.0099530171E-03
    2.9744816492E-03    2.9394248812E-03    2.9047779256E-03    2.8705360489E-03
    2.8366945717E-03    2.8032488674E-03    2.7701943621E-03    2.7375265339E-03
    2.7052409121E-03    2.6733330769E-03    2.6417986588E-03    2.6106333380E-03
    2.5798328437E-03    2.5493929538E-03    2.5193094943E-03    2.4895783385E-03
    2.4601954069E-03    2.4311566665E-03    2.4024581300E-03    2.3740958558E-03
    2.3460659470E-03    2.3183645513E-03    2.2909878604E-03    2.2639321092E-03
    2.2371935757E-03    2.2107685805E-03    2.1846534860E-03    2.1588446962E-03
    2.1333386563E-03    2.1081318521E-03    2.0832208093E-03    2.0586020936E-03
    2.0342723100E-03    2.0102281021E-03    1.9864661520E-03    1.9629831798E-03
    1.9397759431E-03    1.9168412368E-03    1.8941758923E-03    1.8717767772E-03
    1.8496407953E-03    1.8277648858E-03    1.8061460227E-03    1.7847812151E-03
    1.7636675062E-03    1.7428019730E-03    1.7221817263E-03    1.7018039100E-03
    1.6816657007E-03    1.6617643073E-03    1.6420969711E-03    1.6226609649E-03
    1.6034535927E-03    1.5844721898E-03    1.5657141218E-03    1.5471767849E-03
    1.5288576051E-03    1.5107540380E-03    1.4928635684E-03    1.4751837104E-03
    1.4577120062E-03    1.4404460268E-03    1.4233833708E-03    1.4065216648E-03
    1.3898585623E-03    1.3733917443E-03    1.3571189184E-03    1.3410378184E-03
    1.3251462045E-03    1.3094418626E-03    1.2939226044E-03    1.2785862664E-03
    1.2634307105E-03    1.2484538230E-03    1.2336535148E-03    1.2190277208E-03
    1.2045743999E-03    1.1902915344E-03    1.1761771301E-03    1.1622292157E-03
    1.1484458428E-03    1.1348250855E-03    1.1213650403E-03    1.1080638254E-03
    1.0949195810E-03    1.0819304690E-03    1.0690946721E-03    1.0564103946E-03
    1.0438758612E-03    1.0314893173E-03    1.0192490286E-03    1.0071532809E-03
    9.9520037992E-04    9.8338865101E-04    9.7171643888E-04    9.6018210749E-04
    9.4878403975E-04    9.3752063734E-04    9.2639032050E-04    9.1539152778E-04
    9.0452271587E-04    8.9378235938E-04    8.8316895064E-04    8.7268099947E-04
    8.6231703302E-04    8.5207559556E-04    8.4195524824E-04    8.3195456899E-04
    8.2207215222E-04    8.1230660871E-04    8.0265656540E-04    7.9312066519E-04
    7.8369756676E-04    7.7438594442E-04    7.6518448789E-04    7.5609190215E-04
    7.4710690726E-04    7.3822823817E-04    7.2945464457E-04    7.2078489072E-04
    7.1221775525E-04    7.0375203107E-04    6.9538652510E-04    6.8712005821E-04
    6.7895146499E-04    6.7087959363E-04    6.6290330575E-04    6.5502147625E-04
    6.4723299314E-04    6.3953675741E-04    6.3193168290E-04    6.2441669608E-04
    6.1699073598E-04    6.0965275401E-04    6.0240171384E-04    5.9523659121E-04
    5.8815637384E-04    5.8116006127E-04    5.7424666475E-04    5.6741520706E-04
    5.6066472240E-04    5.5399425627E-04    5.4740286532E-04    5.4088961724E-04
    5.3445359062E-04    5.2809387481E-04    5.2180956984E-04    5.1559978625E-04
    5.0946364498E-04    5.0340027728E-04    4.9740882454E-04    4.9148843824E-04
    4.8563827975E-04    4.7985752028E-04    4.7414534076E-04    4.6850093168E-04
    4.6292349305E-04    4.5741223421E-04    4.5196637381E-04    4.4658513961E-04
    4.4126776846E-04    4.3601350613E-04    4.3082160725E-04    4.2569133517E-04
    4.2062196189E-04    4.1561276796E-04    4.1066304234E-04    4.0577208235E-04
    4.0093919355E-04    3.9616368965E-04    3.9144489241E-04    3.8678213156E-04
    3.8217474468E-04    3.7762207715E-04    3.7312348201E-04    3.6867831992E-04
    3.6428595904E-04    3.5994577495E-04    3.5565715056E-04    3.5141947603E-04
    3.4723214871E-04    3.4309457300E-04    3.3900616031E-04    3.3496632897E-04
    3.3097450416E-04    3.2703011780E-04    3.2313260849E-04    3.1928142144E-04
    3.1547600839E-04    3.1171582752E-04    3.0800034338E-04    3.0432902682E-04
    3.0070135492E-04    2.9711681093E-04    2.9357488415E-04    2.9007506990E-04
    2.8661686947E-04    2.8319978997E-04    2.7982334436E-04    2.7648705131E-04
    2.7319043516E-04    2.6993302586E-04    2.6671435889E-04    2.6353397521E-04
    2.6039142117E-04    2.5728624850E-04    2.5421801416E-04    2.5118628039E-04
    2.4819061454E-04    2.4523058909E-04    2.4230578154E-04    2.3941577440E-04
    2.3656015506E-04    2.3373851582E-04    2.3095045375E-04    2.2819557070E-04
    2.2547347320E-04    2.2278377243E-04    2.2012608415E-04    2.1750002866E-04
    2.1490523074E-04    2.1234131959E-04    2.0980792880E-04    2.0730469626E-04
    2.0483126418E-04    2.0238727894E-04    1.9997239112E-04    1.9758625544E-04
    1.9522853068E-04    1.9289887965E-04    1.9059696914E-04    1.8832246988E-04
    1.8607505650E-04    1.8385440745E-04    1.8166020501E-04    1.7949213518E-04
    1.7734988769E-04    1.7523315595E-04    1.7314163696E-04    1.7107503133E-04
    1.6903304318E-04    1.6701538017E-04    1.6502175338E-04    1.6305187731E-04
    1.6110546986E-04    1.5918225224E-04    1.5728194897E-04    1.5540428782E-04
    1.5354899978E-04    1.5171581905E-04    1.4990448293E-04    1.4811473186E-04
    1.4634630934E-04    1.4459896190E-04    1.4287243908E-04    1.4116649338E-04
    1.3948088023E-04    1.3781535795E-04    1.3616968772E-04    1.3454363357E-04
    1.3293696229E-04    1.3134944346E-04    1.2978084936E-04    1.2823095498E-04
    1.2669953800E-04    1.2518637869E-04    1.2369125994E-04    1.2221396723E-04
    1.2075428855E-04    1.1931201443E-04    1.1788693786E-04    1.1647885429E-04
    1.1508756159E-04    1.1371286005E-04    1.1235455229E-04    1.1101244329E-04
    1.0968634034E-04    1.0837605301E-04    1.0708139313E-04    1.0580217476E-04
    1.0453821416E-04    1.0328932978E-04    1.0205534222E-04    1.0083607419E-04
    9.9631350523E-05    9.8440998122E-05    9.7264845940E-05    9.6102724963E-05
    9.4954468181E-05    9.3819910563E-05    9.2698889038E-05    9.1591242468E-05
    9.0496811629E-05    8.9415439185E-05    8.8346969666E-05    8.7291249448E-05
    8.6248126730E-05    8.5217451513E-05    8.4199075577E-05    8.3192852463E-05
    8.2198637449E-05    8.1216287532E-05    8.0245661407E-05    7.9286619445E-05
    7.8339023675E-05    7.7402737766E-05    7.6477627005E-05    7.5563558278E-05
    7.4660400052E-05    7.3768022356E-05    7.2886296764E-05    7.2015096374E-05
    7.1154295791E-05    7.0303771112E-05    6.9463399902E-05    6.8633061184E-05
    6.7812635417E-05    6.7002004480E-05    6.6201051656E-05    6.5409661615E-05
    6.4627720396E-05    6.3855115394E-05    6.3091735342E-05    6.2337470295E-05
    6.1592211614E-05    6.0855851953E-05    6.0128285241E-05    5.9409406668E-05
    5.8699112669E-05    5.7997300913E-05    5.7303870282E-05    5.6618720863E-05
    5.5941753931E-05    5.5272871931E-05    5.4611978474E-05    5.3958978313E-05
    5.3313777335E-05    5.2676282546E-05    5.2046402058E-05    5.1424045077E-05
    5.0809121888E-05    5.0201543843E-05    4.9601223348E-05    4.9008073854E-05
    4.8422009837E-05    4.7842946795E-05    4.7270801228E-05    4.6705490632E-05
    4.6146933483E-05    4.5595049227E-05    4.5049758270E-05    4.4510981965E-05
    4.3978642599E-05    4.3452663386E-05    4.2932968453E-05    4.2419482830E-05
    4.1912132440E-05    4.1410844087E-05    4.0915545447E-05    4.0426165057E-05
    3.9942632303E-05    3.9464877413E-05    3.8992831448E-05    3.8526426284E-05
    3.8065594615E-05    3.7610269931E-05    3.7160386516E-05    3.6715879437E-05
    3.6276684534E-05    3.5842738411E-05    3.5413978426E-05    3.4990342685E-05
    3.4571770029E-05    3.4158200029E-05    3.3749572976E-05    3.3345829871E-05
    3.2946912417E-05    3.2552763015E-05    3.2163324749E-05    3.1778541381E-05
   </PP_CHI.2>
   <PP_CHI.3
       type="real"
       size="1100"
       columns="4"
       index="3"
       occupation=" 6.000"
       pseudo_energy="   -0.6058461525E+00"
       label="5P"
       l="1" >
   -1.4914241717E-13    3.1550155504E-05    1.2621426490E-04    2.8403321552E-04
    5.0507501594E-04    7.8943459086E-04    1.1372334946E-03    1.5486195435E-03
    2.0237663683E-03    2.5628728870E-03    3.1661626997E-03    3.8338834059E-03
    4.5663058461E-03    5.3637232696E-03    6.2264504289E-03    7.1548226036E-03
    8.1491945549E-03    9.2099394134E-03    1.0337447502E-02    1.1532125096E-02
    1.2794393123E-02    1.4124685808E-02    1.5523449255E-02    1.6991139989E-02
    1.8528223439E-02    2.0135172376E-02    2.1812465310E-02    2.3560584849E-02
    2.5380016013E-02    2.7271244520E-02    2.9234755043E-02    3.1271029435E-02
    3.3380544929E-02    3.5563772330E-02    3.7821174171E-02    4.0153202876E-02
    4.2560298897E-02    4.5042888854E-02    4.7601383671E-02    5.0236176713E-02
    5.2947641925E-02    5.5736131988E-02    5.8601976471E-02    6.1545480020E-02
    6.4566920545E-02    6.7666547447E-02    7.0844579859E-02    7.4101204922E-02
    7.7436576092E-02    8.0850811486E-02    8.4343992263E-02    8.7916161051E-02
    9.1567320417E-02    9.5297431389E-02    9.9106412025E-02    1.0299413604E-01
    1.0696043147E-01    1.1100507947E-01    1.1512781303E-01    1.1932831593E-01
    1.2360622162E-01    1.2796111223E-01    1.3239251767E-01    1.3689991475E-01
    1.4148272640E-01    1.4614032101E-01    1.5087201173E-01    1.5567705600E-01
    1.6055465503E-01    1.6550395342E-01    1.7052403890E-01    1.7561394205E-01
    1.8077263619E-01    1.8599903734E-01    1.9129200423E-01    1.9665033841E-01
    2.0207278445E-01    2.0755803027E-01    2.1310470741E-01    2.1871139159E-01
    2.2437660317E-01    2.3009880779E-01    2.3587641706E-01    2.4170778937E-01
    2.4759123069E-01    2.5352499556E-01    2.5950728809E-01    2.6553626304E-01
    2.7161002698E-01    2.7772663953E-01    2.8388411468E-01    2.9008042215E-01
    2.9631348884E-01    3.0258120033E-01    3.0888140245E-01    3.1521190289E-01
    3.2157047294E-01    3.2795484915E-01    3.3436273521E-01    3.4079180372E-01
    3.4723969810E-01    3.5370403457E-01    3.6018240404E-01    3.6667237420E-01
    3.7317149152E-01    3.7967728337E-01    3.8618726008E-01    3.9269891713E-01
    3.9920973726E-01    4.0571719271E-01    4.1221874736E-01    4.1871185896E-01
    4.2519398135E-01    4.3166256673E-01    4.3811506781E-01    4.4454894011E-01
    4.5096164419E-01    4.5735064783E-01    4.6371342830E-01    4.7004747453E-01
    4.7635028934E-01    4.8261939158E-01    4.8885231832E-01    4.9504662694E-01
    5.0119989729E-01    5.0730973373E-01    5.1337376717E-01    5.1938965714E-01
    5.2535509368E-01    5.3126779937E-01    5.3712553114E-01    5.4292608219E-01
    5.4866728373E-01    5.5434700680E-01    5.5996316394E-01    5.6551371084E-01
    5.7099664794E-01    5.7641002201E-01    5.8175192756E-01    5.8702050834E-01
    5.9221395866E-01    5.9733052468E-01    6.0236850568E-01    6.0732625522E-01
    6.1220218222E-01    6.1699475201E-01    6.2170248733E-01    6.2632396916E-01
    6.3085783762E-01    6.3530279267E-01    6.3965759484E-01    6.4392106582E-01
    6.4809208901E-01    6.5216961001E-01    6.5615263697E-01    6.6004024098E-01
    6.6383155631E-01    6.6752578055E-01    6.7112217479E-01    6.7462006362E-01
    6.7801883513E-01    6.8131794078E-01    6.8451689529E-01    6.8761527636E-01
    6.9061272439E-01    6.9350894212E-01    6.9630369421E-01    6.9899680671E-01
    7.0158816655E-01    7.0407772090E-01    7.0646547651E-01    7.0875149897E-01
    7.1093591191E-01    7.1301889618E-01    7.1500068894E-01    7.1688158273E-01
    7.1866192442E-01    7.2034211426E-01    7.2192260469E-01    7.2340389927E-01
    7.2478655150E-01    7.2607116358E-01    7.2725838517E-01    7.2834891211E-01
    7.2934348509E-01    7.3024288831E-01    7.3104794809E-01    7.3175953146E-01
    7.3237854475E-01    7.3290593210E-01    7.3334267404E-01    7.3368978595E-01
    7.3394831656E-01    7.3411934647E-01    7.3420398658E-01    7.3420337657E-01
    7.3411868335E-01    7.3395109951E-01    7.3370184178E-01    7.3337214945E-01
    7.3296328288E-01    7.3247652187E-01    7.3191316422E-01    7.3127452411E-01
    7.3056193065E-01    7.2977672634E-01    7.2892026560E-01    7.2799391325E-01
    7.2699904312E-01    7.2593703656E-01    7.2480928105E-01    7.2361716880E-01
    7.2236209539E-01    7.2104545842E-01    7.1966865621E-01    7.1823308649E-01
    7.1674014519E-01    7.1519122518E-01    7.1358771511E-01    7.1193099824E-01
    7.1022245133E-01    7.0846344356E-01    7.0665533550E-01    7.0479947805E-01
    7.0289721156E-01    7.0094986483E-01    6.9895875425E-01    6.9692518297E-01
    6.9485044006E-01    6.9273579980E-01    6.9058252089E-01    6.8839184583E-01
    6.8616500028E-01    6.8390319242E-01    6.8160761245E-01    6.7927943205E-01
    6.7691980393E-01    6.7452986141E-01    6.7211071803E-01    6.6966346718E-01
    6.6718918188E-01    6.6468891443E-01    6.6216369624E-01    6.5961453765E-01
    6.5704242778E-01    6.5444833442E-01    6.5183320398E-01    6.4919796144E-01
    6.4654351037E-01    6.4387073297E-01    6.4118049012E-01    6.3847362151E-01
    6.3575094578E-01    6.3301326065E-01    6.3026134313E-01    6.2749594975E-01
    6.2471781681E-01    6.2192766061E-01    6.1912617780E-01    6.1631404566E-01
    6.1349192243E-01    6.1066044769E-01    6.0782024271E-01    6.0497191084E-01
    6.0211603792E-01    5.9925319270E-01    5.9638392724E-01    5.9350877737E-01
    5.9062826311E-01    5.8774288915E-01    5.8485314526E-01    5.8195950681E-01
    5.7906243517E-01    5.7616237819E-01    5.7325977071E-01    5.7035503492E-01
    5.6744858090E-01    5.6454080704E-01    5.6163210046E-01    5.5872283748E-01
    5.5581338402E-01    5.5290409603E-01    5.4999531988E-01    5.4708739275E-01
    5.4418064305E-01    5.4127539069E-01    5.3837194752E-01    5.3547061759E-01
    5.3257169751E-01    5.2967547668E-01    5.2678223760E-01    5.2389225612E-01
    5.2100580163E-01    5.1812313733E-01    5.1524452038E-01    5.1237020205E-01
    5.0950042792E-01    5.0663543791E-01    5.0377546645E-01    5.0092074249E-01
    4.9807148957E-01    4.9522792584E-01    4.9239026402E-01    4.8955871143E-01
    4.8673346994E-01    4.8391473610E-01    4.8110270118E-01    4.7829755132E-01
    4.7549946769E-01    4.7270862647E-01    4.6992519905E-01    4.6714935205E-01
    4.6438124745E-01    4.6162104267E-01    4.5886889067E-01    4.5612494002E-01
    4.5338933500E-01    4.5066221566E-01    4.4794371795E-01    4.4523397373E-01
    4.4253311092E-01    4.3984125353E-01    4.3715852175E-01    4.3448503203E-01
    4.3182089715E-01    4.2916622627E-01    4.2652112504E-01    4.2388569561E-01
    4.2126003677E-01    4.1864424395E-01    4.1603840933E-01    4.1344262185E-01
    4.1085696734E-01    4.0828152852E-01    4.0571638510E-01    4.0316161380E-01
    4.0061728844E-01    3.9808347998E-01    3.9556025657E-01    3.9304768361E-01
    3.9054582380E-01    3.8805473720E-01    3.8557448126E-01    3.8310511089E-01
    3.8064667848E-01    3.7819923400E-01    3.7576282497E-01    3.7333749657E-01
    3.7092329166E-01    3.6852025082E-01    3.6612841240E-01    3.6374781256E-01
    3.6137848531E-01    3.5902046254E-01    3.5667377408E-01    3.5433844773E-01
    3.5201450931E-01    3.4970198265E-01    3.4740088971E-01    3.4511125052E-01
    3.4283308331E-01    3.4056640447E-01    3.3831122863E-01    3.3606756866E-01
    3.3383543576E-01    3.3161483941E-01    3.2940578747E-01    3.2720828621E-01
    3.2502234029E-01    3.2284795284E-01    3.2068512547E-01    3.1853385829E-01
    3.1639414999E-01    3.1426599779E-01    3.1214939755E-01    3.1004434373E-01
    3.0795082948E-01    3.0586884661E-01    3.0379838565E-01    3.0173943589E-01
    2.9969198537E-01    2.9765602094E-01    2.9563152825E-01    2.9361849181E-01
    2.9161689501E-01    2.8962672013E-01    2.8764794836E-01    2.8568055987E-01
    2.8372453376E-01    2.8177984816E-01    2.7984648020E-01    2.7792440606E-01
    2.7601360097E-01    2.7411403929E-01    2.7222569444E-01    2.7034853900E-01
    2.6848254470E-01    2.6662768246E-01    2.6478392237E-01    2.6295123376E-01
    2.6112958520E-01    2.5931894452E-01    2.5751927882E-01    2.5573055451E-01
    2.5395273733E-01    2.5218579235E-01    2.5042968399E-01    2.4868437609E-01
    2.4694983184E-01    2.4522601387E-01    2.4351288425E-01    2.4181040450E-01
    2.4011853560E-01    2.3843723803E-01    2.3676647178E-01    2.3510619635E-01
    2.3345637079E-01    2.3181695370E-01    2.3018790326E-01    2.2856917723E-01
    2.2696073299E-01    2.2536252753E-01    2.2377451748E-01    2.2219665910E-01
    2.2062890836E-01    2.1907122086E-01    2.1752355194E-01    2.1598585662E-01
    2.1445808965E-01    2.1294020551E-01    2.1143215845E-01    2.0993390247E-01
    2.0844539134E-01    2.0696657862E-01    2.0549741769E-01    2.0403786171E-01
    2.0258786371E-01    2.0114737651E-01    1.9971635280E-01    1.9829474514E-01
    1.9688250595E-01    1.9547958752E-01    1.9408594205E-01    1.9270152165E-01
    1.9132627831E-01    1.8996016397E-01    1.8860313049E-01    1.8725512969E-01
    1.8591611332E-01    1.8458603309E-01    1.8326484070E-01    1.8195248782E-01
    1.8064892609E-01    1.7935410716E-01    1.7806798269E-01    1.7679050433E-01
    1.7552162376E-01    1.7426129268E-01    1.7300946285E-01    1.7176608602E-01
    1.7053111404E-01    1.6930449877E-01    1.6808619216E-01    1.6687614622E-01
    1.6567431302E-01    1.6448064472E-01    1.6329509357E-01    1.6211761191E-01
    1.6094815215E-01    1.5978666684E-01    1.5863310861E-01    1.5748743021E-01
    1.5634958451E-01    1.5521952450E-01    1.5409720328E-01    1.5298257411E-01
    1.5187559037E-01    1.5077620556E-01    1.4968437335E-01    1.4860004754E-01
    1.4752318210E-01    1.4645373112E-01    1.4539164888E-01    1.4433688981E-01
    1.4328940850E-01    1.4224915969E-01    1.4121609833E-01    1.4019017952E-01
    1.3917135851E-01    1.3815959078E-01    1.3715483195E-01    1.3615703784E-01
    1.3516616445E-01    1.3418216797E-01    1.3320500477E-01    1.3223463142E-01
    1.3127100468E-01    1.3031408151E-01    1.2936381907E-01    1.2842017469E-01
    1.2748310592E-01    1.2655257053E-01    1.2562852645E-01    1.2471093185E-01
    1.2379974508E-01    1.2289492471E-01    1.2199642951E-01    1.2110421846E-01
    1.2021825075E-01    1.1933848576E-01    1.1846488311E-01    1.1759740262E-01
    1.1673600430E-01    1.1588064840E-01    1.1503129537E-01    1.1418790587E-01
    1.1335044078E-01    1.1251886118E-01    1.1169312838E-01    1.1087320388E-01
    1.1005904942E-01    1.0925062693E-01    1.0844789858E-01    1.0765082672E-01
    1.0685937394E-01    1.0607350303E-01    1.0529317701E-01    1.0451835908E-01
    1.0374901268E-01    1.0298510145E-01    1.0222658926E-01    1.0147344016E-01
    1.0072561844E-01    9.9983088584E-02    9.9245815295E-02    9.8513763479E-02
    9.7786898257E-02    9.7065184956E-02    9.6348589109E-02    9.5637076461E-02
    9.4930612961E-02    9.4229164764E-02    9.3532698233E-02    9.2841179932E-02
    9.2154576634E-02    9.1472855310E-02    9.0795983138E-02    9.0123927496E-02
    8.9456655963E-02    8.8794136319E-02    8.8136336542E-02    8.7483224810E-02
    8.6834769499E-02    8.6190939181E-02    8.5551702623E-02    8.4917028790E-02
    8.4286886838E-02    8.3661246119E-02    8.3040076176E-02    8.2423346743E-02
    8.1811027747E-02    8.1203089300E-02    8.0599501708E-02    8.0000235462E-02
    7.9405261238E-02    7.8814549901E-02    7.8228072498E-02    7.7645800263E-02
    7.7067704610E-02    7.6493757135E-02    7.5923929616E-02    7.5358194011E-02
    7.4796522455E-02    7.4238887264E-02    7.3685260926E-02    7.3135616110E-02
    7.2589925657E-02    7.2048162583E-02    7.1510300074E-02    7.0976311493E-02
    7.0446170368E-02    6.9919850402E-02    6.9397325464E-02    6.8878569592E-02
    6.8363556988E-02    6.7852262025E-02    6.7344659237E-02    6.6840723322E-02
    6.6340429143E-02    6.5843751724E-02    6.5350666248E-02    6.4861148061E-02
    6.4375172667E-02    6.3892715727E-02    6.3413753059E-02    6.2938260639E-02
    6.2466214597E-02    6.1997591216E-02    6.1532366934E-02    6.1070518341E-02
    6.0612022178E-02    6.0156855336E-02    5.9704994855E-02    5.9256417926E-02
    5.8811101885E-02    5.8369024217E-02    5.7930162550E-02    5.7494494659E-02
    5.7061998463E-02    5.6632652023E-02    5.6206433544E-02    5.5783321368E-02
    5.5363293984E-02    5.4946330015E-02    5.4532408224E-02    5.4121507515E-02
    5.3713606925E-02    5.3308685628E-02    5.2906722935E-02    5.2507698290E-02
    5.2111591271E-02    5.1718381587E-02    5.1328049083E-02    5.0940573731E-02
    5.0555935634E-02    5.0174115027E-02    4.9795092272E-02    4.9418847857E-02
    4.9045362400E-02    4.8674616644E-02    4.8306591458E-02    4.7941267834E-02
    4.7578626891E-02    4.7218649868E-02    4.6861318128E-02    4.6506613155E-02
    4.6154516555E-02    4.5805010053E-02    4.5458075494E-02    4.5113694842E-02
    4.4771850177E-02    4.4432523698E-02    4.4095697720E-02    4.3761354675E-02
    4.3429477107E-02    4.3100047677E-02    4.2773049158E-02    4.2448464437E-02
    4.2126276513E-02    4.1806468497E-02    4.1489023610E-02    4.1173925182E-02
    4.0861156655E-02    4.0550701580E-02    4.0242543612E-02    3.9936666519E-02
    3.9633054173E-02    3.9331690551E-02    3.9032559737E-02    3.8735645922E-02
    3.8440933397E-02    3.8148406560E-02    3.7858049910E-02    3.7569848049E-02
    3.7283785681E-02    3.6999847612E-02    3.6718018746E-02    3.6438284089E-02
    3.6160628745E-02    3.5885037918E-02    3.5611496910E-02    3.5339991118E-02
    3.5070506039E-02    3.4803027265E-02    3.4537540483E-02    3.4274031477E-02
    3.4012486123E-02    3.3752890394E-02    3.3495230354E-02    3.3239492160E-02
    3.2985662064E-02    3.2733726405E-02    3.2483671619E-02    3.2235484226E-02
    3.1989150842E-02    3.1744658170E-02    3.1501993001E-02    3.1261142215E-02
    3.1022092782E-02    3.0784831757E-02    3.0549346282E-02    3.0315623587E-02
    3.0083650985E-02    2.9853415878E-02    2.9624905749E-02    2.9398108167E-02
    2.9173010786E-02    2.8949601340E-02    2.8727867649E-02    2.8507797613E-02
    2.8289379214E-02    2.8072600517E-02    2.7857449665E-02    2.7643914883E-02
    2.7431984476E-02    2.7221646827E-02    2.7012890397E-02    2.6805703729E-02
    2.6600075439E-02    2.6395994225E-02    2.6193448858E-02    2.5992428187E-02
    2.5792921137E-02    2.5594916708E-02    2.5398403977E-02    2.5203372091E-02
    2.5009810276E-02    2.4817707830E-02    2.4627054121E-02    2.4437838595E-02
    2.4250050766E-02    2.4063680222E-02    2.3878716623E-02    2.3695149697E-02
    2.3512969245E-02    2.3332165137E-02    2.3152727314E-02    2.2974645785E-02
    2.2797910627E-02    2.2622511988E-02    2.2448440080E-02    2.2275685187E-02
    2.2104237656E-02    2.1934087904E-02    2.1765226412E-02    2.1597643728E-02
    2.1431330465E-02    2.1266277301E-02    2.1102474979E-02    2.0939914305E-02
    2.0778586151E-02    2.0618481450E-02    2.0459591200E-02    2.0301906460E-02
    2.0145418353E-02    1.9990118062E-02    1.9835996833E-02    1.9683045972E-02
    1.9531256846E-02    1.9380620882E-02    1.9231129569E-02    1.9082774451E-02
    1.8935547136E-02    1.8789439288E-02    1.8644442631E-02    1.8500548945E-02
    1.8357750069E-02    1.8216037900E-02    1.8075404391E-02    1.7935841550E-02
    1.7797341445E-02    1.7659896197E-02    1.7523497984E-02    1.7388139036E-02
    1.7253811643E-02    1.7120508145E-02    1.6988220939E-02    1.6856942473E-02
    1.6726665250E-02    1.6597381827E-02    1.6469084813E-02    1.6341766867E-02
    1.6215420704E-02    1.6090039088E-02    1.5965614834E-02    1.5842140811E-02
    1.5719609937E-02    1.5598015178E-02    1.5477349554E-02    1.5357606133E-02
    1.5238778032E-02    1.5120858417E-02    1.5003840503E-02    1.4887717555E-02
    1.4772482884E-02    1.4658129850E-02    1.4544651859E-02    1.4432042366E-02
    1.4320294872E-02    1.4209402925E-02    1.4099360118E-02    1.3990160091E-02
    1.3881796531E-02    1.3774263166E-02    1.3667553775E-02    1.3561662177E-02
    1.3456582236E-02    1.3352307864E-02    1.3248833012E-02    1.3146151677E-02
    1.3044257899E-02    1.2943145762E-02    1.2842809390E-02    1.2743242952E-02
    1.2644440658E-02    1.2546396761E-02    1.2449105553E-02    1.2352561369E-02
    1.2256758587E-02    1.2161691621E-02    1.2067354930E-02    1.1973743011E-02
    1.1880850401E-02    1.1788671678E-02    1.1697201456E-02    1.1606434393E-02
    1.1516365182E-02    1.1426988556E-02    1.1338299287E-02    1.1250292184E-02
    1.1162962094E-02    1.1076303902E-02    1.0990312529E-02    1.0904982936E-02
    1.0820310118E-02    1.0736289107E-02    1.0652914972E-02    1.0570182818E-02
    1.0488087786E-02    1.0406625052E-02    1.0325789827E-02    1.0245577358E-02
    1.0165982927E-02    1.0087001849E-02    1.0008629475E-02    9.9308611894E-03
    9.8536924104E-03    9.7771185904E-03    9.7011352147E-03    9.6257378021E-03
    9.5509219041E-03    9.4766831053E-03    9.4030170224E-03    9.3299193047E-03
    9.2573856335E-03    9.1854117217E-03    9.1139933142E-03    9.0431261870E-03
    8.9728061473E-03    8.9030290336E-03    8.8337907147E-03    8.7650870901E-03
    8.6969140898E-03    8.6292676737E-03    8.5621438316E-03    8.4955385832E-03
    8.4294479773E-03    8.3638680923E-03    8.2987950357E-03    8.2342249436E-03
    8.1701539809E-03    8.1065783410E-03    8.0434942455E-03    7.9808979442E-03
    7.9187857145E-03    7.8571538617E-03    7.7959987186E-03    7.7353166450E-03
    7.6751040280E-03    7.6153572817E-03    7.5560728466E-03    7.4972471900E-03
    7.4388768053E-03    7.3809582123E-03    7.3234879565E-03    7.2664626093E-03
    7.2098787678E-03    7.1537330542E-03    7.0980221162E-03    7.0427426265E-03
    6.9878912825E-03    6.9334648066E-03    6.8794599454E-03    6.8258734700E-03
    6.7727021756E-03    6.7199428815E-03    6.6675924308E-03    6.6156476901E-03
    6.5641055496E-03    6.5129629229E-03    6.4622167466E-03    6.4118639804E-03
    6.3619016066E-03    6.3123266304E-03    6.2631360794E-03    6.2143270035E-03
    6.1658964747E-03    6.1178415873E-03    6.0701594571E-03    6.0228472217E-03
    5.9759020403E-03    5.9293210935E-03    5.8831015831E-03    5.8372407318E-03
    5.7917357835E-03    5.7465840026E-03    5.7017826744E-03    5.6573291043E-03
    5.6132206185E-03    5.5694545628E-03    5.5260283036E-03    5.4829392267E-03
    5.4401847380E-03    5.3977622628E-03    5.3556692458E-03    5.3139031511E-03
    5.2724614621E-03    5.2313416809E-03    5.1905413289E-03    5.1500579458E-03
    5.1098890902E-03    5.0700323392E-03    5.0304852882E-03    4.9912455506E-03
    4.9523107582E-03    4.9136785605E-03    4.8753466249E-03    4.8373126366E-03
    4.7995742981E-03    4.7621293296E-03    4.7249754683E-03    4.6881104689E-03
    4.6515321029E-03    4.6152381587E-03    4.5792264417E-03    4.5434947738E-03
    4.5080409935E-03    4.4728629558E-03    4.4379585318E-03    4.4033256090E-03
    4.3689620908E-03    4.3348658967E-03    4.3010349620E-03    4.2674672376E-03
    4.2341606900E-03    4.2011133013E-03    4.1683230689E-03    4.1357880056E-03
    4.1035061390E-03    4.0714755120E-03    4.0396941824E-03    4.0081602227E-03
    3.9768717201E-03    3.9458267766E-03    3.9150235084E-03    3.8844600462E-03
    3.8541345349E-03    3.8240451337E-03    3.7941900158E-03    3.7645673683E-03
    3.7351753920E-03    3.7060123018E-03    3.6770763260E-03    3.6483657065E-03
    3.6198786985E-03    3.5916135708E-03    3.5635686053E-03    3.5357420969E-03
    3.5081323539E-03    3.4807376972E-03    3.4535564606E-03    3.4265869909E-03
    3.3998276474E-03    3.3732768017E-03    3.3469328384E-03    3.3207941540E-03
    3.2948591576E-03    3.2691262704E-03    3.2435939255E-03    3.2182605683E-03
    3.1931246559E-03    3.1681846575E-03    3.1434390537E-03    3.1188863369E-03
    3.0945250113E-03    3.0703535921E-03    3.0463706064E-03    3.0225745922E-03
    2.9989640989E-03    2.9755376872E-03    2.9522939284E-03    2.9292314052E-03
    2.9063487111E-03    2.8836444503E-03    2.8611172377E-03    2.8387656989E-03
    2.8165884702E-03    2.7945841982E-03    2.7727515400E-03    2.7510891630E-03
    2.7295957448E-03    2.7082699732E-03    2.6871105462E-03    2.6661161717E-03
    2.6452855676E-03    2.6246174616E-03    2.6041105912E-03    2.5837637038E-03
    2.5635755562E-03    2.5435449150E-03    2.5236705560E-03    2.5039512647E-03
    2.4843858360E-03    2.4649730737E-03    2.4457117913E-03    2.4266008111E-03
    2.4076389647E-03    2.3888250925E-03    2.3701580441E-03    2.3516366776E-03
    2.3332598603E-03    2.3150264680E-03    2.2969353853E-03    2.2789855053E-03
    2.2611757297E-03    2.2435049687E-03    2.2259721408E-03    2.2085761730E-03
    2.1913160005E-03    2.1741905667E-03    2.1571988232E-03    2.1403397297E-03
    2.1236122540E-03    2.1070153717E-03    2.0905480665E-03    2.0742093298E-03
    2.0579981609E-03    2.0419135667E-03    2.0259545621E-03    2.0101201692E-03
    1.9944094179E-03    1.9788213456E-03    1.9633549970E-03    1.9480094244E-03
    1.9327836873E-03    1.9176768524E-03    1.9026879938E-03    1.8878161927E-03
    1.8730605373E-03    1.8584201230E-03    1.8438940521E-03    1.8294814340E-03
    1.8151813848E-03    1.8009930276E-03    1.7869154921E-03    1.7729479150E-03
    1.7590894395E-03    1.7453392155E-03    1.7316963994E-03    1.7181601543E-03
    1.7047296496E-03    1.6914040614E-03    1.6781825718E-03    1.6650643696E-03
    1.6520486496E-03    1.6391346132E-03    1.6263214675E-03    1.6136084262E-03
    1.6009947089E-03    1.5884795412E-03    1.5760621548E-03    1.5637417874E-03
    1.5515176824E-03    1.5393890893E-03    1.5273552634E-03    1.5154154655E-03
    1.5035689626E-03    1.4918150270E-03    1.4801529367E-03    1.4685819756E-03
    1.4571014328E-03    1.4457106030E-03    1.4344087866E-03    1.4231952892E-03
    1.4120694219E-03    1.4010305010E-03    1.3900778483E-03    1.3792107908E-03
    1.3684286606E-03    1.3577307952E-03    1.3471165372E-03    1.3365852341E-03
    1.3261362387E-03    1.3157689088E-03    1.3054826071E-03    1.2952767012E-03
    1.2851505638E-03    1.2751035724E-03    1.2651351093E-03    1.2552445616E-03
   </PP_CHI.3>
 </PP_PSWFC>
 <PP_RHOATOM type="real"  size="1100" columns="4">
    0.0000000000E+00    1.5582607656E-05    6.2477568698E-05    1.4118345467E-04
    2.5272095849E-04    3.9891476888E-04    5.8278275285E-04    8.0902707486E-04
    1.0846204465E-03    1.4194793391E-03    1.8272147179E-03    2.3259496868E-03
    2.9391923739E-03    3.6967514610E-03    4.6356809646E-03    5.8012402309E-03
    7.2478546117E-03    9.0400619535E-03    1.1253429861E-02    1.3975428690E-02
    1.7306245382E-02    2.1359523583E-02    2.6263015989E-02    3.2159135472E-02
    3.9205392395E-02    4.7574706436E-02    5.7455582320E-02    6.9052140109E-02
    8.2583991974E-02    9.8285958843E-02    1.1640762180E-01    1.3721270475E-01
    1.6097828642E-01    1.8799384155E-01    2.1856011283E-01    2.5298781677E-01
    2.9159618850E-01    3.3471137216E-01    3.8266466516E-01    4.3579062620E-01
    4.9442505846E-01    5.5890288076E-01    6.2955590081E-01    7.0671050599E-01
    7.9068528792E-01    8.8178861837E-01    9.8031619445E-01    1.0865485720E+00
    1.2007487065E+00    1.3231595206E+00    1.4540015185E+00    1.5934704664E+00
    1.7417351591E+00    1.8989352900E+00    2.0651794455E+00    2.2405432396E+00
    2.4250676059E+00    2.6187572632E+00    2.8215793697E+00    3.0334623777E+00
    3.2542951019E+00    3.4839260118E+00    3.7221627556E+00    3.9687719241E+00
    4.2234790592E+00    4.4859689103E+00    4.7558859400E+00    5.0328350804E+00
    5.3163827351E+00    5.6060580258E+00    5.9013542748E+00    6.2017307191E+00
    6.5066144433E+00    6.8154025227E+00    7.1274643636E+00    7.4421442258E+00
    7.7587639136E+00    8.0766256173E+00    8.3950148888E+00    8.7132037311E+00
    9.0304537850E+00    9.3460195899E+00    9.6591519005E+00    9.9691010380E+00
    1.0275120254E+01    1.0576469088E+01    1.0872416695E+01    1.1162245124E+01
    1.1445252530E+01    1.1720756297E+01    1.1988096049E+01    1.2246636545E+01
    1.2495770421E+01    1.2734920789E+01    1.2963543650E+01    1.3181130130E+01
    1.3387208518E+01    1.3581346093E+01    1.3763150743E+01    1.3932272355E+01
    1.4088403972E+01    1.4231282730E+01    1.4360690547E+01    1.4476454583E+01
    1.4578447460E+01    1.4666587254E+01    1.4740837253E+01    1.4801205492E+01
    1.4847744072E+01    1.4880548265E+01    1.4899755423E+01    1.4905543690E+01
    1.4898130544E+01    1.4877771163E+01    1.4844756639E+01    1.4799412051E+01
    1.4742094419E+01    1.4673190530E+01    1.4593114683E+01    1.4502306348E+01
    1.4401227751E+01    1.4290361419E+01    1.4170207689E+01    1.4041282186E+01
    1.3904113309E+01    1.3759239722E+01    1.3607207861E+01    1.3448569489E+01
    1.3283879293E+01    1.3113692545E+01    1.2938562833E+01    1.2759039879E+01
    1.2575667445E+01    1.2388981347E+01    1.2199507566E+01    1.2007760489E+01
    1.1814241259E+01    1.1619436257E+01    1.1423815713E+01    1.1227832452E+01
    1.1031920765E+01    1.0836495426E+01    1.0641950842E+01    1.0448660332E+01
    1.0256975542E+01    1.0067225996E+01    9.8797187655E+00    9.6947382665E+00
    9.5125461776E+00    9.3333814690E+00    9.1574605418E+00    8.9849774695E+00
    8.8161043368E+00    8.6509916668E+00    8.4897689333E+00    8.3325451474E+00
    8.1794095137E+00    8.0304321484E+00    7.8856648513E+00    7.7451419252E+00
    7.6088810349E+00    7.4768841005E+00    7.3491382147E+00    7.2256165819E+00
    7.1062794687E+00    6.9910751628E+00    6.8799409315E+00    6.7728039777E+00
    6.6695823854E+00    6.5701860511E+00    6.4745175973E+00    6.3824732629E+00
    6.2939437675E+00    6.2088151466E+00    6.1269695545E+00    6.0482860327E+00
    5.9726412414E+00    5.8999101529E+00    5.8299667056E+00    5.7626844163E+00
    5.6979369529E+00    5.6355986642E+00    5.5755450682E+00    5.5176532998E+00
    5.4618025170E+00    5.4078742665E+00    5.3557528108E+00    5.3053254170E+00
    5.2564826081E+00    5.2091183795E+00    5.1631303813E+00    5.1184200681E+00
    5.0748928187E+00    5.0324580267E+00    4.9910291641E+00    4.9505238199E+00
    4.9108637156E+00    4.8719746992E+00    4.8337867193E+00    4.7962337823E+00
    4.7592538931E+00    4.7227889812E+00    4.6867848154E+00    4.6511909064E+00
    4.6159604002E+00    4.5810499644E+00    4.5464196662E+00    4.5120328466E+00
    4.4778559896E+00    4.4438585883E+00    4.4100130093E+00    4.3762943558E+00
    4.3426803305E+00    4.3091510983E+00    4.2756891516E+00    4.2422791758E+00
    4.2089079181E+00    4.1755640585E+00    4.1422380846E+00    4.1089221687E+00
    4.0756100503E+00    4.0422969208E+00    4.0089793141E+00    3.9756549998E+00
    3.9423228823E+00    3.9089829029E+00    3.8756359478E+00    3.8422837595E+00
    3.8089288528E+00    3.7755744356E+00    3.7422243334E+00    3.7088829187E+00
    3.6755550440E+00    3.6422459788E+00    3.6089613509E+00    3.5757070910E+00
    3.5424893816E+00    3.5093146085E+00    3.4761893166E+00    3.4431201685E+00
    3.4101139060E+00    3.3771773155E+00    3.3443171951E+00    3.3115403254E+00
    3.2788534423E+00    3.2462632129E+00    3.2137762130E+00    3.1813989075E+00
    3.1491376330E+00    3.1169985816E+00    3.0849877879E+00    3.0531111164E+00
    3.0213742522E+00    2.9897826917E+00    2.9583417360E+00    2.9270564855E+00
    2.8959318351E+00    2.8649724717E+00    2.8341828721E+00    2.8035673026E+00
    2.7731298186E+00    2.7428742661E+00    2.7128042836E+00    2.6829233048E+00
    2.6532345616E+00    2.6237410885E+00    2.5944457267E+00    2.5653511291E+00
    2.5364597656E+00    2.5077739290E+00    2.4792957406E+00    2.4510271563E+00
    2.4229699733E+00    2.3951258362E+00    2.3674962434E+00    2.3400825536E+00
    2.3128859923E+00    2.2859076572E+00    2.2591485244E+00    2.2326094545E+00
    2.2062911973E+00    2.1801943979E+00    2.1543196015E+00    2.1286672584E+00
    2.1032377286E+00    2.0780312864E+00    2.0530481247E+00    2.0282883591E+00
    2.0037520314E+00    1.9794391134E+00    1.9553495103E+00    1.9314830637E+00
    1.9078395543E+00    1.8844187051E+00    1.8612201835E+00    1.8382436036E+00
    1.8154885281E+00    1.7929544703E+00    1.7706408957E+00    1.7485472230E+00
    1.7266728259E+00    1.7050170334E+00    1.6835791313E+00    1.6623583624E+00
    1.6413539276E+00    1.6205649876E+00    1.5999906636E+00    1.5796300402E+00
    1.5594821660E+00    1.5395460553E+00    1.5198206896E+00    1.5003050191E+00
    1.4809979637E+00    1.4618984148E+00    1.4430052362E+00    1.4243172656E+00
    1.4058333157E+00    1.3875521757E+00    1.3694726118E+00    1.3515933694E+00
    1.3339131729E+00    1.3164307281E+00    1.2991447221E+00    1.2820538253E+00
    1.2651566915E+00    1.2484519597E+00    1.2319382542E+00    1.2156141863E+00
    1.1994783546E+00    1.1835293463E+00    1.1677657376E+00    1.1521860948E+00
    1.1367889750E+00    1.1215729268E+00    1.1065364914E+00    1.0916782026E+00
    1.0769965881E+00    1.0624901702E+00    1.0481574659E+00    1.0339969879E+00
    1.0200072455E+00    1.0061867445E+00    9.9253398846E-01    9.7904747860E-01
    9.6572571489E-01    9.5256719631E-01    9.3957042140E-01    9.2673388874E-01
    9.1405609739E-01    9.0153554741E-01    8.8917074023E-01    8.7696017910E-01
    8.6490236953E-01    8.5299581963E-01    8.4123904049E-01    8.2963054662E-01
    8.1816885620E-01    8.0685249150E-01    7.9567997918E-01    7.8464985059E-01
    7.7376064211E-01    7.6301089539E-01    7.5239915770E-01    7.4192398212E-01
    7.3158392789E-01    7.2137756058E-01    7.1130345236E-01    7.0136018224E-01
    6.9154633629E-01    6.8186050781E-01    6.7230129760E-01    6.6286731408E-01
    6.5355717354E-01    6.4436950026E-01    6.3530292673E-01    6.2635609376E-01
    6.1752765066E-01    6.0881625540E-01    6.0022057470E-01    5.9173928420E-01
    5.8337106858E-01    5.7511462167E-01    5.6696864653E-01    5.5893185562E-01
    5.5100297083E-01    5.4318072364E-01    5.3546385512E-01    5.2785111609E-01
    5.2034126717E-01    5.1293307880E-01    5.0562533139E-01    4.9841681532E-01
    4.9130633098E-01    4.8429268889E-01    4.7737470968E-01    4.7055122414E-01
    4.6382107328E-01    4.5718310834E-01    4.5063619083E-01    4.4417919252E-01
    4.3781099552E-01    4.3153049223E-01    4.2533658539E-01    4.1922818806E-01
    4.1320422365E-01    4.0726362591E-01    4.0140533893E-01    3.9562831712E-01
    3.8993152520E-01    3.8431393821E-01    3.7877454148E-01    3.7331233061E-01
    3.6792631144E-01    3.6261550005E-01    3.5737892272E-01    3.5221561590E-01
    3.4712462616E-01    3.4210501020E-01    3.3715583479E-01    3.3227617671E-01
    3.2746512274E-01    3.2272176962E-01    3.1804522399E-01    3.1343460232E-01
    3.0888903093E-01    3.0440764588E-01    2.9998959293E-01    2.9563402752E-01
    2.9134011467E-01    2.8710702895E-01    2.8293395442E-01    2.7882008457E-01
    2.7476462227E-01    2.7076677967E-01    2.6682577819E-01    2.6294084842E-01
    2.5911123007E-01    2.5533617192E-01    2.5161493170E-01    2.4794677610E-01
    2.4433098063E-01    2.4076682960E-01    2.3725361603E-01    2.3379064157E-01
    2.3037721646E-01    2.2701265943E-01    2.2369629765E-01    2.2042746664E-01
    2.1720551020E-01    2.1402978035E-01    2.1089963724E-01    2.0781444908E-01
    2.0477359210E-01    2.0177645040E-01    1.9882241595E-01    1.9591088848E-01
    1.9304127541E-01    1.9021299179E-01    1.8742546018E-01    1.8467811064E-01
    1.8197038060E-01    1.7930171481E-01    1.7667156527E-01    1.7407939115E-01
    1.7152465868E-01    1.6900684116E-01    1.6652541877E-01    1.6407987861E-01
    1.6166971455E-01    1.5929442717E-01    1.5695352373E-01    1.5464651803E-01
    1.5237293039E-01    1.5013228753E-01    1.4792412257E-01    1.4574797485E-01
    1.4360338998E-01    1.4148991967E-01    1.3940712172E-01    1.3735455990E-01
    1.3533180392E-01    1.3333842936E-01    1.3137401757E-01    1.2943815562E-01
    1.2753043622E-01    1.2565045769E-01    1.2379782383E-01    1.2197214391E-01
    1.2017303256E-01    1.1840010973E-01    1.1665300063E-01    1.1493133564E-01
    1.1323475025E-01    1.1156288502E-01    1.0991538550E-01    1.0829190215E-01
    1.0669209030E-01    1.0511561011E-01    1.0356212643E-01    1.0203130885E-01
    1.0052283152E-01    9.9036373198E-02    9.7571617121E-02    9.6128250974E-02
    9.4705966826E-02    9.3304461075E-02    9.1923434388E-02    9.0562591650E-02
    8.9221641902E-02    8.7900298290E-02    8.6598278009E-02    8.5315302250E-02
    8.4051096147E-02    8.2805388722E-02    8.1577912835E-02    8.0368405131E-02
    7.9176605992E-02    7.8002259482E-02    7.6845113300E-02    7.5704918729E-02
    7.4581430591E-02    7.3474407193E-02    7.2383610284E-02    7.1308805007E-02
    7.0249759851E-02    6.9206246605E-02    6.8178040317E-02    6.7164919241E-02
    6.6166664802E-02    6.5183061544E-02    6.4213897093E-02    6.3258962110E-02
    6.2318050251E-02    6.1390958125E-02    6.0477485253E-02    5.9577434027E-02
    5.8690609671E-02    5.7816820199E-02    5.6955876377E-02    5.6107591687E-02
    5.5271782287E-02    5.4448266970E-02    5.3636867133E-02    5.2837406736E-02
    5.2049712270E-02    5.1273612715E-02    5.0508939512E-02    4.9755526522E-02
    4.9013209997E-02    4.8281828543E-02    4.7561223087E-02    4.6851236844E-02
    4.6151715287E-02    4.5462506113E-02    4.4783459209E-02    4.4114426625E-02
    4.3455262544E-02    4.2805823245E-02    4.2165967080E-02    4.1535554441E-02
    4.0914447734E-02    4.0302511344E-02    3.9699611616E-02    3.9105616818E-02
    3.8520397118E-02    3.7943824559E-02    3.7375773028E-02    3.6816118229E-02
    3.6264737664E-02    3.5721510597E-02    3.5186318040E-02    3.4659042717E-02
    3.4139569049E-02    3.3627783124E-02    3.3123572673E-02    3.2626827051E-02
    3.2137437208E-02    3.1655295671E-02    3.1180296519E-02    3.0712335360E-02
    3.0251309311E-02    2.9797116976E-02    2.9349658423E-02    2.8908835166E-02
    2.8474550140E-02    2.8046707684E-02    2.7625213522E-02    2.7209974738E-02
    2.6800899761E-02    2.6397898343E-02    2.6000881544E-02    2.5609761707E-02
    2.5224452445E-02    2.4844868621E-02    2.4470926328E-02    2.4102542875E-02
    2.3739636767E-02    2.3382127688E-02    2.3029936485E-02    2.2682985150E-02
    2.2341196807E-02    2.2004495691E-02    2.1672807133E-02    2.1346057550E-02
    2.1024174419E-02    2.0707086272E-02    2.0394722675E-02    2.0087014214E-02
    1.9783892483E-02    1.9485290065E-02    1.9191140521E-02    1.8901378377E-02
    1.8615939105E-02    1.8334759117E-02    1.8057775745E-02    1.7784927228E-02
    1.7516152705E-02    1.7251392196E-02    1.6990586591E-02    1.6733677639E-02
    1.6480607935E-02    1.6231320906E-02    1.5985760802E-02    1.5743872682E-02
    1.5505602403E-02    1.5270896607E-02    1.5039702716E-02    1.4811968911E-02
    1.4587644128E-02    1.4366678048E-02    1.4149021079E-02    1.3934624355E-02
    1.3723439716E-02    1.3515419707E-02    1.3310517561E-02    1.3108687192E-02
    1.2909883185E-02    1.2714060787E-02    1.2521175896E-02    1.2331185052E-02
    1.2144045428E-02    1.1959714823E-02    1.1778151648E-02    1.1599314923E-02
    1.1423164263E-02    1.1249659874E-02    1.1078762541E-02    1.0910433623E-02
    1.0744635040E-02    1.0581329269E-02    1.0420479337E-02    1.0262048808E-02
    1.0106001778E-02    9.9523028693E-03    9.8009172204E-03    9.6518104791E-03
    9.5049487953E-03    9.3602988139E-03    9.2178276676E-03    9.0775029699E-03
    8.9392928082E-03    8.8031657367E-03    8.6690907701E-03    8.5370373766E-03
    8.4069754718E-03    8.2788754117E-03    8.1527079868E-03    8.0284444155E-03
    7.9060563384E-03    7.7855158116E-03    7.6667953013E-03    7.5498676774E-03
    7.4347062081E-03    7.3212845537E-03    7.2095767613E-03    7.0995572593E-03
    6.9912008513E-03    6.8844827115E-03    6.7793783785E-03    6.6758637509E-03
    6.5739150813E-03    6.4735089719E-03    6.3746223687E-03    6.2772325572E-03
    6.1813171573E-03    6.0868541180E-03    5.9938217134E-03    5.9021985375E-03
    5.8119634997E-03    5.7230958200E-03    5.6355750251E-03    5.5493809434E-03
    5.4644937007E-03    5.3808937162E-03    5.2985616981E-03    5.2174786390E-03
    5.1376258126E-03    5.0589847689E-03    4.9815373305E-03    4.9052655886E-03
    4.8301518991E-03    4.7561788789E-03    4.6833294017E-03    4.6115865948E-03
    4.5409338350E-03    4.4713547451E-03    4.4028331906E-03    4.3353532756E-03
    4.2688993399E-03    4.2034559551E-03    4.1390079218E-03    4.0755402656E-03
    4.0130382342E-03    3.9514872942E-03    3.8908731278E-03    3.8311816296E-03
    3.7723989037E-03    3.7145112604E-03    3.6575052134E-03    3.6013674767E-03
    3.5460849617E-03    3.4916447746E-03    3.4380342129E-03    3.3852407633E-03
    3.3332520986E-03    3.2820560748E-03    3.2316407290E-03    3.1819942762E-03
    3.1331051068E-03    3.0849617843E-03    3.0375530425E-03    2.9908677832E-03
    2.9448950736E-03    2.8996241437E-03    2.8550443845E-03    2.8111453451E-03
    2.7679167304E-03    2.7253483991E-03    2.6834303615E-03    2.6421527768E-03
    2.6015059514E-03    2.5614803363E-03    2.5220665254E-03    2.4832552532E-03
    2.4450373928E-03    2.4074039535E-03    2.3703460796E-03    2.3338550475E-03
    2.2979222644E-03    2.2625392661E-03    2.2276977150E-03    2.1933893987E-03
    2.1596062275E-03    2.1263402333E-03    2.0935835672E-03    2.0613284980E-03
    2.0295674105E-03    1.9982928038E-03    1.9674972895E-03    1.9371735900E-03
    1.9073145371E-03    1.8779130702E-03    1.8489622347E-03    1.8204551804E-03
    1.7923851602E-03    1.7647455284E-03    1.7375297392E-03    1.7107313451E-03
    1.6843439956E-03    1.6583614360E-03    1.6327775054E-03    1.6075861358E-03
    1.5827813505E-03    1.5583572628E-03    1.5343080747E-03    1.5106280755E-03
    1.4873116406E-03    1.4643532302E-03    1.4417473879E-03    1.4194887397E-03
    1.3975719925E-03    1.3759919333E-03    1.3547434274E-03    1.3338214180E-03
    1.3132209243E-03    1.2929370409E-03    1.2729649364E-03    1.2532998524E-03
    1.2339371024E-03    1.2148720707E-03    1.1961002114E-03    1.1776170474E-03
    1.1594181690E-03    1.1414992335E-03    1.1238559639E-03    1.1064841477E-03
    1.0893796363E-03    1.0725383438E-03    1.0559562463E-03    1.0396293808E-03
    1.0235538443E-03    1.0077257928E-03    9.9214144069E-04    9.7679705978E-04
    9.6168897828E-04    9.4681358013E-04    9.3216730407E-04    9.1774664288E-04
    9.0354814256E-04    8.8956840148E-04    8.7580406966E-04    8.6225184797E-04
    8.4890848736E-04    8.3577078814E-04    8.2283559918E-04    8.1009981723E-04
    7.9756038622E-04    7.8521429649E-04    7.7305858414E-04    7.6109033031E-04
    7.4930666053E-04    7.3770474406E-04    7.2628179320E-04    7.1503506266E-04
    7.0396184893E-04    6.9305948963E-04    6.8232536292E-04    6.7175688687E-04
    6.6135151886E-04    6.5110675499E-04    6.4102012951E-04    6.3108921423E-04
    6.2131161795E-04    6.1168498593E-04    6.0220699930E-04    5.9287537455E-04
    5.8368786299E-04    5.7464225023E-04    5.6573635563E-04    5.5696803184E-04
    5.4833516426E-04    5.3983567057E-04    5.3146750021E-04    5.2322863395E-04
    5.1511708337E-04    5.0713089040E-04    4.9926812690E-04    4.9152689418E-04
    4.8390532253E-04    4.7640157084E-04    4.6901382610E-04    4.6174030304E-04
    4.5457924367E-04    4.4752891687E-04    4.4058761799E-04    4.3375366847E-04
    4.2702541540E-04    4.2040123116E-04    4.1387951305E-04    4.0745868287E-04
    4.0113718658E-04    3.9491349395E-04    3.8878609813E-04    3.8275351539E-04
    3.7681428469E-04    3.7096696736E-04    3.6521014680E-04    3.5954242809E-04
    3.5396243767E-04    3.4846882305E-04    3.4306025245E-04    3.3773541452E-04
    3.3249301800E-04    3.2733179144E-04    3.2225048287E-04    3.1724785952E-04
    3.1232270755E-04    3.0747383171E-04    3.0270005512E-04    2.9800021892E-04
    2.9337318208E-04    2.8881782102E-04    2.8433302947E-04    2.7991771810E-04
    2.7557081433E-04    2.7129126203E-04    2.6707802131E-04    2.6293006821E-04
    2.5884639456E-04    2.5482600764E-04    2.5086792997E-04    2.4697119913E-04
    2.4313486746E-04    2.3935800187E-04    2.3563968363E-04    2.3197900811E-04
    2.2837508461E-04    2.2482703611E-04    2.2133399908E-04    2.1789512329E-04
    2.1450957156E-04    2.1117651961E-04    2.0789515583E-04    2.0466468110E-04
    2.0148430860E-04    1.9835326363E-04    1.9527078340E-04    1.9223611686E-04
    1.8924852453E-04    1.8630727832E-04    1.8341166133E-04    1.8056096773E-04
    1.7775450255E-04    1.7499158150E-04    1.7227153088E-04    1.6959368732E-04
    1.6695739770E-04    1.6436201896E-04    1.6180691795E-04    1.5929147127E-04
    1.5681506514E-04    1.5437709522E-04    1.5197696653E-04    1.4961409321E-04
    1.4728789848E-04    1.4499781442E-04    1.4274328189E-04    1.4052375038E-04
    1.3833867784E-04    1.3618753061E-04    1.3406978326E-04    1.3198491845E-04
    1.2993242685E-04    1.2791180697E-04    1.2592256506E-04    1.2396421501E-04
    1.2203627818E-04    1.2013828336E-04    1.1826976657E-04    1.1643027105E-04
    1.1461934703E-04    1.1283655174E-04    1.1108144921E-04    1.0935361022E-04
    1.0765261219E-04    1.0597803905E-04    1.0432948116E-04    1.0270653523E-04
    1.0110880416E-04    9.9535897030E-05    9.7987428938E-05    9.6463020935E-05
    9.4962299929E-05    9.3484898596E-05    9.2030455291E-05    9.0598613959E-05
    8.9189024049E-05    8.7801340432E-05    8.6435223314E-05    8.5090338157E-05
    8.3766355598E-05    8.2462951365E-05    8.1179806206E-05    7.9916605802E-05
    7.8673040699E-05    7.7448806234E-05    7.6243602452E-05    7.5057134044E-05
    7.3889110269E-05    7.2739244882E-05    7.1607256071E-05    7.0492866388E-05
    6.9395802677E-05    6.8315796008E-05    6.7252581619E-05    6.6205898841E-05
    6.5175491046E-05    6.4161105577E-05    6.3162493689E-05    6.2179410492E-05
    6.1211614883E-05    6.0258869496E-05    5.9320940643E-05    5.8397598252E-05
    5.7488615819E-05    5.6593770344E-05    5.5712842286E-05    5.4845615501E-05
    5.3991877198E-05    5.3151417880E-05    5.2324031299E-05    5.1509514400E-05
    5.0707667278E-05    4.9918293123E-05    4.9141198177E-05    4.8376191685E-05
    4.7623085850E-05    4.6881695784E-05    4.6151839466E-05    4.5433337697E-05
    4.4726014056E-05    4.4029694858E-05    4.3344209111E-05    4.2669388474E-05
    4.2005067217E-05    4.1351082178E-05    4.0707272728E-05    4.0073480730E-05
    3.9449550497E-05    3.8835328758E-05    3.8230664619E-05    3.7635409528E-05
    3.7049417237E-05    3.6472543766E-05    3.5904647371E-05    3.5345588504E-05
    3.4795229786E-05    3.4253435965E-05    3.3720073891E-05    3.3195012482E-05
    3.2678122686E-05    3.2169277457E-05    3.1668351719E-05    3.1175222337E-05
    3.0689768089E-05    3.0211869635E-05    2.9741409485E-05    2.9278271974E-05
    2.8822343235E-05    2.8373511164E-05    2.7931665402E-05    2.7496697300E-05
    2.7068499900E-05    2.6646967900E-05    2.6231997638E-05    2.5823487056E-05
    2.5421335687E-05    2.5025444621E-05    2.4635716483E-05    2.4252055414E-05
    2.3874367041E-05    2.3502558457E-05    2.3136538199E-05    2.2776216225E-05
    2.2421503891E-05    2.2072313930E-05    2.1728560432E-05    2.1390158819E-05
    2.1057025829E-05    2.0729079494E-05    2.0406239119E-05    2.0088425263E-05
    1.9775559718E-05    1.9467565493E-05    1.9164366792E-05    1.8865888998E-05
    1.8572058654E-05    1.8282803443E-05    1.7998052173E-05    1.7717734759E-05
    1.7441782204E-05    1.7170126583E-05    1.6902701028E-05    1.6639439711E-05
    1.6380277826E-05    1.6125151575E-05    1.5873998151E-05    1.5626755725E-05
    1.5383363426E-05    1.5143761334E-05    1.4907890456E-05    1.4675692720E-05
    1.4447110955E-05    1.4222088878E-05    1.4000571082E-05    1.3782503024E-05
    1.3567831005E-05    1.3356502164E-05    1.3148464460E-05    1.2943666664E-05
    1.2742058340E-05    1.2543589839E-05    1.2348212285E-05    1.2155877558E-05
    1.1966538292E-05    1.1780147853E-05    1.1596660335E-05    1.1416030544E-05
    1.1238213990E-05    1.1063166877E-05    1.0890846088E-05    1.0721209176E-05
    1.0554214357E-05    1.0389820493E-05    1.0227987091E-05    1.0068674285E-05
    9.9118428282E-06    9.7574540873E-06    9.6054700281E-06    9.4558532083E-06
 </PP_RHOATOM>
</UPF>

END_PSP
