Begin PSP_UPF
<UPF version="2.0.1">
  <PP_INFO>

 This pseudopotential file has been produced using the code
 ONCVPSP  (Optimized Norm-Conservinng Vanderbilt PSeudopotential)
 scalar-relativistic version 4.0.1 06/04/2019 by D. R. Hamann
 The code is available through a link at URL www.mat-simresearch.com.
 Documentation with the package provides a full discription of the
 input data below.


 While it is not required under the terms of the GNU GPL, it is
 suggested that you cite D. R. Hamann, Phys. Rev. B 88, 085117 (2013)
 in any publication using these pseudopotentials.

    <PP_INPUTFILE>
# ATOM AND REFERENCE CONFIGURATION
# atsym  z   nc   nv     iexc    psfile
  He  2.00    0    1 -116133      upf
#
#   n    l    f        energy (Ha)
    1    0    2.00
#
# PSEUDOPOTENTIAL AND OPTIMIZATION
# lmax
    1
#
#   l,   rc,      ep,       ncon, nbas, qcut
    0   1.24687  -0.57931    4    9   8.56270
    1   1.13000   0.05000    4    7   8.65149
#
# LOCAL POTENTIAL
# lloc, lpopt,  rc(5),   dvloc0
    4    5   1.13000      0.00000
#
# VANDERBILT-KLEINMAN-BYLANDER PROJECTORs
# l, nproj, debl
    0    2   1.00000
    1    1   1.00000
#
# MODEL CORE CHARGE
# icmod, fcfact, rcfact
    0   0.00000   0.00000
#
# LOG DERIVATIVE ANALYSIS
# epsh1, epsh2, depsh
  -12.00   12.00    0.02
#
# OUTPUT GRID
# rlmax, drl
    6.00    0.01
#
# TEST CONFIGURATIONS
# ncnf
    0
# nvcnf
#   n    l    f
    </PP_INPUTFILE>
  </PP_INFO>
  <!--                               -->
  <!-- END OF HUMAN READABLE SECTION -->
  <!--                               -->
    <PP_HEADER
       generated="Generated using ONCVPSP code by D. R. Hamann"
       author="anonymous"
       date="251029"
       comment=""
       element="He"
       pseudo_type="NC"
       relativistic="scalar"
       is_ultrasoft="F"
       is_paw="F"
       is_coulomb="F"
       has_so="F"
       has_wfc="F"
       has_gipaw="F"
       core_correction="F"
       functional="PBESOL"
       z_valence="    2.00"
       total_psenergy="  -5.64158827849E+00"
       rho_cutoff="   7.31000000000E+00"
       l_max="1"
       l_local="-1"
       mesh_size="   732"
       number_of_wfc="1"
       number_of_proj="3"/>
 <PP_MESH>
   <PP_R type="real"  size=" 732" columns="8">
    0.0000    0.0100    0.0200    0.0300    0.0400    0.0500    0.0600    0.0700
    0.0800    0.0900    0.1000    0.1100    0.1200    0.1300    0.1400    0.1500
    0.1600    0.1700    0.1800    0.1900    0.2000    0.2100    0.2200    0.2300
    0.2400    0.2500    0.2600    0.2700    0.2800    0.2900    0.3000    0.3100
    0.3200    0.3300    0.3400    0.3500    0.3600    0.3700    0.3800    0.3900
    0.4000    0.4100    0.4200    0.4300    0.4400    0.4500    0.4600    0.4700
    0.4800    0.4900    0.5000    0.5100    0.5200    0.5300    0.5400    0.5500
    0.5600    0.5700    0.5800    0.5900    0.6000    0.6100    0.6200    0.6300
    0.6400    0.6500    0.6600    0.6700    0.6800    0.6900    0.7000    0.7100
    0.7200    0.7300    0.7400    0.7500    0.7600    0.7700    0.7800    0.7900
    0.8000    0.8100    0.8200    0.8300    0.8400    0.8500    0.8600    0.8700
    0.8800    0.8900    0.9000    0.9100    0.9200    0.9300    0.9400    0.9500
    0.9600    0.9700    0.9800    0.9900    1.0000    1.0100    1.0200    1.0300
    1.0400    1.0500    1.0600    1.0700    1.0800    1.0900    1.1000    1.1100
    1.1200    1.1300    1.1400    1.1500    1.1600    1.1700    1.1800    1.1900
    1.2000    1.2100    1.2200    1.2300    1.2400    1.2500    1.2600    1.2700
    1.2800    1.2900    1.3000    1.3100    1.3200    1.3300    1.3400    1.3500
    1.3600    1.3700    1.3800    1.3900    1.4000    1.4100    1.4200    1.4300
    1.4400    1.4500    1.4600    1.4700    1.4800    1.4900    1.5000    1.5100
    1.5200    1.5300    1.5400    1.5500    1.5600    1.5700    1.5800    1.5900
    1.6000    1.6100    1.6200    1.6300    1.6400    1.6500    1.6600    1.6700
    1.6800    1.6900    1.7000    1.7100    1.7200    1.7300    1.7400    1.7500
    1.7600    1.7700    1.7800    1.7900    1.8000    1.8100    1.8200    1.8300
    1.8400    1.8500    1.8600    1.8700    1.8800    1.8900    1.9000    1.9100
    1.9200    1.9300    1.9400    1.9500    1.9600    1.9700    1.9800    1.9900
    2.0000    2.0100    2.0200    2.0300    2.0400    2.0500    2.0600    2.0700
    2.0800    2.0900    2.1000    2.1100    2.1200    2.1300    2.1400    2.1500
    2.1600    2.1700    2.1800    2.1900    2.2000    2.2100    2.2200    2.2300
    2.2400    2.2500    2.2600    2.2700    2.2800    2.2900    2.3000    2.3100
    2.3200    2.3300    2.3400    2.3500    2.3600    2.3700    2.3800    2.3900
    2.4000    2.4100    2.4200    2.4300    2.4400    2.4500    2.4600    2.4700
    2.4800    2.4900    2.5000    2.5100    2.5200    2.5300    2.5400    2.5500
    2.5600    2.5700    2.5800    2.5900    2.6000    2.6100    2.6200    2.6300
    2.6400    2.6500    2.6600    2.6700    2.6800    2.6900    2.7000    2.7100
    2.7200    2.7300    2.7400    2.7500    2.7600    2.7700    2.7800    2.7900
    2.8000    2.8100    2.8200    2.8300    2.8400    2.8500    2.8600    2.8700
    2.8800    2.8900    2.9000    2.9100    2.9200    2.9300    2.9400    2.9500
    2.9600    2.9700    2.9800    2.9900    3.0000    3.0100    3.0200    3.0300
    3.0400    3.0500    3.0600    3.0700    3.0800    3.0900    3.1000    3.1100
    3.1200    3.1300    3.1400    3.1500    3.1600    3.1700    3.1800    3.1900
    3.2000    3.2100    3.2200    3.2300    3.2400    3.2500    3.2600    3.2700
    3.2800    3.2900    3.3000    3.3100    3.3200    3.3300    3.3400    3.3500
    3.3600    3.3700    3.3800    3.3900    3.4000    3.4100    3.4200    3.4300
    3.4400    3.4500    3.4600    3.4700    3.4800    3.4900    3.5000    3.5100
    3.5200    3.5300    3.5400    3.5500    3.5600    3.5700    3.5800    3.5900
    3.6000    3.6100    3.6200    3.6300    3.6400    3.6500    3.6600    3.6700
    3.6800    3.6900    3.7000    3.7100    3.7200    3.7300    3.7400    3.7500
    3.7600    3.7700    3.7800    3.7900    3.8000    3.8100    3.8200    3.8300
    3.8400    3.8500    3.8600    3.8700    3.8800    3.8900    3.9000    3.9100
    3.9200    3.9300    3.9400    3.9500    3.9600    3.9700    3.9800    3.9900
    4.0000    4.0100    4.0200    4.0300    4.0400    4.0500    4.0600    4.0700
    4.0800    4.0900    4.1000    4.1100    4.1200    4.1300    4.1400    4.1500
    4.1600    4.1700    4.1800    4.1900    4.2000    4.2100    4.2200    4.2300
    4.2400    4.2500    4.2600    4.2700    4.2800    4.2900    4.3000    4.3100
    4.3200    4.3300    4.3400    4.3500    4.3600    4.3700    4.3800    4.3900
    4.4000    4.4100    4.4200    4.4300    4.4400    4.4500    4.4600    4.4700
    4.4800    4.4900    4.5000    4.5100    4.5200    4.5300    4.5400    4.5500
    4.5600    4.5700    4.5800    4.5900    4.6000    4.6100    4.6200    4.6300
    4.6400    4.6500    4.6600    4.6700    4.6800    4.6900    4.7000    4.7100
    4.7200    4.7300    4.7400    4.7500    4.7600    4.7700    4.7800    4.7900
    4.8000    4.8100    4.8200    4.8300    4.8400    4.8500    4.8600    4.8700
    4.8800    4.8900    4.9000    4.9100    4.9200    4.9300    4.9400    4.9500
    4.9600    4.9700    4.9800    4.9900    5.0000    5.0100    5.0200    5.0300
    5.0400    5.0500    5.0600    5.0700    5.0800    5.0900    5.1000    5.1100
    5.1200    5.1300    5.1400    5.1500    5.1600    5.1700    5.1800    5.1900
    5.2000    5.2100    5.2200    5.2300    5.2400    5.2500    5.2600    5.2700
    5.2800    5.2900    5.3000    5.3100    5.3200    5.3300    5.3400    5.3500
    5.3600    5.3700    5.3800    5.3900    5.4000    5.4100    5.4200    5.4300
    5.4400    5.4500    5.4600    5.4700    5.4800    5.4900    5.5000    5.5100
    5.5200    5.5300    5.5400    5.5500    5.5600    5.5700    5.5800    5.5900
    5.6000    5.6100    5.6200    5.6300    5.6400    5.6500    5.6600    5.6700
    5.6800    5.6900    5.7000    5.7100    5.7200    5.7300    5.7400    5.7500
    5.7600    5.7700    5.7800    5.7900    5.8000    5.8100    5.8200    5.8300
    5.8400    5.8500    5.8600    5.8700    5.8800    5.8900    5.9000    5.9100
    5.9200    5.9300    5.9400    5.9500    5.9600    5.9700    5.9800    5.9900
    6.0000    6.0100    6.0200    6.0300    6.0400    6.0500    6.0600    6.0700
    6.0800    6.0900    6.1000    6.1100    6.1200    6.1300    6.1400    6.1500
    6.1600    6.1700    6.1800    6.1900    6.2000    6.2100    6.2200    6.2300
    6.2400    6.2500    6.2600    6.2700    6.2800    6.2900    6.3000    6.3100
    6.3200    6.3300    6.3400    6.3500    6.3600    6.3700    6.3800    6.3900
    6.4000    6.4100    6.4200    6.4300    6.4400    6.4500    6.4600    6.4700
    6.4800    6.4900    6.5000    6.5100    6.5200    6.5300    6.5400    6.5500
    6.5600    6.5700    6.5800    6.5900    6.6000    6.6100    6.6200    6.6300
    6.6400    6.6500    6.6600    6.6700    6.6800    6.6900    6.7000    6.7100
    6.7200    6.7300    6.7400    6.7500    6.7600    6.7700    6.7800    6.7900
    6.8000    6.8100    6.8200    6.8300    6.8400    6.8500    6.8600    6.8700
    6.8800    6.8900    6.9000    6.9100    6.9200    6.9300    6.9400    6.9500
    6.9600    6.9700    6.9800    6.9900    7.0000    7.0100    7.0200    7.0300
    7.0400    7.0500    7.0600    7.0700    7.0800    7.0900    7.1000    7.1100
    7.1200    7.1300    7.1400    7.1500    7.1600    7.1700    7.1800    7.1900
    7.2000    7.2100    7.2200    7.2300    7.2400    7.2500    7.2600    7.2700
    7.2800    7.2900    7.3000    7.3100
   </PP_R>
   <PP_RAB type="real"  size=" 732" columns="8">
    0.0100    0.0100    0.0100    0.0100    0.0100    0.0100    0.0100    0.0100
    0.0100    0.0100    0.0100    0.0100    0.0100    0.0100    0.0100    0.0100
    0.0100    0.0100    0.0100    0.0100    0.0100    0.0100    0.0100    0.0100
    0.0100    0.0100    0.0100    0.0100    0.0100    0.0100    0.0100    0.0100
    0.0100    0.0100    0.0100    0.0100    0.0100    0.0100    0.0100    0.0100
    0.0100    0.0100    0.0100    0.0100    0.0100    0.0100    0.0100    0.0100
    0.0100    0.0100    0.0100    0.0100    0.0100    0.0100    0.0100    0.0100
    0.0100    0.0100    0.0100    0.0100    0.0100    0.0100    0.0100    0.0100
    0.0100    0.0100    0.0100    0.0100    0.0100    0.0100    0.0100    0.0100
    0.0100    0.0100    0.0100    0.0100    0.0100    0.0100    0.0100    0.0100
    0.0100    0.0100    0.0100    0.0100    0.0100    0.0100    0.0100    0.0100
    0.0100    0.0100    0.0100    0.0100    0.0100    0.0100    0.0100    0.0100
    0.0100    0.0100    0.0100    0.0100    0.0100    0.0100    0.0100    0.0100
    0.0100    0.0100    0.0100    0.0100    0.0100    0.0100    0.0100    0.0100
    0.0100    0.0100    0.0100    0.0100    0.0100    0.0100    0.0100    0.0100
    0.0100    0.0100    0.0100    0.0100    0.0100    0.0100    0.0100    0.0100
    0.0100    0.0100    0.0100    0.0100    0.0100    0.0100    0.0100    0.0100
    0.0100    0.0100    0.0100    0.0100    0.0100    0.0100    0.0100    0.0100
    0.0100    0.0100    0.0100    0.0100    0.0100    0.0100    0.0100    0.0100
    0.0100    0.0100    0.0100    0.0100    0.0100    0.0100    0.0100    0.0100
    0.0100    0.0100    0.0100    0.0100    0.0100    0.0100    0.0100    0.0100
    0.0100    0.0100    0.0100    0.0100    0.0100    0.0100    0.0100    0.0100
    0.0100    0.0100    0.0100    0.0100    0.0100    0.0100    0.0100    0.0100
    0.0100    0.0100    0.0100    0.0100    0.0100    0.0100    0.0100    0.0100
    0.0100    0.0100    0.0100    0.0100    0.0100    0.0100    0.0100    0.0100
    0.0100    0.0100    0.0100    0.0100    0.0100    0.0100    0.0100    0.0100
    0.0100    0.0100    0.0100    0.0100    0.0100    0.0100    0.0100    0.0100
    0.0100    0.0100    0.0100    0.0100    0.0100    0.0100    0.0100    0.0100
    0.0100    0.0100    0.0100    0.0100    0.0100    0.0100    0.0100    0.0100
    0.0100    0.0100    0.0100    0.0100    0.0100    0.0100    0.0100    0.0100
    0.0100    0.0100    0.0100    0.0100    0.0100    0.0100    0.0100    0.0100
    0.0100    0.0100    0.0100    0.0100    0.0100    0.0100    0.0100    0.0100
    0.0100    0.0100    0.0100    0.0100    0.0100    0.0100    0.0100    0.0100
    0.0100    0.0100    0.0100    0.0100    0.0100    0.0100    0.0100    0.0100
    0.0100    0.0100    0.0100    0.0100    0.0100    0.0100    0.0100    0.0100
    0.0100    0.0100    0.0100    0.0100    0.0100    0.0100    0.0100    0.0100
    0.0100    0.0100    0.0100    0.0100    0.0100    0.0100    0.0100    0.0100
    0.0100    0.0100    0.0100    0.0100    0.0100    0.0100    0.0100    0.0100
    0.0100    0.0100    0.0100    0.0100    0.0100    0.0100    0.0100    0.0100
    0.0100    0.0100    0.0100    0.0100    0.0100    0.0100    0.0100    0.0100
    0.0100    0.0100    0.0100    0.0100    0.0100    0.0100    0.0100    0.0100
    0.0100    0.0100    0.0100    0.0100    0.0100    0.0100    0.0100    0.0100
    0.0100    0.0100    0.0100    0.0100    0.0100    0.0100    0.0100    0.0100
    0.0100    0.0100    0.0100    0.0100    0.0100    0.0100    0.0100    0.0100
    0.0100    0.0100    0.0100    0.0100    0.0100    0.0100    0.0100    0.0100
    0.0100    0.0100    0.0100    0.0100    0.0100    0.0100    0.0100    0.0100
    0.0100    0.0100    0.0100    0.0100    0.0100    0.0100    0.0100    0.0100
    0.0100    0.0100    0.0100    0.0100    0.0100    0.0100    0.0100    0.0100
    0.0100    0.0100    0.0100    0.0100    0.0100    0.0100    0.0100    0.0100
    0.0100    0.0100    0.0100    0.0100    0.0100    0.0100    0.0100    0.0100
    0.0100    0.0100    0.0100    0.0100    0.0100    0.0100    0.0100    0.0100
    0.0100    0.0100    0.0100    0.0100    0.0100    0.0100    0.0100    0.0100
    0.0100    0.0100    0.0100    0.0100    0.0100    0.0100    0.0100    0.0100
    0.0100    0.0100    0.0100    0.0100    0.0100    0.0100    0.0100    0.0100
    0.0100    0.0100    0.0100    0.0100    0.0100    0.0100    0.0100    0.0100
    0.0100    0.0100    0.0100    0.0100    0.0100    0.0100    0.0100    0.0100
    0.0100    0.0100    0.0100    0.0100    0.0100    0.0100    0.0100    0.0100
    0.0100    0.0100    0.0100    0.0100    0.0100    0.0100    0.0100    0.0100
    0.0100    0.0100    0.0100    0.0100    0.0100    0.0100    0.0100    0.0100
    0.0100    0.0100    0.0100    0.0100    0.0100    0.0100    0.0100    0.0100
    0.0100    0.0100    0.0100    0.0100    0.0100    0.0100    0.0100    0.0100
    0.0100    0.0100    0.0100    0.0100    0.0100    0.0100    0.0100    0.0100
    0.0100    0.0100    0.0100    0.0100    0.0100    0.0100    0.0100    0.0100
    0.0100    0.0100    0.0100    0.0100    0.0100    0.0100    0.0100    0.0100
    0.0100    0.0100    0.0100    0.0100    0.0100    0.0100    0.0100    0.0100
    0.0100    0.0100    0.0100    0.0100    0.0100    0.0100    0.0100    0.0100
    0.0100    0.0100    0.0100    0.0100    0.0100    0.0100    0.0100    0.0100
    0.0100    0.0100    0.0100    0.0100    0.0100    0.0100    0.0100    0.0100
    0.0100    0.0100    0.0100    0.0100    0.0100    0.0100    0.0100    0.0100
    0.0100    0.0100    0.0100    0.0100    0.0100    0.0100    0.0100    0.0100
    0.0100    0.0100    0.0100    0.0100    0.0100    0.0100    0.0100    0.0100
    0.0100    0.0100    0.0100    0.0100    0.0100    0.0100    0.0100    0.0100
    0.0100    0.0100    0.0100    0.0100    0.0100    0.0100    0.0100    0.0100
    0.0100    0.0100    0.0100    0.0100    0.0100    0.0100    0.0100    0.0100
    0.0100    0.0100    0.0100    0.0100    0.0100    0.0100    0.0100    0.0100
    0.0100    0.0100    0.0100    0.0100    0.0100    0.0100    0.0100    0.0100
    0.0100    0.0100    0.0100    0.0100    0.0100    0.0100    0.0100    0.0100
    0.0100    0.0100    0.0100    0.0100    0.0100    0.0100    0.0100    0.0100
    0.0100    0.0100    0.0100    0.0100    0.0100    0.0100    0.0100    0.0100
    0.0100    0.0100    0.0100    0.0100    0.0100    0.0100    0.0100    0.0100
    0.0100    0.0100    0.0100    0.0100    0.0100    0.0100    0.0100    0.0100
    0.0100    0.0100    0.0100    0.0100    0.0100    0.0100    0.0100    0.0100
    0.0100    0.0100    0.0100    0.0100    0.0100    0.0100    0.0100    0.0100
    0.0100    0.0100    0.0100    0.0100    0.0100    0.0100    0.0100    0.0100
    0.0100    0.0100    0.0100    0.0100    0.0100    0.0100    0.0100    0.0100
    0.0100    0.0100    0.0100    0.0100    0.0100    0.0100    0.0100    0.0100
    0.0100    0.0100    0.0100    0.0100    0.0100    0.0100    0.0100    0.0100
    0.0100    0.0100    0.0100    0.0100    0.0100    0.0100    0.0100    0.0100
    0.0100    0.0100    0.0100    0.0100    0.0100    0.0100    0.0100    0.0100
    0.0100    0.0100    0.0100    0.0100    0.0100    0.0100    0.0100    0.0100
    0.0100    0.0100    0.0100    0.0100    0.0100    0.0100    0.0100    0.0100
    0.0100    0.0100    0.0100    0.0100
   </PP_RAB>
 </PP_MESH>
  <PP_LOCAL type="real"  size=" 732" columns="4">
   -7.9374310063E+00   -7.9850520077E+00   -7.9823565358E+00   -7.9778717055E+00
   -7.9716088296E+00   -7.9635835004E+00   -7.9538153567E+00   -7.9423278003E+00
   -7.9291476702E+00   -7.9143048896E+00   -7.8978320940E+00   -7.8797642543E+00
   -7.8601383049E+00   -7.8389927867E+00   -7.8163675124E+00   -7.7923032614E+00
   -7.7668415085E+00   -7.7400241882E+00   -7.7118934962E+00   -7.6824917279E+00
   -7.6518611497E+00   -7.6200439024E+00   -7.5870819316E+00   -7.5530169397E+00
   -7.5178903571E+00   -7.4817433253E+00   -7.4446166888E+00   -7.4065509918E+00
   -7.3675864745E+00   -7.3277630668E+00   -7.2871203770E+00   -7.2456976728E+00
   -7.2035338534E+00   -7.1606674126E+00   -7.1171363929E+00   -7.0729783292E+00
   -7.0282301866E+00   -6.9829282898E+00   -6.9371082491E+00   -6.8908048824E+00
   -6.8440521377E+00   -6.7968830161E+00   -6.7493294999E+00   -6.7014224855E+00
   -6.6531917260E+00   -6.6046657827E+00   -6.5558719894E+00   -6.5068364295E+00
   -6.4575839277E+00   -6.4081380564E+00   -6.3585211581E+00   -6.3087543825E+00
   -6.2588577392E+00   -6.2088501641E+00   -6.1587495988E+00   -6.1085730819E+00
   -6.0583368493E+00   -6.0080564427E+00   -5.9577468228E+00   -5.9074224859E+00
   -5.8570975802E+00   -5.8067860202E+00   -5.7565015960E+00   -5.7062580753E+00
   -5.6560692957E+00   -5.6059492454E+00   -5.5559121297E+00   -5.5059724236E+00
   -5.4561449067E+00   -5.4064446829E+00   -5.3568871811E+00   -5.3074881405E+00
   -5.2582635785E+00   -5.2092297431E+00   -5.1604030519E+00   -5.1118000179E+00
   -5.0634371659E+00   -5.0153309403E+00   -4.9674976083E+00   -4.9199531593E+00
   -4.8727132049E+00   -4.8257928814E+00   -4.7792067572E+00   -4.7329687479E+00
   -4.6870920402E+00   -4.6415890282E+00   -4.5964712621E+00   -4.5517494113E+00
   -4.5074332423E+00   -4.4635316126E+00   -4.4200524809E+00   -4.3770029330E+00
   -4.3343892239E+00   -4.2922168352E+00   -4.2504905481E+00   -4.2092145296E+00
   -4.1683924324E+00   -4.1280275047E+00   -4.0881227106E+00   -4.0486808559E+00
   -4.0097047173E+00   -3.9711971717E+00   -3.9331613186E+00   -3.8956005931E+00
   -3.8585188614E+00   -3.8219204926E+00   -3.7858104018E+00   -3.7501940547E+00
   -3.7150774299E+00   -3.6804669323E+00   -3.6463692529E+00   -3.6127911723E+00
   -3.5797393062E+00   -3.5472197974E+00   -3.5152380244E+00   -3.4837990878E+00
   -3.4529083193E+00   -3.4225709159E+00   -3.3927914783E+00   -3.3635735409E+00
   -3.3349191002E+00   -3.3068283164E+00   -3.2792992262E+00   -3.2523272980E+00
   -3.2259062469E+00   -3.2000244376E+00   -3.1746240739E+00   -3.1496288000E+00
   -3.1250217169E+00   -3.1007965725E+00   -3.0769440759E+00   -3.0534557435E+00
   -3.0303232998E+00   -3.0075387169E+00   -2.9850942068E+00   -2.9629822121E+00
   -2.9411953978E+00   -2.9197266430E+00   -2.8985690332E+00   -2.8777158528E+00
   -2.8571605784E+00   -2.8368968712E+00   -2.8169185713E+00   -2.7972196910E+00
   -2.7777944090E+00   -2.7586370644E+00   -2.7397421515E+00   -2.7211043145E+00
   -2.7027183422E+00   -2.6845791635E+00   -2.6666818423E+00   -2.6490215735E+00
   -2.6315936782E+00   -2.6143936000E+00   -2.5974169007E+00   -2.5806592570E+00
   -2.5641164559E+00   -2.5477843922E+00   -2.5316590645E+00   -2.5157365719E+00
   -2.5000131113E+00   -2.4844849738E+00   -2.4691485423E+00   -2.4540002885E+00
   -2.4390367699E+00   -2.4242546277E+00   -2.4096505839E+00   -2.3952214391E+00
   -2.3809640701E+00   -2.3668754275E+00   -2.3529525338E+00   -2.3391924810E+00
   -2.3255924289E+00   -2.3121496028E+00   -2.2988612920E+00   -2.2857248475E+00
   -2.2727376808E+00   -2.2598972616E+00   -2.2472011166E+00   -2.2346468280E+00
   -2.2222320313E+00   -2.2099544145E+00   -2.1978117165E+00   -2.1858017254E+00
   -2.1739222776E+00   -2.1621712562E+00   -2.1505465897E+00   -2.1390462511E+00
   -2.1276682564E+00   -2.1164106638E+00   -2.1052715720E+00   -2.0942491200E+00
   -2.0833414851E+00   -2.0725468828E+00   -2.0618635650E+00   -2.0512898198E+00
   -2.0408239701E+00   -2.0304643728E+00   -2.0202094180E+00   -2.0100575284E+00
   -2.0000071578E+00   -1.9900567912E+00   -1.9802049433E+00   -1.9704501583E+00
   -1.9607910089E+00   -1.9512260954E+00   -1.9417540456E+00   -1.9323735136E+00
   -1.9230831796E+00   -1.9138817488E+00   -1.9047679513E+00   -1.8957405410E+00
   -1.8867982957E+00   -1.8779400157E+00   -1.8691645241E+00   -1.8604706657E+00
   -1.8518573068E+00   -1.8433233344E+00   -1.8348676562E+00   -1.8264891997E+00
   -1.8181869117E+00   -1.8099597586E+00   -1.8018067248E+00   -1.7937268133E+00
   -1.7857190449E+00   -1.7777824576E+00   -1.7699161066E+00   -1.7621190637E+00
   -1.7543904170E+00   -1.7467292704E+00   -1.7391347435E+00   -1.7316059712E+00
   -1.7241421032E+00   -1.7167423039E+00   -1.7094057518E+00   -1.7021316395E+00
   -1.6949191735E+00   -1.6877675732E+00   -1.6806760716E+00   -1.6736439142E+00
   -1.6666703592E+00   -1.6597546773E+00   -1.6528961508E+00   -1.6460940743E+00
   -1.6393477537E+00   -1.6326565062E+00   -1.6260196602E+00   -1.6194365549E+00
   -1.6129065404E+00   -1.6064289769E+00   -1.6000032349E+00   -1.5936286952E+00
   -1.5873047482E+00   -1.5810307939E+00   -1.5748062418E+00   -1.5686305109E+00
   -1.5625030288E+00   -1.5564232324E+00   -1.5503905673E+00   -1.5444044874E+00
   -1.5384644552E+00   -1.5325699415E+00   -1.5267204250E+00   -1.5209153924E+00
   -1.5151543383E+00   -1.5094367647E+00   -1.5037621812E+00   -1.4981301047E+00
   -1.4925400596E+00   -1.4869915769E+00   -1.4814841948E+00   -1.4760174584E+00
   -1.4705909193E+00   -1.4652041358E+00   -1.4598566726E+00   -1.4545481007E+00
   -1.4492779974E+00   -1.4440459460E+00   -1.4388515359E+00   -1.4336943623E+00
   -1.4285740262E+00   -1.4234901343E+00   -1.4184422990E+00   -1.4134301379E+00
   -1.4084532742E+00   -1.4035113363E+00   -1.3986039579E+00   -1.3937307777E+00
   -1.3888914394E+00   -1.3840855918E+00   -1.3793128883E+00   -1.3745729873E+00
   -1.3698655517E+00   -1.3651902490E+00   -1.3605467515E+00   -1.3559347356E+00
   -1.3513538822E+00   -1.3468038766E+00   -1.3422844081E+00   -1.3377951705E+00
   -1.3333358613E+00   -1.3289061822E+00   -1.3245058390E+00   -1.3201345411E+00
   -1.3157920019E+00   -1.3114779384E+00   -1.3071920716E+00   -1.3029341259E+00
   -1.2987038292E+00   -1.2945009132E+00   -1.2903251129E+00   -1.2861761666E+00
   -1.2820538162E+00   -1.2779578067E+00   -1.2738878865E+00   -1.2698438070E+00
   -1.2658253230E+00   -1.2618321922E+00   -1.2578641755E+00   -1.2539210365E+00
   -1.2500025421E+00   -1.2461084620E+00   -1.2422385687E+00   -1.2383926375E+00
   -1.2345704466E+00   -1.2307717768E+00   -1.2269964116E+00   -1.2232441372E+00
   -1.2195147425E+00   -1.2158080188E+00   -1.2121237600E+00   -1.2084617625E+00
   -1.2048218250E+00   -1.2012037490E+00   -1.1976073380E+00   -1.1940323979E+00
   -1.1904787371E+00   -1.1869461662E+00   -1.1834344979E+00   -1.1799435473E+00
   -1.1764731316E+00   -1.1730230701E+00   -1.1695931842E+00   -1.1661832975E+00
   -1.1627932356E+00   -1.1594228260E+00   -1.1560718985E+00   -1.1527402845E+00
   -1.1494278175E+00   -1.1461343330E+00   -1.1428596683E+00   -1.1396036624E+00
   -1.1363661565E+00   -1.1331469931E+00   -1.1299460170E+00   -1.1267630744E+00
   -1.1235980133E+00   -1.1204506836E+00   -1.1173209364E+00   -1.1142086251E+00
   -1.1111136042E+00   -1.1080357301E+00   -1.1049748606E+00   -1.1019308553E+00
   -1.0989035751E+00   -1.0958928826E+00   -1.0928986418E+00   -1.0899207182E+00
   -1.0869589789E+00   -1.0840132922E+00   -1.0810835279E+00   -1.0781695574E+00
   -1.0752712533E+00   -1.0723884895E+00   -1.0695211414E+00   -1.0666690856E+00
   -1.0638322003E+00   -1.0610103645E+00   -1.0582034590E+00   -1.0554113655E+00
   -1.0526339671E+00   -1.0498711481E+00   -1.0471227940E+00   -1.0443887914E+00
   -1.0416690283E+00   -1.0389633937E+00   -1.0362717778E+00   -1.0335940720E+00
   -1.0309301686E+00   -1.0282799613E+00   -1.0256433446E+00   -1.0230202144E+00
   -1.0204104673E+00   -1.0178140013E+00   -1.0152307152E+00   -1.0126605089E+00
   -1.0101032834E+00   -1.0075589404E+00   -1.0050273830E+00   -1.0025085151E+00
   -1.0000022413E+00   -9.9750846758E-01   -9.9502710057E-01   -9.9255804795E-01
   -9.9010121825E-01   -9.8765652096E-01   -9.8522386641E-01   -9.8280316584E-01
   -9.8039433136E-01   -9.7799727594E-01   -9.7561191338E-01   -9.7323815833E-01
   -9.7087592629E-01   -9.6852513354E-01   -9.6618569720E-01   -9.6385753517E-01
   -9.6154056615E-01   -9.5923470961E-01   -9.5693988581E-01   -9.5465601574E-01
   -9.5238302118E-01   -9.5012082462E-01   -9.4786934930E-01   -9.4562851919E-01
   -9.4339825897E-01   -9.4117849402E-01   -9.3896915045E-01   -9.3677015502E-01
   -9.3458143522E-01   -9.3240291918E-01   -9.3023453572E-01   -9.2807621431E-01
   -9.2592788507E-01   -9.2378947878E-01   -9.2166092684E-01   -9.1954216130E-01
   -9.1743311482E-01   -9.1533372068E-01   -9.1324391276E-01   -9.1116362557E-01
   -9.0909279419E-01   -9.0703135428E-01   -9.0497924212E-01   -9.0293639454E-01
   -9.0090274893E-01   -8.9887824326E-01   -8.9686281606E-01   -8.9485640639E-01
   -8.9285895388E-01   -8.9087039867E-01   -8.8889068145E-01   -8.8691974344E-01
   -8.8495752636E-01   -8.8300397245E-01   -8.8105902449E-01   -8.7912262572E-01
   -8.7719471990E-01   -8.7527525128E-01   -8.7336416460E-01   -8.7146140506E-01
   -8.6956691837E-01   -8.6768065069E-01   -8.6580254865E-01   -8.6393255934E-01
   -8.6207063031E-01   -8.6021670956E-01   -8.5837074553E-01   -8.5653268712E-01
   -8.5470248363E-01   -8.5288008484E-01   -8.5106544092E-01   -8.4925850248E-01
   -8.4745922055E-01   -8.4566754656E-01   -8.4388343236E-01   -8.4210683021E-01
   -8.4033769277E-01   -8.3857597308E-01   -8.3682162460E-01   -8.3507460115E-01
   -8.3333485696E-01   -8.3160234662E-01   -8.2987702512E-01   -8.2815884779E-01
   -8.2644777037E-01   -8.2474374893E-01   -8.2304673992E-01   -8.2135670015E-01
   -8.1967358676E-01   -8.1799735726E-01   -8.1632796952E-01   -8.1466538172E-01
   -8.1300955241E-01   -8.1136044045E-01   -8.0971800506E-01   -8.0808220578E-01
   -8.0645300245E-01   -8.0483035528E-01   -8.0321422476E-01   -8.0160457172E-01
   -8.0000135729E-01   -7.9840454293E-01   -7.9681409037E-01   -7.9522996168E-01
   -7.9365211922E-01   -7.9208052565E-01   -7.9051514391E-01   -7.8895593724E-01
   -7.8740286919E-01   -7.8585590358E-01   -7.8431500450E-01   -7.8278013634E-01
   -7.8125126376E-01   -7.7972835171E-01   -7.7821136539E-01   -7.7670027028E-01
   -7.7519503214E-01   -7.7369561697E-01   -7.7220199106E-01   -7.7071412094E-01
   -7.6923197340E-01   -7.6775551550E-01   -7.6628471453E-01   -7.6481953805E-01
   -7.6335995385E-01   -7.6190592998E-01   -7.6045743472E-01   -7.5901443661E-01
   -7.5757690441E-01   -7.5614480712E-01   -7.5471811398E-01   -7.5329679446E-01
   -7.5188081825E-01   -7.5047015529E-01   -7.4906477572E-01   -7.4766464991E-01
   -7.4626974846E-01   -7.4488004218E-01   -7.4349550211E-01   -7.4211609949E-01
   -7.4074180578E-01   -7.3937259265E-01   -7.3800843197E-01   -7.3664929584E-01
   -7.3529515654E-01   -7.3394598657E-01   -7.3260175863E-01   -7.3126244561E-01
   -7.2992802060E-01   -7.2859845690E-01   -7.2727372798E-01   -7.2595380753E-01
   -7.2463866942E-01   -7.2332828769E-01   -7.2202263659E-01   -7.2072169055E-01
   -7.1942542419E-01   -7.1813381229E-01   -7.1684682984E-01   -7.1556445199E-01
   -7.1428665408E-01   -7.1301341160E-01   -7.1174470025E-01   -7.1048049588E-01
   -7.0922077451E-01   -7.0796551235E-01   -7.0671468576E-01   -7.0546827126E-01
   -7.0422624556E-01   -7.0298858552E-01   -7.0175526816E-01   -7.0052627065E-01
   -6.9930157036E-01   -6.9808114477E-01   -6.9686497155E-01   -6.9565302851E-01
   -6.9444529362E-01   -6.9324174500E-01   -6.9204236092E-01   -6.9084711980E-01
   -6.8965600021E-01   -6.8846898088E-01   -6.8728604066E-01   -6.8610715857E-01
   -6.8493231376E-01   -6.8376148553E-01   -6.8259465331E-01   -6.8143179668E-01
   -6.8027289536E-01   -6.7911792920E-01   -6.7796687819E-01   -6.7681972246E-01
   -6.7567644227E-01   -6.7453701801E-01   -6.7340143021E-01   -6.7226965952E-01
   -6.7114168674E-01   -6.7001749277E-01   -6.6889705866E-01   -6.6778036557E-01
   -6.6666739481E-01   -6.6555812780E-01   -6.6445254606E-01   -6.6335063128E-01
   -6.6225236524E-01   -6.6115772983E-01   -6.6006670710E-01   -6.5897927919E-01
   -6.5789542835E-01   -6.5681513697E-01   -6.5573838754E-01   -6.5466516268E-01
   -6.5359544509E-01   -6.5252921763E-01   -6.5146646323E-01   -6.5040716495E-01
   -6.4935130597E-01   -6.4829886955E-01   -6.4724983909E-01   -6.4620419808E-01
   -6.4516193012E-01   -6.4412301891E-01   -6.4308744827E-01   -6.4205520210E-01
   -6.4102626442E-01   -6.4000061935E-01   -6.3897825112E-01   -6.3795914405E-01
   -6.3694328255E-01   -6.3593065114E-01   -6.3492123445E-01   -6.3391501719E-01
   -6.3291198418E-01   -6.3191212031E-01   -6.3091541061E-01   -6.2992184016E-01
   -6.2893139415E-01   -6.2794405788E-01   -6.2695981672E-01   -6.2597865613E-01
   -6.2500056169E-01   -6.2402551903E-01   -6.2305351390E-01   -6.2208453213E-01
   -6.2111855962E-01   -6.2015558240E-01   -6.1919558653E-01   -6.1823855821E-01
   -6.1728448369E-01   -6.1633334932E-01   -6.1538514153E-01   -6.1443984683E-01
   -6.1349745181E-01   -6.1255794317E-01   -6.1162130765E-01   -6.1068753209E-01
   -6.0975660343E-01   -6.0882850865E-01   -6.0790323484E-01   -6.0698076915E-01
   -6.0606109883E-01   -6.0514421118E-01   -6.0423009359E-01   -6.0331873354E-01
   -6.0241011855E-01   -6.0150423626E-01   -6.0060107434E-01   -5.9970062056E-01
   -5.9880286276E-01   -5.9790778885E-01   -5.9701538682E-01   -5.9612564471E-01
   -5.9523855065E-01   -5.9435409285E-01   -5.9347225955E-01   -5.9259303911E-01
   -5.9171641992E-01   -5.9084239045E-01   -5.8997093926E-01   -5.8910205494E-01
   -5.8823572617E-01   -5.8737194170E-01   -5.8651069033E-01   -5.8565196093E-01
   -5.8479574245E-01   -5.8394202389E-01   -5.8309079431E-01   -5.8224204285E-01
   -5.8139575870E-01   -5.8055193111E-01   -5.7971054942E-01   -5.7887160299E-01
   -5.7803508127E-01   -5.7720097376E-01   -5.7636927003E-01   -5.7553995970E-01
   -5.7471303246E-01   -5.7388847804E-01   -5.7306628625E-01   -5.7224644696E-01
   -5.7142895007E-01   -5.7061378556E-01   -5.6980094347E-01   -5.6899041388E-01
   -5.6818218694E-01   -5.6737625285E-01   -5.6657260187E-01   -5.6577122431E-01
   -5.6497211054E-01   -5.6417525097E-01   -5.6338063609E-01   -5.6258825643E-01
   -5.6179810255E-01   -5.6101016511E-01   -5.6022443478E-01   -5.5944090230E-01
   -5.5865955848E-01   -5.5788039414E-01   -5.5710340018E-01   -5.5632856755E-01
   -5.5555588724E-01   -5.5478535030E-01   -5.5401694782E-01   -5.5325067094E-01
   -5.5248651085E-01   -5.5172445880E-01   -5.5096450608E-01   -5.5020664402E-01
   -5.4945086400E-01   -5.4869715746E-01   -5.4794551588E-01   -5.4719593078E-01
  </PP_LOCAL>
 <PP_NONLOCAL>
   <PP_BETA.1
       type="real"
       size=" 732"
       columns="4"
       index="1"
       angular_momentum="0"
       cutoff_radius_index=" 132"
       cutoff_radius="    1.3100000000E+00" >
   -1.2823996531E-08    9.5799785664E-02    1.9129000153E-01    2.8616349767E-01
    3.8011788450E-01    4.7285771839E-01    5.6409646330E-01    6.5355817026E-01
    7.4097882864E-01    8.2610735852E-01    9.0870622986E-01    9.8855171120E-01
    1.0654337681E+00    1.1391556480E+00    1.2095332029E+00    1.2763940141E+00
    1.3395763946E+00    1.3989283486E+00    1.4543065742E+00    1.5055755921E+00
    1.5526070795E+00    1.5952794801E+00    1.6334779492E+00    1.6670946769E+00
    1.6960296165E+00    1.7201916238E+00    1.7394999941E+00    1.7538863626E+00
    1.7632969117E+00    1.7676948138E+00    1.7670628176E+00    1.7614058755E+00
    1.7507536990E+00    1.7351631228E+00    1.7147201592E+00    1.6895416276E+00
    1.6597762516E+00    1.6256051316E+00    1.5872415184E+00    1.5449298331E+00
    1.4989439056E+00    1.4495844292E+00    1.3971756583E+00    1.3420614028E+00
    1.2846004037E+00    1.2251611961E+00    1.1641165917E+00    1.1018379314E+00
    1.0386892714E+00    9.7502167787E-01    9.1116780555E-01    8.4743693431E-01
    7.8411062846E-01    7.2143916702E-01    6.5963887283E-01    5.9889044158E-01
    5.3933834115E-01    4.8109131735E-01    4.2422400548E-01    3.6877960962E-01
    3.1477357397E-01    2.6219813461E-01    2.1102760700E-01    1.6122423539E-01
    1.1274440669E-01    6.5545013216E-02    1.9589738636E-02   -2.5144962443E-02
   -6.8664415746E-02   -1.1095102179E-01   -1.5196048571E-01   -1.9161914745E-01
   -2.2982254382E-01   -2.6643529487E-01   -3.0129236407E-01   -3.3420169563E-01
   -3.6494818540E-01   -3.9329889426E-01   -4.1900936832E-01   -4.4183088814E-01
   -4.6151843243E-01   -4.7783911115E-01   -4.9058079983E-01   -4.9956069180E-01
   -5.0463347969E-01   -5.0569888072E-01   -5.0270823373E-01   -4.9566991818E-01
   -4.8465337631E-01   -4.6979155878E-01   -4.5128165968E-01   -4.2938405772E-01
   -4.0441943548E-01   -3.7676410528E-01   -3.4684362759E-01   -3.1512486329E-01
   -2.8210665351E-01   -2.4830936753E-01   -2.1426359972E-01   -1.8049832843E-01
   -1.4752887265E-01   -1.1584499470E-01   -8.5899499305E-02   -5.8097670117E-02
   -3.2787865027E-02   -1.0253561338E-02    9.2928977198E-03    2.5714651628E-02
    3.8952617773E-02    4.9025644685E-02    5.6028498301E-02    6.0127721240E-02
    6.1555469065E-02    6.0601491078E-02    5.7603531087E-02    5.2937022103E-02
    4.7003876965E-02    4.0219985592E-02    3.3002332764E-02    2.5756238268E-02
    1.8864944084E-02    1.2674286855E-02    7.4820722033E-03    3.5318354026E-03
    9.9760317406E-04    2.8437504719E-05    3.8811595403E-06   -1.1624618560E-06
    4.9279733809E-12    0.0000000000E+00    0.0000000000E+00    0.0000000000E+00
 0. 0. 0. 0.
 0. 0. 0. 0.
 0. 0. 0. 0.
 0. 0. 0. 0.
 0. 0. 0. 0.
 0. 0. 0. 0.
 0. 0. 0. 0.
 0. 0. 0. 0.
 0. 0. 0. 0.
 0. 0. 0. 0.
 0. 0. 0. 0.
 0. 0. 0. 0.
 0. 0. 0. 0.
 0. 0. 0. 0.
 0. 0. 0. 0.
 0. 0. 0. 0.
 0. 0. 0. 0.
 0. 0. 0. 0.
 0. 0. 0. 0.
 0. 0. 0. 0.
 0. 0. 0. 0.
 0. 0. 0. 0.
 0. 0. 0. 0.
 0. 0. 0. 0.
 0. 0. 0. 0.
 0. 0. 0. 0.
 0. 0. 0. 0.
 0. 0. 0. 0.
 0. 0. 0. 0.
 0. 0. 0. 0.
 0. 0. 0. 0.
 0. 0. 0. 0.
 0. 0. 0. 0.
 0. 0. 0. 0.
 0. 0. 0. 0.
 0. 0. 0. 0.
 0. 0. 0. 0.
 0. 0. 0. 0.
 0. 0. 0. 0.
 0. 0. 0. 0.
 0. 0. 0. 0.
 0. 0. 0. 0.
 0. 0. 0. 0.
 0. 0. 0. 0.
 0. 0. 0. 0.
 0. 0. 0. 0.
 0. 0. 0. 0.
 0. 0. 0. 0.
 0. 0. 0. 0.
 0. 0. 0. 0.
 0. 0. 0. 0.
 0. 0. 0. 0.
 0. 0. 0. 0.
 0. 0. 0. 0.
 0. 0. 0. 0.
 0. 0. 0. 0.
 0. 0. 0. 0.
 0. 0. 0. 0.
 0. 0. 0. 0.
 0. 0. 0. 0.
 0. 0. 0. 0.
 0. 0. 0. 0.
 0. 0. 0. 0.
 0. 0. 0. 0.
 0. 0. 0. 0.
 0. 0. 0. 0.
 0. 0. 0. 0.
 0. 0. 0. 0.
 0. 0. 0. 0.
 0. 0. 0. 0.
 0. 0. 0. 0.
 0. 0. 0. 0.
 0. 0. 0. 0.
 0. 0. 0. 0.
 0. 0. 0. 0.
 0. 0. 0. 0.
 0. 0. 0. 0.
 0. 0. 0. 0.
 0. 0. 0. 0.
 0. 0. 0. 0.
 0. 0. 0. 0.
 0. 0. 0. 0.
 0. 0. 0. 0.
 0. 0. 0. 0.
 0. 0. 0. 0.
 0. 0. 0. 0.
 0. 0. 0. 0.
 0. 0. 0. 0.
 0. 0. 0. 0.
 0. 0. 0. 0.
 0. 0. 0. 0.
 0. 0. 0. 0.
 0. 0. 0. 0.
 0. 0. 0. 0.
 0. 0. 0. 0.
 0. 0. 0. 0.
 0. 0. 0. 0.
 0. 0. 0. 0.
 0. 0. 0. 0.
 0. 0. 0. 0.
 0. 0. 0. 0.
 0. 0. 0. 0.
 0. 0. 0. 0.
 0. 0. 0. 0.
 0. 0. 0. 0.
 0. 0. 0. 0.
 0. 0. 0. 0.
 0. 0. 0. 0.
 0. 0. 0. 0.
 0. 0. 0. 0.
 0. 0. 0. 0.
 0. 0. 0. 0.
 0. 0. 0. 0.
 0. 0. 0. 0.
 0. 0. 0. 0.
 0. 0. 0. 0.
 0. 0. 0. 0.
 0. 0. 0. 0.
 0. 0. 0. 0.
 0. 0. 0. 0.
 0. 0. 0. 0.
 0. 0. 0. 0.
 0. 0. 0. 0.
 0. 0. 0. 0.
 0. 0. 0. 0.
 0. 0. 0. 0.
 0. 0. 0. 0.
 0. 0. 0. 0.
 0. 0. 0. 0.
 0. 0. 0. 0.
 0. 0. 0. 0.
 0. 0. 0. 0.
 0. 0. 0. 0.
 0. 0. 0. 0.
 0. 0. 0. 0.
 0. 0. 0. 0.
 0. 0. 0. 0.
 0. 0. 0. 0.
 0. 0. 0. 0.
 0. 0. 0. 0.
 0. 0. 0. 0.
 0. 0. 0. 0.
 0. 0. 0. 0.
 0. 0. 0. 0.
 0. 0. 0. 0.
 0. 0. 0. 0.
 0. 0. 0. 0.
 0. 0. 0. 0.
 0. 0. 0. 0.
 0. 0. 0. 0.
   </PP_BETA.1>
   <PP_BETA.2
       type="real"
       size=" 732"
       columns="4"
       index="2"
       angular_momentum="0"
       cutoff_radius_index=" 132"
       cutoff_radius="    1.3100000000E+00" >
    2.8114252565E-08   -2.9978849620E-02   -5.9763285468E-02   -8.9160915182E-02
   -1.1798325267E-01   -1.4604733779E-01   -1.7317697788E-01   -1.9920352022E-01
   -2.2396609306E-01   -2.4731128493E-01   -2.6909226760E-01   -2.8916740426E-01
   -3.0739842016E-01   -3.2364824620E-01   -3.3777867436E-01   -3.4964798712E-01
   -3.5910873810E-01   -3.6600586885E-01   -3.7017534466E-01   -3.7144348106E-01
   -3.6962711249E-01   -3.6453472517E-01   -3.5596863937E-01   -3.4372828241E-01
   -3.2761454546E-01   -3.0743516540E-01   -2.8301102063E-01   -2.5418317840E-01
   -2.2082048385E-01   -1.8282743869E-01   -1.4015208396E-01   -9.2793576509E-02
   -4.0809135930E-02    1.5679962336E-02    7.6483660006E-02    1.4133994220E-01
    2.0991346627E-01    2.8179619264E-01    3.5651015705E-01    4.3351245421E-01
    5.1220242771E-01    5.9193098141E-01    6.7201184704E-01    7.5173456417E-01
    8.3037885485E-01    9.0723000944E-01    9.8159484482E-01    1.0528177538E+00
    1.1202963379E+00    1.1834961049E+00    1.2419637207E+00    1.2953383305E+00
    1.3433605083E+00    1.3858784555E+00    1.4228511447E+00    1.4543481969E+00
    1.4805463810E+00    1.5017227323E+00    1.5182444023E+00    1.5305554637E+00
    1.5391610054E+00    1.5446089545E+00    1.5474701549E+00    1.5483173072E+00
    1.5477034343E+00    1.5461405751E+00    1.5440794250E+00    1.5418906338E+00
    1.5398484396E+00    1.5381172630E+00    1.5367418059E+00    1.5356411019E+00
    1.5346068486E+00    1.5333062191E+00    1.5312892114E+00    1.5280004445E+00
    1.5227951608E+00    1.5149590501E+00    1.5037313728E+00    1.4883307368E+00
    1.4679827740E+00    1.4419488823E+00    1.4095551338E+00    1.3702204231E+00
    1.3234829223E+00    1.2690239384E+00    1.2066883261E+00    1.1365006921E+00
    1.0586767404E+00    9.7362924486E-01    8.8196828636E-01    7.8449556612E-01
    6.8219278440E-01    5.7620425886E-01    4.6781413992E-01    3.5841875631E-01
    2.4949478632E-01    1.4256409535E-01    3.9156200814E-02   -5.9230580364E-02
   -1.5116818407E-01   -2.3533690391E-01   -3.1056140725E-01   -3.7584356118E-01
   -4.3039104289E-01   -4.7364081606E-01   -5.0527669267E-01   -5.2524036269E-01
   -5.3373545833E-01   -5.3122441959E-01   -5.1841813701E-01   -4.9625856074E-01
   -4.6589467317E-01   -4.2865242923E-01   -3.8599965246E-01   -3.3950916260E-01
   -2.9081909498E-01   -2.4158874031E-01   -1.9345334355E-01   -1.4797948916E-01
   -1.0662565474E-01   -7.0696048845E-02   -4.1303529527E-02   -1.9345276196E-02
   -5.4348827280E-03   -1.5435553589E-04   -2.1068881972E-05    6.3234122069E-06
   -1.6292852036E-11    0.0000000000E+00    0.0000000000E+00    0.0000000000E+00
 0. 0. 0. 0.
 0. 0. 0. 0.
 0. 0. 0. 0.
 0. 0. 0. 0.
 0. 0. 0. 0.
 0. 0. 0. 0.
 0. 0. 0. 0.
 0. 0. 0. 0.
 0. 0. 0. 0.
 0. 0. 0. 0.
 0. 0. 0. 0.
 0. 0. 0. 0.
 0. 0. 0. 0.
 0. 0. 0. 0.
 0. 0. 0. 0.
 0. 0. 0. 0.
 0. 0. 0. 0.
 0. 0. 0. 0.
 0. 0. 0. 0.
 0. 0. 0. 0.
 0. 0. 0. 0.
 0. 0. 0. 0.
 0. 0. 0. 0.
 0. 0. 0. 0.
 0. 0. 0. 0.
 0. 0. 0. 0.
 0. 0. 0. 0.
 0. 0. 0. 0.
 0. 0. 0. 0.
 0. 0. 0. 0.
 0. 0. 0. 0.
 0. 0. 0. 0.
 0. 0. 0. 0.
 0. 0. 0. 0.
 0. 0. 0. 0.
 0. 0. 0. 0.
 0. 0. 0. 0.
 0. 0. 0. 0.
 0. 0. 0. 0.
 0. 0. 0. 0.
 0. 0. 0. 0.
 0. 0. 0. 0.
 0. 0. 0. 0.
 0. 0. 0. 0.
 0. 0. 0. 0.
 0. 0. 0. 0.
 0. 0. 0. 0.
 0. 0. 0. 0.
 0. 0. 0. 0.
 0. 0. 0. 0.
 0. 0. 0. 0.
 0. 0. 0. 0.
 0. 0. 0. 0.
 0. 0. 0. 0.
 0. 0. 0. 0.
 0. 0. 0. 0.
 0. 0. 0. 0.
 0. 0. 0. 0.
 0. 0. 0. 0.
 0. 0. 0. 0.
 0. 0. 0. 0.
 0. 0. 0. 0.
 0. 0. 0. 0.
 0. 0. 0. 0.
 0. 0. 0. 0.
 0. 0. 0. 0.
 0. 0. 0. 0.
 0. 0. 0. 0.
 0. 0. 0. 0.
 0. 0. 0. 0.
 0. 0. 0. 0.
 0. 0. 0. 0.
 0. 0. 0. 0.
 0. 0. 0. 0.
 0. 0. 0. 0.
 0. 0. 0. 0.
 0. 0. 0. 0.
 0. 0. 0. 0.
 0. 0. 0. 0.
 0. 0. 0. 0.
 0. 0. 0. 0.
 0. 0. 0. 0.
 0. 0. 0. 0.
 0. 0. 0. 0.
 0. 0. 0. 0.
 0. 0. 0. 0.
 0. 0. 0. 0.
 0. 0. 0. 0.
 0. 0. 0. 0.
 0. 0. 0. 0.
 0. 0. 0. 0.
 0. 0. 0. 0.
 0. 0. 0. 0.
 0. 0. 0. 0.
 0. 0. 0. 0.
 0. 0. 0. 0.
 0. 0. 0. 0.
 0. 0. 0. 0.
 0. 0. 0. 0.
 0. 0. 0. 0.
 0. 0. 0. 0.
 0. 0. 0. 0.
 0. 0. 0. 0.
 0. 0. 0. 0.
 0. 0. 0. 0.
 0. 0. 0. 0.
 0. 0. 0. 0.
 0. 0. 0. 0.
 0. 0. 0. 0.
 0. 0. 0. 0.
 0. 0. 0. 0.
 0. 0. 0. 0.
 0. 0. 0. 0.
 0. 0. 0. 0.
 0. 0. 0. 0.
 0. 0. 0. 0.
 0. 0. 0. 0.
 0. 0. 0. 0.
 0. 0. 0. 0.
 0. 0. 0. 0.
 0. 0. 0. 0.
 0. 0. 0. 0.
 0. 0. 0. 0.
 0. 0. 0. 0.
 0. 0. 0. 0.
 0. 0. 0. 0.
 0. 0. 0. 0.
 0. 0. 0. 0.
 0. 0. 0. 0.
 0. 0. 0. 0.
 0. 0. 0. 0.
 0. 0. 0. 0.
 0. 0. 0. 0.
 0. 0. 0. 0.
 0. 0. 0. 0.
 0. 0. 0. 0.
 0. 0. 0. 0.
 0. 0. 0. 0.
 0. 0. 0. 0.
 0. 0. 0. 0.
 0. 0. 0. 0.
 0. 0. 0. 0.
 0. 0. 0. 0.
 0. 0. 0. 0.
 0. 0. 0. 0.
 0. 0. 0. 0.
 0. 0. 0. 0.
 0. 0. 0. 0.
 0. 0. 0. 0.
 0. 0. 0. 0.
   </PP_BETA.2>
   <PP_BETA.3
       type="real"
       size=" 732"
       columns="4"
       index="3"
       angular_momentum="1"
       cutoff_radius_index=" 132"
       cutoff_radius="    1.3100000000E+00" >
   -7.9316290758E-09   -2.2402058661E-03   -8.9426713547E-03   -2.0053194706E-02
   -3.5482283543E-02   -5.5106404419E-02   -7.8769699942E-02   -1.0628614199E-01
   -1.3744208162E-01   -1.7199914901E-01   -2.0969745077E-01   -2.5025900636E-01
   -2.9339136164E-01   -3.3879131449E-01   -3.8614868582E-01   -4.3515006919E-01
   -4.8548249288E-01   -5.3683693112E-01   -5.8891160400E-01   -6.4141501090E-01
   -6.9406864777E-01   -7.4660936520E-01   -7.9879133222E-01   -8.5038757847E-01
   -9.0119109662E-01   -9.5101549574E-01   -9.9969520572E-01   -1.0470852420E+00
   -1.0930605487E+00   -1.1375149483E+00   -1.1803597302E+00   -1.2215219246E+00
   -1.2609423065E+00   -1.2985731866E+00   -1.3343760476E+00   -1.3683190866E+00
   -1.4003747282E+00   -1.4305171718E+00   -1.4587200373E+00   -1.4849541696E+00
   -1.5091856592E+00   -1.5313741338E+00   -1.5514713662E+00   -1.5694202394E+00
   -1.5851541020E+00   -1.5985965375E+00   -1.6096615628E+00   -1.6182542608E+00
   -1.6242718436E+00   -1.6276051311E+00   -1.6281404237E+00   -1.6257617329E+00
   -1.6203533319E+00   -1.6118025741E+00   -1.6000029250E+00   -1.5848571432E+00
   -1.5662805459E+00   -1.5442042859E+00   -1.5185785684E+00   -1.4893757349E+00
   -1.4565931396E+00   -1.4202557505E+00   -1.3804184062E+00   -1.3371676689E+00
   -1.2906232166E+00   -1.2409387289E+00   -1.1883022262E+00   -1.1329358344E+00
   -1.0750949549E+00   -1.0150668335E+00   -9.5316853118E-01   -8.8974431124E-01
   -8.2516246996E-01   -7.5981164756E-01   -6.9409666773E-01   -6.2843396368E-01
   -5.6324665755E-01   -4.9895936806E-01   -4.3599282790E-01   -3.7475839769E-01
   -3.1565256716E-01   -2.5905153631E-01   -2.0530597008E-01   -1.5473601870E-01
   -1.0762669335E-01   -6.4223682140E-02   -2.4729685520E-02    1.0698657354E-02
    4.1953188584E-02    6.8975945267E-02    9.1760125612E-02    1.1035027804E-01
    1.2484169659E-01    1.3537901911E-01    1.4215403791E-01    1.4540274609E-01
    1.4540165554E-01    1.4246343527E-01    1.3693193061E-01    1.2917663439E-01
    1.1958669132E-01    1.0856452477E-01    9.6519182379E-02    8.3859502006E-02
    7.0987203265E-02    5.8290011542E-02    4.6134931137E-02    3.4861690481E-02
    2.4781820946E-02    1.6175588161E-02    9.2547618452E-03    4.1840260523E-03
    1.0723167158E-03    5.8871113379E-06    6.9206829990E-06   -3.8364706504E-07
    0.0000000000E+00    0.0000000000E+00    0.0000000000E+00    0.0000000000E+00
    0.0000000000E+00    0.0000000000E+00    0.0000000000E+00    0.0000000000E+00
    0.0000000000E+00    0.0000000000E+00    0.0000000000E+00    0.0000000000E+00
    0.0000000000E+00    0.0000000000E+00    0.0000000000E+00    0.0000000000E+00
 0. 0. 0. 0.
 0. 0. 0. 0.
 0. 0. 0. 0.
 0. 0. 0. 0.
 0. 0. 0. 0.
 0. 0. 0. 0.
 0. 0. 0. 0.
 0. 0. 0. 0.
 0. 0. 0. 0.
 0. 0. 0. 0.
 0. 0. 0. 0.
 0. 0. 0. 0.
 0. 0. 0. 0.
 0. 0. 0. 0.
 0. 0. 0. 0.
 0. 0. 0. 0.
 0. 0. 0. 0.
 0. 0. 0. 0.
 0. 0. 0. 0.
 0. 0. 0. 0.
 0. 0. 0. 0.
 0. 0. 0. 0.
 0. 0. 0. 0.
 0. 0. 0. 0.
 0. 0. 0. 0.
 0. 0. 0. 0.
 0. 0. 0. 0.
 0. 0. 0. 0.
 0. 0. 0. 0.
 0. 0. 0. 0.
 0. 0. 0. 0.
 0. 0. 0. 0.
 0. 0. 0. 0.
 0. 0. 0. 0.
 0. 0. 0. 0.
 0. 0. 0. 0.
 0. 0. 0. 0.
 0. 0. 0. 0.
 0. 0. 0. 0.
 0. 0. 0. 0.
 0. 0. 0. 0.
 0. 0. 0. 0.
 0. 0. 0. 0.
 0. 0. 0. 0.
 0. 0. 0. 0.
 0. 0. 0. 0.
 0. 0. 0. 0.
 0. 0. 0. 0.
 0. 0. 0. 0.
 0. 0. 0. 0.
 0. 0. 0. 0.
 0. 0. 0. 0.
 0. 0. 0. 0.
 0. 0. 0. 0.
 0. 0. 0. 0.
 0. 0. 0. 0.
 0. 0. 0. 0.
 0. 0. 0. 0.
 0. 0. 0. 0.
 0. 0. 0. 0.
 0. 0. 0. 0.
 0. 0. 0. 0.
 0. 0. 0. 0.
 0. 0. 0. 0.
 0. 0. 0. 0.
 0. 0. 0. 0.
 0. 0. 0. 0.
 0. 0. 0. 0.
 0. 0. 0. 0.
 0. 0. 0. 0.
 0. 0. 0. 0.
 0. 0. 0. 0.
 0. 0. 0. 0.
 0. 0. 0. 0.
 0. 0. 0. 0.
 0. 0. 0. 0.
 0. 0. 0. 0.
 0. 0. 0. 0.
 0. 0. 0. 0.
 0. 0. 0. 0.
 0. 0. 0. 0.
 0. 0. 0. 0.
 0. 0. 0. 0.
 0. 0. 0. 0.
 0. 0. 0. 0.
 0. 0. 0. 0.
 0. 0. 0. 0.
 0. 0. 0. 0.
 0. 0. 0. 0.
 0. 0. 0. 0.
 0. 0. 0. 0.
 0. 0. 0. 0.
 0. 0. 0. 0.
 0. 0. 0. 0.
 0. 0. 0. 0.
 0. 0. 0. 0.
 0. 0. 0. 0.
 0. 0. 0. 0.
 0. 0. 0. 0.
 0. 0. 0. 0.
 0. 0. 0. 0.
 0. 0. 0. 0.
 0. 0. 0. 0.
 0. 0. 0. 0.
 0. 0. 0. 0.
 0. 0. 0. 0.
 0. 0. 0. 0.
 0. 0. 0. 0.
 0. 0. 0. 0.
 0. 0. 0. 0.
 0. 0. 0. 0.
 0. 0. 0. 0.
 0. 0. 0. 0.
 0. 0. 0. 0.
 0. 0. 0. 0.
 0. 0. 0. 0.
 0. 0. 0. 0.
 0. 0. 0. 0.
 0. 0. 0. 0.
 0. 0. 0. 0.
 0. 0. 0. 0.
 0. 0. 0. 0.
 0. 0. 0. 0.
 0. 0. 0. 0.
 0. 0. 0. 0.
 0. 0. 0. 0.
 0. 0. 0. 0.
 0. 0. 0. 0.
 0. 0. 0. 0.
 0. 0. 0. 0.
 0. 0. 0. 0.
 0. 0. 0. 0.
 0. 0. 0. 0.
 0. 0. 0. 0.
 0. 0. 0. 0.
 0. 0. 0. 0.
 0. 0. 0. 0.
 0. 0. 0. 0.
 0. 0. 0. 0.
 0. 0. 0. 0.
 0. 0. 0. 0.
 0. 0. 0. 0.
 0. 0. 0. 0.
 0. 0. 0. 0.
 0. 0. 0. 0.
 0. 0. 0. 0.
 0. 0. 0. 0.
 0. 0. 0. 0.
 0. 0. 0. 0.
 0. 0. 0. 0.
   </PP_BETA.3>
   <PP_DIJ type="real"  size="   9" columns="4">
   -6.9994394299E+00    0.0000000000E+00    0.0000000000E+00    0.0000000000E+00
   -1.6332341888E+00    0.0000000000E+00    0.0000000000E+00    0.0000000000E+00
   -1.5079379750E+00
   </PP_DIJ>
 </PP_NONLOCAL>
 <PP_PSWFC>
   <PP_CHI.1
       type="real"
       size=" 732"
       columns="4"
       index="1"
       occupation=" 2.000"
       pseudo_energy="   -0.1139162571E+01"
       label="1S"
       l="0" >
   -3.5345087968E-11    2.8845922497E-02    5.7660107799E-02    8.6410901635E-02
    1.1506681506E-01    1.4359660580E-01    1.7196935807E-01    2.0015456033E-01
    2.2812218063E-01    2.5584273906E-01    2.8328737697E-01    3.1042792277E-01
    3.3723695384E-01    3.6368785462E-01    3.8975487060E-01    4.1541315810E-01
    4.4063883000E-01    4.6540899723E-01    4.8970180634E-01    5.1349647301E-01
    5.3677331190E-01    5.5951376278E-01    5.8170041336E-01    6.0331701886E-01
    6.2434851860E-01    6.4478104977E-01    6.6460195866E-01    6.8379980934E-01
    7.0236439011E-01    7.2028671778E-01    7.3755903972E-01    7.5417483397E-01
    7.7012880717E-01    7.8541689042E-01    8.0003623302E-01    8.1398519381E-01
    8.2726333027E-01    8.3987138497E-01    8.5181126940E-01    8.6308604485E-01
    8.7369990039E-01    8.8365812761E-01    8.9296709203E-01    9.0163420115E-01
    9.0966786899E-01    9.1707747709E-01    9.2387333198E-01    9.3006661927E-01
    9.3566935429E-01    9.4069432962E-01    9.4515505971E-01    9.4906572276E-01
    9.5244110038E-01    9.5529651519E-01    9.5764776708E-01    9.5951106832E-01
    9.6090297816E-01    9.6184033749E-01    9.6234020395E-01    9.6241978808E-01
    9.6209639112E-01    9.6138734481E-01    9.6030995378E-01    9.5888144085E-01
    9.5711889576E-01    9.5503922750E-01    9.5265912062E-01    9.4999499564E-01
    9.4706297372E-01    9.4387884557E-01    9.4045804466E-01    9.3681562457E-01
    9.3296624030E-01    9.2892413331E-01    9.2470312010E-01    9.2031658379E-01
    9.1577746851E-01    9.1109827609E-01    9.0629106466E-01    9.0136744875E-01
    8.9633860038E-01    8.9121525086E-01    8.8600769282E-01    8.8072578215E-01
    8.7537893965E-01    8.6997615199E-01    8.6452597195E-01    8.5903651775E-01
    8.5351547147E-01    8.4797007661E-01    8.4240713479E-01    8.3683300191E-01
    8.3125358391E-01    8.2567433232E-01    8.2010024023E-01    8.1453583864E-01
    8.0898519398E-01    8.0345190688E-01    7.9793911283E-01    7.9244948500E-01
    7.8698523961E-01    7.8154814429E-01    7.7613952952E-01    7.7076030363E-01
    7.6541097124E-01    7.6009165555E-01    7.5480212417E-01    7.4954181867E-01
    7.4430988752E-01    7.3910522227E-01    7.3392649655E-01    7.2877220757E-01
    7.2364071952E-01    7.1853030846E-01    7.1343920796E-01    7.0836565492E-01
    7.0330793484E-01    6.9826442595E-01    6.9323364133E-01    6.8821426852E-01
    6.8320520584E-01    6.7820559468E-01    6.7321484759E-01    6.6823267165E-01
    6.6325908645E-01    6.5829443653E-01    6.5333938492E-01    6.4839478381E-01
    6.4346147194E-01    6.3854025700E-01    6.3363191557E-01    6.2873719432E-01
    6.2385681087E-01    6.1899145469E-01    6.1414178795E-01    6.0930844636E-01
    6.0449203999E-01    5.9969315400E-01    5.9491234942E-01    5.9015016387E-01
    5.8540711228E-01    5.8068368753E-01    5.7598036116E-01    5.7129758395E-01
    5.6663578658E-01    5.6199538022E-01    5.5737675709E-01    5.5278029105E-01
    5.4820633810E-01    5.4365523695E-01    5.3912730951E-01    5.3462286139E-01
    5.3014218236E-01    5.2568554685E-01    5.2125321437E-01    5.1684542997E-01
    5.1246242465E-01    5.0810441578E-01    5.0377160749E-01    4.9946419109E-01
    4.9518234541E-01    4.9092623718E-01    4.8669602141E-01    4.8249184171E-01
    4.7831383063E-01    4.7416210999E-01    4.7003679124E-01    4.6593797569E-01
    4.6186575490E-01    4.5782021091E-01    4.5380141655E-01    4.4980943575E-01
    4.4584432376E-01    4.4190612744E-01    4.3799488554E-01    4.3411062891E-01
    4.3025338079E-01    4.2642315702E-01    4.2261996629E-01    4.1884381034E-01
    4.1509468424E-01    4.1137257656E-01    4.0767746958E-01    4.0400933955E-01
    4.0036815681E-01    3.9675388609E-01    3.9316648659E-01    3.8960591227E-01
    3.8607211196E-01    3.8256502960E-01    3.7908460436E-01    3.7563077083E-01
    3.7220345922E-01    3.6880259548E-01    3.6542810147E-01    3.6207989513E-01
    3.5875789063E-01    3.5546199849E-01    3.5219212576E-01    3.4894817613E-01
    3.4573005012E-01    3.4253764513E-01    3.3937085564E-01    3.3622957334E-01
    3.3311368718E-01    3.3002308359E-01    3.2695764651E-01    3.2391725758E-01
    3.2090179619E-01    3.1791113963E-01    3.1494516317E-01    3.1200374020E-01
    3.0908674227E-01    3.0619403926E-01    3.0332549943E-01    3.0048098950E-01
    2.9766037480E-01    2.9486351928E-01    2.9209028568E-01    2.8934053552E-01
    2.8661412927E-01    2.8391092636E-01    2.8123078530E-01    2.7857356372E-01
    2.7593911845E-01    2.7332730561E-01    2.7073798067E-01    2.6817099848E-01
    2.6562621338E-01    2.6310347922E-01    2.6060264945E-01    2.5812357716E-01
    2.5566611515E-01    2.5323011595E-01    2.5081543192E-01    2.4842191524E-01
    2.4604941801E-01    2.4369779227E-01    2.4136689005E-01    2.3905656342E-01
    2.3676666450E-01    2.3449704554E-01    2.3224755894E-01    2.3001805727E-01
    2.2780839334E-01    2.2561842021E-01    2.2344799121E-01    2.2129696001E-01
    2.1916518062E-01    2.1705250742E-01    2.1495879519E-01    2.1288389914E-01
    2.1082767495E-01    2.0878997876E-01    2.0677066720E-01    2.0476959744E-01
    2.0278662718E-01    2.0082161468E-01    1.9887441878E-01    1.9694489893E-01
    1.9503291516E-01    1.9313832816E-01    1.9126099924E-01    1.8940079038E-01
    1.8755756423E-01    1.8573118412E-01    1.8392151406E-01    1.8212841879E-01
    1.8035176375E-01    1.7859141510E-01    1.7684723975E-01    1.7511910534E-01
    1.7340688026E-01    1.7171043366E-01    1.7002963545E-01    1.6836435632E-01
    1.6671446771E-01    1.6507984187E-01    1.6346035181E-01    1.6185587134E-01
    1.6026627506E-01    1.5869143835E-01    1.5713123742E-01    1.5558554926E-01
    1.5405425165E-01    1.5253722319E-01    1.5103434329E-01    1.4954549215E-01
    1.4807055078E-01    1.4660940100E-01    1.4516192545E-01    1.4372800756E-01
    1.4230753156E-01    1.4090038250E-01    1.3950644624E-01    1.3812560943E-01
    1.3675775953E-01    1.3540278479E-01    1.3406057428E-01    1.3273101783E-01
    1.3141400612E-01    1.3010943057E-01    1.2881718342E-01    1.2753715769E-01
    1.2626924719E-01    1.2501334650E-01    1.2376935100E-01    1.2253715682E-01
    1.2131666090E-01    1.2010776090E-01    1.1891035530E-01    1.1772434331E-01
    1.1654962491E-01    1.1538610084E-01    1.1423367258E-01    1.1309224238E-01
    1.1196171322E-01    1.1084198883E-01    1.0973297367E-01    1.0863457294E-01
    1.0754669257E-01    1.0646923922E-01    1.0540212027E-01    1.0434524381E-01
    1.0329851866E-01    1.0226185433E-01    1.0123516105E-01    1.0021834977E-01
    9.9211332093E-02    9.8214020357E-02    9.7226327571E-02    9.6248167433E-02
    9.5279454325E-02    9.4320103303E-02    9.3370030099E-02    9.2429151113E-02
    9.1497383410E-02    9.0574644717E-02    8.9660853417E-02    8.8755928546E-02
    8.7859789787E-02    8.6972357471E-02    8.6093552564E-02    8.5223296674E-02
    8.4361512036E-02    8.3508121517E-02    8.2663048606E-02    8.1826217411E-02
    8.0997552657E-02    8.0176979682E-02    7.9364424429E-02    7.8559813446E-02
    7.7763073883E-02    7.6974133482E-02    7.6192920579E-02    7.5419364098E-02
    7.4653393545E-02    7.3894939010E-02    7.3143931154E-02    7.2400301215E-02
    7.1663980996E-02    7.0934902867E-02    7.0212999757E-02    6.9498205152E-02
    6.8790453094E-02    6.8089678170E-02    6.7395815517E-02    6.6708800809E-02
    6.6028570263E-02    6.5355060628E-02    6.4688209184E-02    6.4027953738E-02
    6.3374232621E-02    6.2726984683E-02    6.2086149292E-02    6.1451666327E-02
    6.0823476177E-02    6.0201519735E-02    5.9585738398E-02    5.8976074061E-02
    5.8372469112E-02    5.7774866432E-02    5.7183209391E-02    5.6597441842E-02
    5.6017508119E-02    5.5443353034E-02    5.4874921874E-02    5.4312160396E-02
    5.3755014826E-02    5.3203431851E-02    5.2657358621E-02    5.2116742745E-02
    5.1581532283E-02    5.1051675748E-02    5.0527122100E-02    5.0007820743E-02
    4.9493721523E-02    4.8984774724E-02    4.8480931064E-02    4.7982141692E-02
    4.7488358187E-02    4.6999532552E-02    4.6515617213E-02    4.6036565014E-02
    4.5562329216E-02    4.5092863492E-02    4.4628121924E-02    4.4168059002E-02
    4.3712629619E-02    4.3261789068E-02    4.2815493041E-02    4.2373697623E-02
    4.1936359291E-02    4.1503434911E-02    4.1074881735E-02    4.0650657396E-02
    4.0230719908E-02    3.9815027663E-02    3.9403539425E-02    3.8996214329E-02
    3.8593011881E-02    3.8193891949E-02    3.7798814765E-02    3.7407740923E-02
    3.7020631369E-02    3.6637447409E-02    3.6258150695E-02    3.5882703231E-02
    3.5511067367E-02    3.5143205794E-02    3.4779081546E-02    3.4418657993E-02
    3.4061898841E-02    3.3708768127E-02    3.3359230221E-02    3.3013249817E-02
    3.2670791935E-02    3.2331821917E-02    3.1996305424E-02    3.1664208435E-02
    3.1335497240E-02    3.1010138445E-02    3.0688098963E-02    3.0369346013E-02
    3.0053847119E-02    2.9741570107E-02    2.9432483102E-02    2.9126554526E-02
    2.8823753094E-02    2.8524047815E-02    2.8227407985E-02    2.7933803191E-02
    2.7643203300E-02    2.7355578464E-02    2.7070899116E-02    2.6789135963E-02
    2.6510259992E-02    2.6234242459E-02    2.5961054893E-02    2.5690669092E-02
    2.5423057117E-02    2.5158191297E-02    2.4896044220E-02    2.4636588734E-02
    2.4379797946E-02    2.4125645215E-02    2.3874104156E-02    2.3625148634E-02
    2.3378752760E-02    2.3134890896E-02    2.2893537645E-02    2.2654667853E-02
    2.2418256606E-02    2.2184279231E-02    2.1952711286E-02    2.1723528567E-02
    2.1496707101E-02    2.1272223143E-02    2.1050053180E-02    2.0830173920E-02
    2.0612562298E-02    2.0397195472E-02    2.0184050817E-02    1.9973105929E-02
    1.9764338617E-02    1.9557726908E-02    1.9353249038E-02    1.9150883456E-02
    1.8950608819E-02    1.8752403990E-02    1.8556248038E-02    1.8362120233E-02
    1.8170000050E-02    1.7979867160E-02    1.7791701434E-02    1.7605482938E-02
    1.7421191932E-02    1.7238808869E-02    1.7058314392E-02    1.6879689334E-02
    1.6702914714E-02    1.6527971738E-02    1.6354841795E-02    1.6183506457E-02
    1.6013947475E-02    1.5846146781E-02    1.5680086482E-02    1.5515748863E-02
    1.5353116382E-02    1.5192171669E-02    1.5032897525E-02    1.4875276922E-02
    1.4719292997E-02    1.4564929056E-02    1.4412168568E-02    1.4260995165E-02
    1.4111392642E-02    1.3963344953E-02    1.3816836211E-02    1.3671850687E-02
    1.3528372807E-02    1.3386387150E-02    1.3245878451E-02    1.3106831595E-02
    1.2969231615E-02    1.2833063695E-02    1.2698313166E-02    1.2564965505E-02
    1.2433006332E-02    1.2302421411E-02    1.2173196649E-02    1.2045318091E-02
    1.1918771924E-02    1.1793544470E-02    1.1669622190E-02    1.1546991678E-02
    1.1425639664E-02    1.1305553008E-02    1.1186718705E-02    1.1069123878E-02
    1.0952755779E-02    1.0837601787E-02    1.0723649410E-02    1.0610886279E-02
    1.0499300150E-02    1.0388878902E-02    1.0279610536E-02    1.0171483171E-02
    1.0064485050E-02    9.9586045303E-03    9.8538300884E-03    9.7501503162E-03
    9.6475539205E-03    9.5460297221E-03    9.4455666542E-03    9.3461537619E-03
    9.2477802006E-03    9.1504352354E-03    9.0541082397E-03    8.9587886943E-03
    8.8644661863E-03    8.7711304080E-03    8.6787711561E-03    8.5873783307E-03
    8.4969419338E-03    8.4074520690E-03    8.3188989400E-03    8.2312728500E-03
    8.1445642002E-03    8.0587634895E-03    7.9738613131E-03    7.8898483617E-03
    7.8067154205E-03    7.7244533685E-03    7.6430531774E-03    7.5625059104E-03
    7.4828027219E-03    7.4039348563E-03    7.3258936470E-03    7.2486705158E-03
    7.1722569718E-03    7.0966446107E-03    7.0218251137E-03    6.9477902471E-03
    6.8745318610E-03    6.8020418888E-03    6.7303123462E-03    6.6593353303E-03
    6.5891030191E-03    6.5196076706E-03    6.4508416218E-03    6.3827972880E-03
    6.3154671622E-03    6.2488438142E-03    6.1829198899E-03    6.1176881103E-03
    6.0531412713E-03    5.9892722421E-03    5.9260739655E-03    5.8635394563E-03
    5.8016618011E-03    5.7404341573E-03    5.6798497526E-03    5.6199018842E-03
    5.5605839180E-03    5.5018892881E-03    5.4438114962E-03    5.3863441104E-03
    5.3294807653E-03    5.2732151608E-03    5.2175410614E-03    5.1624522960E-03
    5.1079427569E-03    5.0540063993E-03    5.0006372405E-03    4.9478293596E-03
    4.8955768964E-03    4.8438740515E-03    4.7927150848E-03    4.7420943158E-03
    4.6920061221E-03    4.6424449398E-03    4.5934052620E-03    4.5448816388E-03
    4.4968686765E-03    4.4493610371E-03    4.4023534378E-03    4.3558406500E-03
    4.3098174997E-03    4.2642788658E-03    4.2192196805E-03    4.1746349282E-03
    4.1305196453E-03    4.0868689195E-03    4.0436778891E-03    4.0009417429E-03
    3.9586557197E-03    3.9168151071E-03    3.8754152418E-03    3.8344515088E-03
    3.7939193409E-03    3.7538142180E-03    3.7141316670E-03    3.6748672613E-03
    3.6360166199E-03    3.5975754075E-03    3.5595393335E-03    3.5219041519E-03
    3.4846656610E-03    3.4478197023E-03    3.4113621607E-03    3.3752889637E-03
    3.3395960812E-03    3.3042795249E-03    3.2693353480E-03    3.2347596444E-03
    3.2005485490E-03    3.1666982366E-03    3.1332049219E-03    3.1000648588E-03
    3.0672743402E-03    3.0348296977E-03    3.0027273009E-03    2.9709635572E-03
    2.9395349114E-03    2.9084378453E-03    2.8776688774E-03    2.8472245622E-03
    2.8171014903E-03    2.7872962877E-03    2.7578056156E-03    2.7286261700E-03
    2.6997546812E-03    2.6711879137E-03    2.6429226656E-03    2.6149557685E-03
    2.5872840870E-03    2.5599045184E-03    2.5328139922E-03    2.5060094701E-03
    2.4794879455E-03    2.4532464430E-03    2.4272820184E-03    2.4015917582E-03
    2.3761727794E-03    2.3510222287E-03    2.3261372831E-03    2.3015151489E-03
    2.2771530613E-03    2.2530482848E-03    2.2291981121E-03    2.2055998646E-03
    2.1822508912E-03    2.1591485690E-03    2.1362903021E-03    2.1136735220E-03
    2.0912956869E-03    2.0691542817E-03    2.0472468174E-03    2.0255708313E-03
    2.0041238864E-03    1.9829035709E-03    1.9619074986E-03    1.9411333080E-03
    1.9205786626E-03    1.9002412501E-03    1.8801187825E-03    1.8602089957E-03
    1.8405096493E-03    1.8210185266E-03    1.8017334338E-03    1.7826522002E-03
    1.7637726778E-03    1.7450927411E-03    1.7266102871E-03    1.7083232344E-03
    1.6902295238E-03    1.6723271175E-03    1.6546139991E-03    1.6370881732E-03
    1.6197476656E-03    1.6025905226E-03    1.5856148110E-03    1.5688186180E-03
    1.5522000506E-03    1.5357572359E-03    1.5194883205E-03    1.5033914707E-03
    1.4874648716E-03    1.4717067278E-03    1.4561152624E-03    1.4406887173E-03
   </PP_CHI.1>
 </PP_PSWFC>
 <PP_RHOATOM type="real"  size=" 732" columns="4">
    0.0000000000E+00    1.6641744894E-03    6.6493760629E-03    1.4933687843E-02
    2.6480743855E-02    4.1239970394E-02    5.9146920227E-02    8.0123696040E-02
    1.0407945859E-01    1.3091101426E-01    1.6050347590E-01    1.9273099047E-01
    2.2745752607E-01    2.6453771120E-01    3.0381771832E-01    3.4513618385E-01
    3.8832515700E-01    4.3321106940E-01    4.7961571826E-01    5.2735725559E-01
    5.7625117673E-01    6.2611130148E-01    6.7675074181E-01    7.2798285049E-01
    7.7962214535E-01    8.3148520429E-01    8.8339152691E-01    9.3516435849E-01
    9.8663147299E-01    1.0376259116E+00    1.0879866741E+00    1.1375593604E+00
    1.1861967593E+00    1.2337593835E+00    1.2801159483E+00    1.3251437915E+00
    1.3687292352E+00    1.4107678866E+00    1.4511648773E+00    1.4898350416E+00
    1.5267030319E+00    1.5617033730E+00    1.5947804549E+00    1.6258884654E+00
    1.6549912638E+00    1.6820621980E+00    1.7070838671E+00    1.7300478326E+00
    1.7509542811E+00    1.7698116435E+00    1.7866361738E+00    1.8014514922E+00
    1.8142880994E+00    1.8251828639E+00    1.8341784916E+00    1.8413229804E+00
    1.8466690669E+00    1.8502736697E+00    1.8521973363E+00    1.8525036970E+00
    1.8512589316E+00    1.8485312535E+00    1.8443904147E+00    1.8389072352E+00
    1.8321531612E+00    1.8241998521E+00    1.8151188002E+00    1.8049809835E+00
    1.7938565524E+00    1.7818145502E+00    1.7689226675E+00    1.7552470289E+00
    1.7408520111E+00    1.7258000909E+00    1.7101517207E+00    1.6939652288E+00
    1.6772967437E+00    1.6602001374E+00    1.6427269878E+00    1.6249265553E+00
    1.6068457731E+00    1.5885292467E+00    1.5700192635E+00    1.5513558067E+00
    1.5325765760E+00    1.5137170101E+00    1.4948103124E+00    1.4758874776E+00
    1.4569773201E+00    1.4381065016E+00    1.4192995615E+00    1.4005789462E+00
    1.3819650415E+00    1.3634762061E+00    1.3451288080E+00    1.3269372649E+00
    1.3089140882E+00    1.2910699334E+00    1.2734136556E+00    1.2559523725E+00
    1.2386915347E+00    1.2216350037E+00    1.2047851386E+00    1.1881428913E+00
    1.1717079098E+00    1.1554786497E+00    1.1394524933E+00    1.1236258759E+00
    1.1079944173E+00    1.0925530592E+00    1.0772962047E+00    1.0622178610E+00
    1.0473117819E+00    1.0325716083E+00    1.0179910069E+00    1.0035638021E+00
    9.8928410242E-01    9.7514641710E-01    9.6114576294E-01    9.4727775880E-01
    9.3353870656E-01    9.1992565730E-01    9.0643646202E-01    8.9306980691E-01
    8.7982523151E-01    8.6670313034E-01    8.5370470376E-01    8.4083159134E-01
    8.2808533175E-01    8.1546731962E-01    8.0297880887E-01    7.9062091905E-01
    7.7839464094E-01    7.6630084195E-01    7.5434027140E-01    7.4251356562E-01
    7.3082125283E-01    7.1926375791E-01    7.0784140698E-01    6.9655443184E-01
    6.8540297422E-01    6.7438708994E-01    6.6350675288E-01    6.5276185885E-01
    6.4215222926E-01    6.3167761477E-01    6.2133769869E-01    6.1113210034E-01
    6.0106037826E-01    5.9112203333E-01    5.8131651173E-01    5.7164320784E-01
    5.6210146704E-01    5.5269058833E-01    5.4340982698E-01    5.3425839696E-01
    5.2523547335E-01    5.1634019466E-01    5.0757166503E-01    4.9892895636E-01
    4.9041111041E-01    4.8201714071E-01    4.7374603452E-01    4.6559675463E-01
    4.5756824114E-01    4.4965941311E-01    4.4186917023E-01    4.3419639438E-01
    4.2663995110E-01    4.1919869103E-01    4.1187145133E-01    4.0465705698E-01
    3.9755432205E-01    3.9056205094E-01    3.8367903951E-01    3.7690407627E-01
    3.7023594337E-01    3.6367341769E-01    3.5721527181E-01    3.5086027493E-01
    3.4460719378E-01    3.3845479349E-01    3.3240183841E-01    3.2644709288E-01
    3.2058932198E-01    3.1482729225E-01    3.0915977235E-01    3.0358553375E-01
    2.9810335127E-01    2.9271200375E-01    2.8741027452E-01    2.8219695199E-01
    2.7707083011E-01    2.7203070886E-01    2.6707539469E-01    2.6220370092E-01
    2.5741444818E-01    2.5270646474E-01    2.4807858689E-01    2.4352965925E-01
    2.3905853511E-01    2.3466407666E-01    2.3034515532E-01    2.2610065197E-01
    2.2192945718E-01    2.1783047140E-01    2.1380260523E-01    2.0984477952E-01
    2.0595592560E-01    2.0213498540E-01    1.9838091161E-01    1.9469266779E-01
    1.9106922850E-01    1.8750957936E-01    1.8401271721E-01    1.8057765010E-01
    1.7720339745E-01    1.7388899001E-01    1.7063346997E-01    1.6743589099E-01
    1.6429531820E-01    1.6121082822E-01    1.5818150920E-01    1.5520646080E-01
    1.5228479418E-01    1.4941563199E-01    1.4659810836E-01    1.4383136885E-01
    1.4111457047E-01    1.3844688155E-01    1.3582748180E-01    1.3325556217E-01
    1.3073032487E-01    1.2825098325E-01    1.2581676178E-01    1.2342689594E-01
    1.2108063220E-01    1.1877722792E-01    1.1651595123E-01    1.1429608103E-01
    1.1211690684E-01    1.0997772874E-01    1.0787785727E-01    1.0581661334E-01
    1.0379332815E-01    1.0180734307E-01    9.9858009553E-02    9.7944689023E-02
    9.6066752794E-02    9.4223581953E-02    9.2414567257E-02    9.0639109030E-02
    8.8896617052E-02    8.7186510459E-02    8.5508217628E-02    8.3861176070E-02
    8.2244832324E-02    8.0658641845E-02    7.9102068894E-02    7.7574586428E-02
    7.6075675992E-02    7.4604827607E-02    7.3161539660E-02    7.1745318795E-02
    7.0355679801E-02    6.8992145506E-02    6.7654246668E-02    6.6341521861E-02
    6.5053517373E-02    6.3789787095E-02    6.2549892414E-02    6.1333402109E-02
    6.0139892242E-02    5.8968946055E-02    5.7820153864E-02    5.6693112957E-02
    5.5587427489E-02    5.4502708383E-02    5.3438573227E-02    5.2394646173E-02
    5.1370557840E-02    5.0365945214E-02    4.9380451549E-02    4.8413726276E-02
    4.7465424902E-02    4.6535208918E-02    4.5622745705E-02    4.4727708442E-02
    4.3849776014E-02    4.2988632925E-02    4.2143969201E-02    4.1315480312E-02
    4.0502867076E-02    3.9705835579E-02    3.8924097087E-02    3.8157367963E-02
    3.7405369584E-02    3.6667828259E-02    3.5944475150E-02    3.5235046190E-02
    3.4539282008E-02    3.3856927846E-02    3.3187733488E-02    3.2531453184E-02
    3.1887845571E-02    3.1256673608E-02    3.0637704493E-02    3.0030709605E-02
    2.9435464422E-02    2.8851748458E-02    2.8279345195E-02    2.7718042015E-02
    2.7167630133E-02    2.6627904533E-02    2.6098663902E-02    2.5579710573E-02
    2.5070850455E-02    2.4571892975E-02    2.4082651020E-02    2.3602940876E-02
    2.3132582167E-02    2.2671397802E-02    2.2219213916E-02    2.1775859812E-02
    2.1341167913E-02    2.0914973701E-02    2.0497115667E-02    2.0087435260E-02
    1.9685776831E-02    1.9291987589E-02    1.8905917546E-02    1.8527419469E-02
    1.8156348833E-02    1.7792563774E-02    1.7435925041E-02    1.7086295951E-02
    1.6743542342E-02    1.6407532531E-02    1.6078137271E-02    1.5755229704E-02
    1.5438685323E-02    1.5128381928E-02    1.4824199586E-02    1.4526020592E-02
    1.4233729426E-02    1.3947212719E-02    1.3666359210E-02    1.3391059712E-02
    1.3121207073E-02    1.2856696142E-02    1.2597423730E-02    1.2343288577E-02
    1.2094191319E-02    1.1850034451E-02    1.1610722293E-02    1.1376160962E-02
    1.1146258336E-02    1.0920924022E-02    1.0700069329E-02    1.0483607232E-02
    1.0271452344E-02    1.0063520889E-02    9.8597306697E-03    9.6600010388E-03
    9.4642528738E-03    9.2724085467E-03    9.0843918983E-03    8.9001282108E-03
    8.7195441820E-03    8.5425678994E-03    8.3691288148E-03    8.1991577197E-03
    8.0325867205E-03    7.8693492149E-03    7.7093798679E-03    7.5526145889E-03
    7.3989905085E-03    7.2484459569E-03    7.1009204410E-03    6.9563546232E-03
    6.8146903004E-03    6.6758703825E-03    6.5398388725E-03    6.4065408460E-03
    6.2759224316E-03    6.1479307913E-03    6.0225141014E-03    5.8996215338E-03
    5.7792032378E-03    5.6612103214E-03    5.5455948340E-03    5.4323097487E-03
    5.3213089454E-03    5.2125471934E-03    5.1059801354E-03    5.0015642710E-03
    4.8992569405E-03    4.7990163095E-03    4.7008013536E-03    4.6045718426E-03
    4.5102883265E-03    4.4179121202E-03    4.3274052894E-03    4.2387306366E-03
    4.1518516872E-03    4.0667326758E-03    3.9833385329E-03    3.9016348720E-03
    3.8215879764E-03    3.7431647867E-03    3.6663328887E-03    3.5910605005E-03
    3.5173164611E-03    3.4450702188E-03    3.3742918190E-03    3.3049518934E-03
    3.2370216487E-03    3.1704728556E-03    3.1052778384E-03    3.0414094640E-03
    2.9788411320E-03    2.9175467644E-03    2.8575007953E-03    2.7986781619E-03
    2.7410542940E-03    2.6846051052E-03    2.6293069836E-03    2.5751367824E-03
    2.5220718111E-03    2.4700898270E-03    2.4191690264E-03    2.3692880361E-03
    2.3204259052E-03    2.2725620973E-03    2.2256764818E-03    2.1797493269E-03
    2.1347612913E-03    2.0906934169E-03    2.0475271216E-03    2.0052441916E-03
    1.9638267746E-03    1.9232573728E-03    1.8835188359E-03    1.8445943545E-03
    1.8064674533E-03    1.7691219848E-03    1.7325421231E-03    1.6967123571E-03
    1.6616174848E-03    1.6272426075E-03    1.5935731232E-03    1.5605947214E-03
    1.5282933773E-03    1.4966553462E-03    1.4656671578E-03    1.4353156113E-03
    1.4055877697E-03    1.3764709548E-03    1.3479527424E-03    1.3200209568E-03
    1.2926636664E-03    1.2658691787E-03    1.2396260356E-03    1.2139230089E-03
    1.1887490958E-03    1.1640935141E-03    1.1399456985E-03    1.1162952959E-03
    1.0931321613E-03    1.0704463535E-03    1.0482281318E-03    1.0264679510E-03
    1.0051564585E-03    9.8428448996E-04    9.6384306561E-04    9.4382338682E-04
    9.2421683235E-04    9.0501495492E-04    8.8620947772E-04    8.6779229105E-04
    8.4975544902E-04    8.3209116626E-04    8.1479181480E-04    7.9784992088E-04
    7.8125816195E-04    7.6500936360E-04    7.4909649667E-04    7.3351267433E-04
    7.1825114924E-04    7.0330531082E-04    6.8866868247E-04    6.7433491892E-04
    6.6029780363E-04    6.4655124620E-04    6.3308927985E-04    6.1990605896E-04
    6.0699585666E-04    5.9435306242E-04    5.8197217978E-04    5.6984782400E-04
    5.5797471989E-04    5.4634769956E-04    5.3496170031E-04    5.2381176249E-04
    5.1289302749E-04    5.0220073561E-04    4.9173022419E-04    4.8147692558E-04
    4.7143636528E-04    4.6160416004E-04    4.5197601601E-04    4.4254772700E-04
    4.3331517267E-04    4.2427431681E-04    4.1542120565E-04    4.0675196618E-04
    3.9826280457E-04    3.8995000454E-04    3.8180992576E-04    3.7383900241E-04
    3.6603374159E-04    3.5839072187E-04    3.5090659190E-04    3.4357806890E-04
    3.3640193736E-04    3.2937504761E-04    3.2249431454E-04    3.1575671628E-04
    3.0915929290E-04    3.0269914516E-04    2.9637343331E-04    2.9017937585E-04
    2.8411424836E-04    2.7817538235E-04    2.7236016411E-04    2.6666603362E-04
    2.6109048344E-04    2.5563105765E-04    2.5028535079E-04    2.4505100686E-04
    2.3992571830E-04    2.3490722500E-04    2.2999331335E-04    2.2518181527E-04
    2.2047060730E-04    2.1585760970E-04    2.1134078553E-04    2.0691813981E-04
    2.0258771864E-04    1.9834760838E-04    1.9419593482E-04    1.9013086238E-04
    1.8615059330E-04    1.8225336691E-04    1.7843745884E-04    1.7470118028E-04
    1.7104287728E-04    1.6746093000E-04    1.6395375203E-04    1.6051978974E-04
    1.5715752153E-04    1.5386545727E-04    1.5064213756E-04    1.4748613319E-04
    1.4439604445E-04    1.4137050059E-04    1.3840815915E-04    1.3550770546E-04
    1.3266785202E-04    1.2988733796E-04    1.2716492848E-04    1.2449941434E-04
    1.2188961131E-04    1.1933435969E-04    1.1683252374E-04    1.1438299129E-04
    1.1198467315E-04    1.0963650271E-04    1.0733743545E-04    1.0508644849E-04
    1.0288254014E-04    1.0072472946E-04    9.8612055855E-05    9.6543578635E-05
    9.4518376616E-05    9.2535547714E-05    9.0594208554E-05    8.8693494082E-05
    8.6832557194E-05    8.5010568358E-05    8.3226715258E-05    8.1480202438E-05
    7.9770250953E-05    7.8096098029E-05    7.6456996729E-05    7.4852215631E-05
    7.3281038500E-05    7.1742763980E-05    7.0236705289E-05    6.8762189912E-05
    6.7318559309E-05    6.5905168629E-05    6.4521386425E-05    6.3166594376E-05
    6.1840187018E-05    6.0541571477E-05    5.9270167211E-05    5.8025405752E-05
    5.6806730456E-05    5.5613596263E-05    5.4445469455E-05    5.3301827417E-05
    5.2182158416E-05    5.1085961368E-05    5.0012745623E-05    4.8962030743E-05
    4.7933346298E-05    4.6926231653E-05    4.5940235769E-05    4.4974916999E-05
    4.4029842900E-05    4.3104590038E-05    4.2198743802E-05    4.1311898222E-05
    4.0443655788E-05    3.9593627278E-05    3.8761431582E-05    3.7946695537E-05
    3.7149053761E-05    3.6368148491E-05    3.5603629425E-05    3.4855153568E-05
    3.4122385081E-05    3.3404995130E-05    3.2702661741E-05    3.2015069661E-05
    3.1341910213E-05    3.0682881166E-05    3.0037686593E-05    2.9406036747E-05
    2.8787647930E-05    2.8182242366E-05    2.7589548080E-05    2.7009298776E-05
    2.6441233720E-05    2.5885097625E-05    2.5340640533E-05    2.4807617711E-05
    2.4285789538E-05    2.3774921399E-05    2.3274783582E-05    2.2785151177E-05
    2.2305803971E-05    2.1836526358E-05    2.1377107235E-05    2.0927339914E-05
    2.0487022029E-05    2.0055955444E-05    1.9633946165E-05    1.9220804257E-05
    1.8816343756E-05    1.8420382588E-05    1.8032742487E-05    1.7653248916E-05
    1.7281730991E-05    1.6918021400E-05    1.6561956335E-05    1.6213375415E-05
    1.5872121613E-05    1.5538041190E-05    1.5210983627E-05    1.4890801551E-05
    1.4577350677E-05    1.4270489740E-05    1.3970080433E-05    1.3675987343E-05
    1.3388077894E-05    1.3106222287E-05    1.2830293438E-05    1.2560166928E-05
    1.2295720944E-05    1.2036836220E-05    1.1783395994E-05    1.1535285946E-05
    1.1292394155E-05    1.1054611040E-05    1.0821829320E-05    1.0593943961E-05
    1.0370852129E-05    1.0152453147E-05    9.9386484461E-06    9.7293415250E-06
    9.5244379046E-06    9.3238450859E-06    9.1274725097E-06    8.9352315150E-06
    8.7470353000E-06    8.5627988826E-06    8.3824390628E-06    8.2058743855E-06
    8.0330251037E-06    7.8638131428E-06    7.6981620657E-06    7.5359970389E-06
    7.3772447984E-06    7.2218336170E-06    7.0696932722E-06    6.9207550149E-06
    6.7749515386E-06    6.6322169485E-06    6.4924867328E-06    6.3556977334E-06
    6.2217881176E-06    6.0906973503E-06    5.9623661669E-06    5.8367365465E-06
    5.7137516864E-06    5.5933559759E-06    5.4754949719E-06    5.3601153739E-06
    5.2471650007E-06    5.1365927664E-06    5.0283486580E-06    4.9223837121E-06
    4.8186499938E-06    4.7171005749E-06    4.6176895124E-06    4.5203718280E-06
    4.4251034885E-06    4.3318413851E-06    4.2405433147E-06    4.1511679605E-06
 </PP_RHOATOM>
</UPF>

END_PSP
