Begin PSP_UPF
<UPF version="2.0.1">
  <PP_INFO>

 This pseudopotential file has been produced using the code
 ONCVPSP  (Optimized Norm-Conservinng Vanderbilt PSeudopotential)
 scalar-relativistic version 4.0.1 06/04/2019 by D. R. Hamann
 The code is available through a link at URL www.mat-simresearch.com.
 Documentation with the package provides a full discription of the
 input data below.


 While it is not required under the terms of the GNU GPL, it is
 suggested that you cite D. R. Hamann, Phys. Rev. B 88, 085117 (2013)
 in any publication using these pseudopotentials.

    <PP_INPUTFILE>
# ATOM AND REFERENCE CONFIGURATION
# atsym  z   nc   nv     iexc    psfile
  Pd 46.00    6    3 -116133      upf
#
#   n    l    f        energy (Ha)
    1    0    2.00
    2    0    2.00
    2    1    6.00
    3    0    2.00
    3    1    6.00
    3    2   10.00
    4    0    2.00
    4    1    6.00
    4    2   10.00
#
# PSEUDOPOTENTIAL AND OPTIMIZATION
# lmax
    2
#
#   l,   rc,      ep,       ncon, nbas, qcut
    0   1.96557  -3.13589    4    9   7.68611
    1   1.89964  -1.88153    4    9   6.96719
    2   2.20127  -0.14875    4    8   6.99165
#
# LOCAL POTENTIAL
# lloc, lpopt,  rc(5),   dvloc0
    4    5   1.74275      0.00000
#
# VANDERBILT-KLEINMAN-BYLANDER PROJECTORs
# l, nproj, debl
    0    2   3.01381
    1    2   1.87003
    2    2   1.50000
#
# MODEL CORE CHARGE
# icmod, fcfact, rcfact
    3   7.00000   1.23000
#
# LOG DERIVATIVE ANALYSIS
# epsh1, epsh2, depsh
  -14.00   12.00    0.02
#
# OUTPUT GRID
# rlmax, drl
    6.00    0.01
#
# TEST CONFIGURATIONS
# ncnf
    0
# nvcnf
#   n    l    f
    </PP_INPUTFILE>
  </PP_INFO>
  <!--                               -->
  <!-- END OF HUMAN READABLE SECTION -->
  <!--                               -->
    <PP_HEADER
       generated="Generated using ONCVPSP code by D. R. Hamann"
       author="anonymous"
       date="251029"
       comment=""
       element="Pd"
       pseudo_type="NC"
       relativistic="scalar"
       is_ultrasoft="F"
       is_paw="F"
       is_coulomb="F"
       has_so="F"
       has_wfc="F"
       has_gipaw="F"
       core_correction="T"
       functional="PBESOL"
       z_valence="   18.00"
       total_psenergy="  -2.54275335697E+02"
       rho_cutoff="   1.24300000000E+01"
       l_max="2"
       l_local="-1"
       mesh_size="  1244"
       number_of_wfc="3"
       number_of_proj="6"/>
 <PP_MESH>
   <PP_R type="real"  size="1244" columns="8">
    0.0000    0.0100    0.0200    0.0300    0.0400    0.0500    0.0600    0.0700
    0.0800    0.0900    0.1000    0.1100    0.1200    0.1300    0.1400    0.1500
    0.1600    0.1700    0.1800    0.1900    0.2000    0.2100    0.2200    0.2300
    0.2400    0.2500    0.2600    0.2700    0.2800    0.2900    0.3000    0.3100
    0.3200    0.3300    0.3400    0.3500    0.3600    0.3700    0.3800    0.3900
    0.4000    0.4100    0.4200    0.4300    0.4400    0.4500    0.4600    0.4700
    0.4800    0.4900    0.5000    0.5100    0.5200    0.5300    0.5400    0.5500
    0.5600    0.5700    0.5800    0.5900    0.6000    0.6100    0.6200    0.6300
    0.6400    0.6500    0.6600    0.6700    0.6800    0.6900    0.7000    0.7100
    0.7200    0.7300    0.7400    0.7500    0.7600    0.7700    0.7800    0.7900
    0.8000    0.8100    0.8200    0.8300    0.8400    0.8500    0.8600    0.8700
    0.8800    0.8900    0.9000    0.9100    0.9200    0.9300    0.9400    0.9500
    0.9600    0.9700    0.9800    0.9900    1.0000    1.0100    1.0200    1.0300
    1.0400    1.0500    1.0600    1.0700    1.0800    1.0900    1.1000    1.1100
    1.1200    1.1300    1.1400    1.1500    1.1600    1.1700    1.1800    1.1900
    1.2000    1.2100    1.2200    1.2300    1.2400    1.2500    1.2600    1.2700
    1.2800    1.2900    1.3000    1.3100    1.3200    1.3300    1.3400    1.3500
    1.3600    1.3700    1.3800    1.3900    1.4000    1.4100    1.4200    1.4300
    1.4400    1.4500    1.4600    1.4700    1.4800    1.4900    1.5000    1.5100
    1.5200    1.5300    1.5400    1.5500    1.5600    1.5700    1.5800    1.5900
    1.6000    1.6100    1.6200    1.6300    1.6400    1.6500    1.6600    1.6700
    1.6800    1.6900    1.7000    1.7100    1.7200    1.7300    1.7400    1.7500
    1.7600    1.7700    1.7800    1.7900    1.8000    1.8100    1.8200    1.8300
    1.8400    1.8500    1.8600    1.8700    1.8800    1.8900    1.9000    1.9100
    1.9200    1.9300    1.9400    1.9500    1.9600    1.9700    1.9800    1.9900
    2.0000    2.0100    2.0200    2.0300    2.0400    2.0500    2.0600    2.0700
    2.0800    2.0900    2.1000    2.1100    2.1200    2.1300    2.1400    2.1500
    2.1600    2.1700    2.1800    2.1900    2.2000    2.2100    2.2200    2.2300
    2.2400    2.2500    2.2600    2.2700    2.2800    2.2900    2.3000    2.3100
    2.3200    2.3300    2.3400    2.3500    2.3600    2.3700    2.3800    2.3900
    2.4000    2.4100    2.4200    2.4300    2.4400    2.4500    2.4600    2.4700
    2.4800    2.4900    2.5000    2.5100    2.5200    2.5300    2.5400    2.5500
    2.5600    2.5700    2.5800    2.5900    2.6000    2.6100    2.6200    2.6300
    2.6400    2.6500    2.6600    2.6700    2.6800    2.6900    2.7000    2.7100
    2.7200    2.7300    2.7400    2.7500    2.7600    2.7700    2.7800    2.7900
    2.8000    2.8100    2.8200    2.8300    2.8400    2.8500    2.8600    2.8700
    2.8800    2.8900    2.9000    2.9100    2.9200    2.9300    2.9400    2.9500
    2.9600    2.9700    2.9800    2.9900    3.0000    3.0100    3.0200    3.0300
    3.0400    3.0500    3.0600    3.0700    3.0800    3.0900    3.1000    3.1100
    3.1200    3.1300    3.1400    3.1500    3.1600    3.1700    3.1800    3.1900
    3.2000    3.2100    3.2200    3.2300    3.2400    3.2500    3.2600    3.2700
    3.2800    3.2900    3.3000    3.3100    3.3200    3.3300    3.3400    3.3500
    3.3600    3.3700    3.3800    3.3900    3.4000    3.4100    3.4200    3.4300
    3.4400    3.4500    3.4600    3.4700    3.4800    3.4900    3.5000    3.5100
    3.5200    3.5300    3.5400    3.5500    3.5600    3.5700    3.5800    3.5900
    3.6000    3.6100    3.6200    3.6300    3.6400    3.6500    3.6600    3.6700
    3.6800    3.6900    3.7000    3.7100    3.7200    3.7300    3.7400    3.7500
    3.7600    3.7700    3.7800    3.7900    3.8000    3.8100    3.8200    3.8300
    3.8400    3.8500    3.8600    3.8700    3.8800    3.8900    3.9000    3.9100
    3.9200    3.9300    3.9400    3.9500    3.9600    3.9700    3.9800    3.9900
    4.0000    4.0100    4.0200    4.0300    4.0400    4.0500    4.0600    4.0700
    4.0800    4.0900    4.1000    4.1100    4.1200    4.1300    4.1400    4.1500
    4.1600    4.1700    4.1800    4.1900    4.2000    4.2100    4.2200    4.2300
    4.2400    4.2500    4.2600    4.2700    4.2800    4.2900    4.3000    4.3100
    4.3200    4.3300    4.3400    4.3500    4.3600    4.3700    4.3800    4.3900
    4.4000    4.4100    4.4200    4.4300    4.4400    4.4500    4.4600    4.4700
    4.4800    4.4900    4.5000    4.5100    4.5200    4.5300    4.5400    4.5500
    4.5600    4.5700    4.5800    4.5900    4.6000    4.6100    4.6200    4.6300
    4.6400    4.6500    4.6600    4.6700    4.6800    4.6900    4.7000    4.7100
    4.7200    4.7300    4.7400    4.7500    4.7600    4.7700    4.7800    4.7900
    4.8000    4.8100    4.8200    4.8300    4.8400    4.8500    4.8600    4.8700
    4.8800    4.8900    4.9000    4.9100    4.9200    4.9300    4.9400    4.9500
    4.9600    4.9700    4.9800    4.9900    5.0000    5.0100    5.0200    5.0300
    5.0400    5.0500    5.0600    5.0700    5.0800    5.0900    5.1000    5.1100
    5.1200    5.1300    5.1400    5.1500    5.1600    5.1700    5.1800    5.1900
    5.2000    5.2100    5.2200    5.2300    5.2400    5.2500    5.2600    5.2700
    5.2800    5.2900    5.3000    5.3100    5.3200    5.3300    5.3400    5.3500
    5.3600    5.3700    5.3800    5.3900    5.4000    5.4100    5.4200    5.4300
    5.4400    5.4500    5.4600    5.4700    5.4800    5.4900    5.5000    5.5100
    5.5200    5.5300    5.5400    5.5500    5.5600    5.5700    5.5800    5.5900
    5.6000    5.6100    5.6200    5.6300    5.6400    5.6500    5.6600    5.6700
    5.6800    5.6900    5.7000    5.7100    5.7200    5.7300    5.7400    5.7500
    5.7600    5.7700    5.7800    5.7900    5.8000    5.8100    5.8200    5.8300
    5.8400    5.8500    5.8600    5.8700    5.8800    5.8900    5.9000    5.9100
    5.9200    5.9300    5.9400    5.9500    5.9600    5.9700    5.9800    5.9900
    6.0000    6.0100    6.0200    6.0300    6.0400    6.0500    6.0600    6.0700
    6.0800    6.0900    6.1000    6.1100    6.1200    6.1300    6.1400    6.1500
    6.1600    6.1700    6.1800    6.1900    6.2000    6.2100    6.2200    6.2300
    6.2400    6.2500    6.2600    6.2700    6.2800    6.2900    6.3000    6.3100
    6.3200    6.3300    6.3400    6.3500    6.3600    6.3700    6.3800    6.3900
    6.4000    6.4100    6.4200    6.4300    6.4400    6.4500    6.4600    6.4700
    6.4800    6.4900    6.5000    6.5100    6.5200    6.5300    6.5400    6.5500
    6.5600    6.5700    6.5800    6.5900    6.6000    6.6100    6.6200    6.6300
    6.6400    6.6500    6.6600    6.6700    6.6800    6.6900    6.7000    6.7100
    6.7200    6.7300    6.7400    6.7500    6.7600    6.7700    6.7800    6.7900
    6.8000    6.8100    6.8200    6.8300    6.8400    6.8500    6.8600    6.8700
    6.8800    6.8900    6.9000    6.9100    6.9200    6.9300    6.9400    6.9500
    6.9600    6.9700    6.9800    6.9900    7.0000    7.0100    7.0200    7.0300
    7.0400    7.0500    7.0600    7.0700    7.0800    7.0900    7.1000    7.1100
    7.1200    7.1300    7.1400    7.1500    7.1600    7.1700    7.1800    7.1900
    7.2000    7.2100    7.2200    7.2300    7.2400    7.2500    7.2600    7.2700
    7.2800    7.2900    7.3000    7.3100    7.3200    7.3300    7.3400    7.3500
    7.3600    7.3700    7.3800    7.3900    7.4000    7.4100    7.4200    7.4300
    7.4400    7.4500    7.4600    7.4700    7.4800    7.4900    7.5000    7.5100
    7.5200    7.5300    7.5400    7.5500    7.5600    7.5700    7.5800    7.5900
    7.6000    7.6100    7.6200    7.6300    7.6400    7.6500    7.6600    7.6700
    7.6800    7.6900    7.7000    7.7100    7.7200    7.7300    7.7400    7.7500
    7.7600    7.7700    7.7800    7.7900    7.8000    7.8100    7.8200    7.8300
    7.8400    7.8500    7.8600    7.8700    7.8800    7.8900    7.9000    7.9100
    7.9200    7.9300    7.9400    7.9500    7.9600    7.9700    7.9800    7.9900
    8.0000    8.0100    8.0200    8.0300    8.0400    8.0500    8.0600    8.0700
    8.0800    8.0900    8.1000    8.1100    8.1200    8.1300    8.1400    8.1500
    8.1600    8.1700    8.1800    8.1900    8.2000    8.2100    8.2200    8.2300
    8.2400    8.2500    8.2600    8.2700    8.2800    8.2900    8.3000    8.3100
    8.3200    8.3300    8.3400    8.3500    8.3600    8.3700    8.3800    8.3900
    8.4000    8.4100    8.4200    8.4300    8.4400    8.4500    8.4600    8.4700
    8.4800    8.4900    8.5000    8.5100    8.5200    8.5300    8.5400    8.5500
    8.5600    8.5700    8.5800    8.5900    8.6000    8.6100    8.6200    8.6300
    8.6400    8.6500    8.6600    8.6700    8.6800    8.6900    8.7000    8.7100
    8.7200    8.7300    8.7400    8.7500    8.7600    8.7700    8.7800    8.7900
    8.8000    8.8100    8.8200    8.8300    8.8400    8.8500    8.8600    8.8700
    8.8800    8.8900    8.9000    8.9100    8.9200    8.9300    8.9400    8.9500
    8.9600    8.9700    8.9800    8.9900    9.0000    9.0100    9.0200    9.0300
    9.0400    9.0500    9.0600    9.0700    9.0800    9.0900    9.1000    9.1100
    9.1200    9.1300    9.1400    9.1500    9.1600    9.1700    9.1800    9.1900
    9.2000    9.2100    9.2200    9.2300    9.2400    9.2500    9.2600    9.2700
    9.2800    9.2900    9.3000    9.3100    9.3200    9.3300    9.3400    9.3500
    9.3600    9.3700    9.3800    9.3900    9.4000    9.4100    9.4200    9.4300
    9.4400    9.4500    9.4600    9.4700    9.4800    9.4900    9.5000    9.5100
    9.5200    9.5300    9.5400    9.5500    9.5600    9.5700    9.5800    9.5900
    9.6000    9.6100    9.6200    9.6300    9.6400    9.6500    9.6600    9.6700
    9.6800    9.6900    9.7000    9.7100    9.7200    9.7300    9.7400    9.7500
    9.7600    9.7700    9.7800    9.7900    9.8000    9.8100    9.8200    9.8300
    9.8400    9.8500    9.8600    9.8700    9.8800    9.8900    9.9000    9.9100
    9.9200    9.9300    9.9400    9.9500    9.9600    9.9700    9.9800    9.9900
   10.0000   10.0100   10.0200   10.0300   10.0400   10.0500   10.0600   10.0700
   10.0800   10.0900   10.1000   10.1100   10.1200   10.1300   10.1400   10.1500
   10.1600   10.1700   10.1800   10.1900   10.2000   10.2100   10.2200   10.2300
   10.2400   10.2500   10.2600   10.2700   10.2800   10.2900   10.3000   10.3100
   10.3200   10.3300   10.3400   10.3500   10.3600   10.3700   10.3800   10.3900
   10.4000   10.4100   10.4200   10.4300   10.4400   10.4500   10.4600   10.4700
   10.4800   10.4900   10.5000   10.5100   10.5200   10.5300   10.5400   10.5500
   10.5600   10.5700   10.5800   10.5900   10.6000   10.6100   10.6200   10.6300
   10.6400   10.6500   10.6600   10.6700   10.6800   10.6900   10.7000   10.7100
   10.7200   10.7300   10.7400   10.7500   10.7600   10.7700   10.7800   10.7900
   10.8000   10.8100   10.8200   10.8300   10.8400   10.8500   10.8600   10.8700
   10.8800   10.8900   10.9000   10.9100   10.9200   10.9300   10.9400   10.9500
   10.9600   10.9700   10.9800   10.9900   11.0000   11.0100   11.0200   11.0300
   11.0400   11.0500   11.0600   11.0700   11.0800   11.0900   11.1000   11.1100
   11.1200   11.1300   11.1400   11.1500   11.1600   11.1700   11.1800   11.1900
   11.2000   11.2100   11.2200   11.2300   11.2400   11.2500   11.2600   11.2700
   11.2800   11.2900   11.3000   11.3100   11.3200   11.3300   11.3400   11.3500
   11.3600   11.3700   11.3800   11.3900   11.4000   11.4100   11.4200   11.4300
   11.4400   11.4500   11.4600   11.4700   11.4800   11.4900   11.5000   11.5100
   11.5200   11.5300   11.5400   11.5500   11.5600   11.5700   11.5800   11.5900
   11.6000   11.6100   11.6200   11.6300   11.6400   11.6500   11.6600   11.6700
   11.6800   11.6900   11.7000   11.7100   11.7200   11.7300   11.7400   11.7500
   11.7600   11.7700   11.7800   11.7900   11.8000   11.8100   11.8200   11.8300
   11.8400   11.8500   11.8600   11.8700   11.8800   11.8900   11.9000   11.9100
   11.9200   11.9300   11.9400   11.9500   11.9600   11.9700   11.9800   11.9900
   12.0000   12.0100   12.0200   12.0300   12.0400   12.0500   12.0600   12.0700
   12.0800   12.0900   12.1000   12.1100   12.1200   12.1300   12.1400   12.1500
   12.1600   12.1700   12.1800   12.1900   12.2000   12.2100   12.2200   12.2300
   12.2400   12.2500   12.2600   12.2700   12.2800   12.2900   12.3000   12.3100
   12.3200   12.3300   12.3400   12.3500   12.3600   12.3700   12.3800   12.3900
   12.4000   12.4100   12.4200   12.4300
   </PP_R>
   <PP_RAB type="real"  size="1244" columns="8">
    0.0100    0.0100    0.0100    0.0100    0.0100    0.0100    0.0100    0.0100
    0.0100    0.0100    0.0100    0.0100    0.0100    0.0100    0.0100    0.0100
    0.0100    0.0100    0.0100    0.0100    0.0100    0.0100    0.0100    0.0100
    0.0100    0.0100    0.0100    0.0100    0.0100    0.0100    0.0100    0.0100
    0.0100    0.0100    0.0100    0.0100    0.0100    0.0100    0.0100    0.0100
    0.0100    0.0100    0.0100    0.0100    0.0100    0.0100    0.0100    0.0100
    0.0100    0.0100    0.0100    0.0100    0.0100    0.0100    0.0100    0.0100
    0.0100    0.0100    0.0100    0.0100    0.0100    0.0100    0.0100    0.0100
    0.0100    0.0100    0.0100    0.0100    0.0100    0.0100    0.0100    0.0100
    0.0100    0.0100    0.0100    0.0100    0.0100    0.0100    0.0100    0.0100
    0.0100    0.0100    0.0100    0.0100    0.0100    0.0100    0.0100    0.0100
    0.0100    0.0100    0.0100    0.0100    0.0100    0.0100    0.0100    0.0100
    0.0100    0.0100    0.0100    0.0100    0.0100    0.0100    0.0100    0.0100
    0.0100    0.0100    0.0100    0.0100    0.0100    0.0100    0.0100    0.0100
    0.0100    0.0100    0.0100    0.0100    0.0100    0.0100    0.0100    0.0100
    0.0100    0.0100    0.0100    0.0100    0.0100    0.0100    0.0100    0.0100
    0.0100    0.0100    0.0100    0.0100    0.0100    0.0100    0.0100    0.0100
    0.0100    0.0100    0.0100    0.0100    0.0100    0.0100    0.0100    0.0100
    0.0100    0.0100    0.0100    0.0100    0.0100    0.0100    0.0100    0.0100
    0.0100    0.0100    0.0100    0.0100    0.0100    0.0100    0.0100    0.0100
    0.0100    0.0100    0.0100    0.0100    0.0100    0.0100    0.0100    0.0100
    0.0100    0.0100    0.0100    0.0100    0.0100    0.0100    0.0100    0.0100
    0.0100    0.0100    0.0100    0.0100    0.0100    0.0100    0.0100    0.0100
    0.0100    0.0100    0.0100    0.0100    0.0100    0.0100    0.0100    0.0100
    0.0100    0.0100    0.0100    0.0100    0.0100    0.0100    0.0100    0.0100
    0.0100    0.0100    0.0100    0.0100    0.0100    0.0100    0.0100    0.0100
    0.0100    0.0100    0.0100    0.0100    0.0100    0.0100    0.0100    0.0100
    0.0100    0.0100    0.0100    0.0100    0.0100    0.0100    0.0100    0.0100
    0.0100    0.0100    0.0100    0.0100    0.0100    0.0100    0.0100    0.0100
    0.0100    0.0100    0.0100    0.0100    0.0100    0.0100    0.0100    0.0100
    0.0100    0.0100    0.0100    0.0100    0.0100    0.0100    0.0100    0.0100
    0.0100    0.0100    0.0100    0.0100    0.0100    0.0100    0.0100    0.0100
    0.0100    0.0100    0.0100    0.0100    0.0100    0.0100    0.0100    0.0100
    0.0100    0.0100    0.0100    0.0100    0.0100    0.0100    0.0100    0.0100
    0.0100    0.0100    0.0100    0.0100    0.0100    0.0100    0.0100    0.0100
    0.0100    0.0100    0.0100    0.0100    0.0100    0.0100    0.0100    0.0100
    0.0100    0.0100    0.0100    0.0100    0.0100    0.0100    0.0100    0.0100
    0.0100    0.0100    0.0100    0.0100    0.0100    0.0100    0.0100    0.0100
    0.0100    0.0100    0.0100    0.0100    0.0100    0.0100    0.0100    0.0100
    0.0100    0.0100    0.0100    0.0100    0.0100    0.0100    0.0100    0.0100
    0.0100    0.0100    0.0100    0.0100    0.0100    0.0100    0.0100    0.0100
    0.0100    0.0100    0.0100    0.0100    0.0100    0.0100    0.0100    0.0100
    0.0100    0.0100    0.0100    0.0100    0.0100    0.0100    0.0100    0.0100
    0.0100    0.0100    0.0100    0.0100    0.0100    0.0100    0.0100    0.0100
    0.0100    0.0100    0.0100    0.0100    0.0100    0.0100    0.0100    0.0100
    0.0100    0.0100    0.0100    0.0100    0.0100    0.0100    0.0100    0.0100
    0.0100    0.0100    0.0100    0.0100    0.0100    0.0100    0.0100    0.0100
    0.0100    0.0100    0.0100    0.0100    0.0100    0.0100    0.0100    0.0100
    0.0100    0.0100    0.0100    0.0100    0.0100    0.0100    0.0100    0.0100
    0.0100    0.0100    0.0100    0.0100    0.0100    0.0100    0.0100    0.0100
    0.0100    0.0100    0.0100    0.0100    0.0100    0.0100    0.0100    0.0100
    0.0100    0.0100    0.0100    0.0100    0.0100    0.0100    0.0100    0.0100
    0.0100    0.0100    0.0100    0.0100    0.0100    0.0100    0.0100    0.0100
    0.0100    0.0100    0.0100    0.0100    0.0100    0.0100    0.0100    0.0100
    0.0100    0.0100    0.0100    0.0100    0.0100    0.0100    0.0100    0.0100
    0.0100    0.0100    0.0100    0.0100    0.0100    0.0100    0.0100    0.0100
    0.0100    0.0100    0.0100    0.0100    0.0100    0.0100    0.0100    0.0100
    0.0100    0.0100    0.0100    0.0100    0.0100    0.0100    0.0100    0.0100
    0.0100    0.0100    0.0100    0.0100    0.0100    0.0100    0.0100    0.0100
    0.0100    0.0100    0.0100    0.0100    0.0100    0.0100    0.0100    0.0100
    0.0100    0.0100    0.0100    0.0100    0.0100    0.0100    0.0100    0.0100
    0.0100    0.0100    0.0100    0.0100    0.0100    0.0100    0.0100    0.0100
    0.0100    0.0100    0.0100    0.0100    0.0100    0.0100    0.0100    0.0100
    0.0100    0.0100    0.0100    0.0100    0.0100    0.0100    0.0100    0.0100
    0.0100    0.0100    0.0100    0.0100    0.0100    0.0100    0.0100    0.0100
    0.0100    0.0100    0.0100    0.0100    0.0100    0.0100    0.0100    0.0100
    0.0100    0.0100    0.0100    0.0100    0.0100    0.0100    0.0100    0.0100
    0.0100    0.0100    0.0100    0.0100    0.0100    0.0100    0.0100    0.0100
    0.0100    0.0100    0.0100    0.0100    0.0100    0.0100    0.0100    0.0100
    0.0100    0.0100    0.0100    0.0100    0.0100    0.0100    0.0100    0.0100
    0.0100    0.0100    0.0100    0.0100    0.0100    0.0100    0.0100    0.0100
    0.0100    0.0100    0.0100    0.0100    0.0100    0.0100    0.0100    0.0100
    0.0100    0.0100    0.0100    0.0100    0.0100    0.0100    0.0100    0.0100
    0.0100    0.0100    0.0100    0.0100    0.0100    0.0100    0.0100    0.0100
    0.0100    0.0100    0.0100    0.0100    0.0100    0.0100    0.0100    0.0100
    0.0100    0.0100    0.0100    0.0100    0.0100    0.0100    0.0100    0.0100
    0.0100    0.0100    0.0100    0.0100    0.0100    0.0100    0.0100    0.0100
    0.0100    0.0100    0.0100    0.0100    0.0100    0.0100    0.0100    0.0100
    0.0100    0.0100    0.0100    0.0100    0.0100    0.0100    0.0100    0.0100
    0.0100    0.0100    0.0100    0.0100    0.0100    0.0100    0.0100    0.0100
    0.0100    0.0100    0.0100    0.0100    0.0100    0.0100    0.0100    0.0100
    0.0100    0.0100    0.0100    0.0100    0.0100    0.0100    0.0100    0.0100
    0.0100    0.0100    0.0100    0.0100    0.0100    0.0100    0.0100    0.0100
    0.0100    0.0100    0.0100    0.0100    0.0100    0.0100    0.0100    0.0100
    0.0100    0.0100    0.0100    0.0100    0.0100    0.0100    0.0100    0.0100
    0.0100    0.0100    0.0100    0.0100    0.0100    0.0100    0.0100    0.0100
    0.0100    0.0100    0.0100    0.0100    0.0100    0.0100    0.0100    0.0100
    0.0100    0.0100    0.0100    0.0100    0.0100    0.0100    0.0100    0.0100
    0.0100    0.0100    0.0100    0.0100    0.0100    0.0100    0.0100    0.0100
    0.0100    0.0100    0.0100    0.0100    0.0100    0.0100    0.0100    0.0100
    0.0100    0.0100    0.0100    0.0100    0.0100    0.0100    0.0100    0.0100
    0.0100    0.0100    0.0100    0.0100    0.0100    0.0100    0.0100    0.0100
    0.0100    0.0100    0.0100    0.0100    0.0100    0.0100    0.0100    0.0100
    0.0100    0.0100    0.0100    0.0100    0.0100    0.0100    0.0100    0.0100
    0.0100    0.0100    0.0100    0.0100    0.0100    0.0100    0.0100    0.0100
    0.0100    0.0100    0.0100    0.0100    0.0100    0.0100    0.0100    0.0100
    0.0100    0.0100    0.0100    0.0100    0.0100    0.0100    0.0100    0.0100
    0.0100    0.0100    0.0100    0.0100    0.0100    0.0100    0.0100    0.0100
    0.0100    0.0100    0.0100    0.0100    0.0100    0.0100    0.0100    0.0100
    0.0100    0.0100    0.0100    0.0100    0.0100    0.0100    0.0100    0.0100
    0.0100    0.0100    0.0100    0.0100    0.0100    0.0100    0.0100    0.0100
    0.0100    0.0100    0.0100    0.0100    0.0100    0.0100    0.0100    0.0100
    0.0100    0.0100    0.0100    0.0100    0.0100    0.0100    0.0100    0.0100
    0.0100    0.0100    0.0100    0.0100    0.0100    0.0100    0.0100    0.0100
    0.0100    0.0100    0.0100    0.0100    0.0100    0.0100    0.0100    0.0100
    0.0100    0.0100    0.0100    0.0100    0.0100    0.0100    0.0100    0.0100
    0.0100    0.0100    0.0100    0.0100    0.0100    0.0100    0.0100    0.0100
    0.0100    0.0100    0.0100    0.0100    0.0100    0.0100    0.0100    0.0100
    0.0100    0.0100    0.0100    0.0100    0.0100    0.0100    0.0100    0.0100
    0.0100    0.0100    0.0100    0.0100    0.0100    0.0100    0.0100    0.0100
    0.0100    0.0100    0.0100    0.0100    0.0100    0.0100    0.0100    0.0100
    0.0100    0.0100    0.0100    0.0100    0.0100    0.0100    0.0100    0.0100
    0.0100    0.0100    0.0100    0.0100    0.0100    0.0100    0.0100    0.0100
    0.0100    0.0100    0.0100    0.0100    0.0100    0.0100    0.0100    0.0100
    0.0100    0.0100    0.0100    0.0100    0.0100    0.0100    0.0100    0.0100
    0.0100    0.0100    0.0100    0.0100    0.0100    0.0100    0.0100    0.0100
    0.0100    0.0100    0.0100    0.0100    0.0100    0.0100    0.0100    0.0100
    0.0100    0.0100    0.0100    0.0100    0.0100    0.0100    0.0100    0.0100
    0.0100    0.0100    0.0100    0.0100    0.0100    0.0100    0.0100    0.0100
    0.0100    0.0100    0.0100    0.0100    0.0100    0.0100    0.0100    0.0100
    0.0100    0.0100    0.0100    0.0100    0.0100    0.0100    0.0100    0.0100
    0.0100    0.0100    0.0100    0.0100    0.0100    0.0100    0.0100    0.0100
    0.0100    0.0100    0.0100    0.0100    0.0100    0.0100    0.0100    0.0100
    0.0100    0.0100    0.0100    0.0100    0.0100    0.0100    0.0100    0.0100
    0.0100    0.0100    0.0100    0.0100    0.0100    0.0100    0.0100    0.0100
    0.0100    0.0100    0.0100    0.0100    0.0100    0.0100    0.0100    0.0100
    0.0100    0.0100    0.0100    0.0100    0.0100    0.0100    0.0100    0.0100
    0.0100    0.0100    0.0100    0.0100    0.0100    0.0100    0.0100    0.0100
    0.0100    0.0100    0.0100    0.0100    0.0100    0.0100    0.0100    0.0100
    0.0100    0.0100    0.0100    0.0100    0.0100    0.0100    0.0100    0.0100
    0.0100    0.0100    0.0100    0.0100    0.0100    0.0100    0.0100    0.0100
    0.0100    0.0100    0.0100    0.0100    0.0100    0.0100    0.0100    0.0100
    0.0100    0.0100    0.0100    0.0100    0.0100    0.0100    0.0100    0.0100
    0.0100    0.0100    0.0100    0.0100    0.0100    0.0100    0.0100    0.0100
    0.0100    0.0100    0.0100    0.0100    0.0100    0.0100    0.0100    0.0100
    0.0100    0.0100    0.0100    0.0100    0.0100    0.0100    0.0100    0.0100
    0.0100    0.0100    0.0100    0.0100    0.0100    0.0100    0.0100    0.0100
    0.0100    0.0100    0.0100    0.0100    0.0100    0.0100    0.0100    0.0100
    0.0100    0.0100    0.0100    0.0100    0.0100    0.0100    0.0100    0.0100
    0.0100    0.0100    0.0100    0.0100    0.0100    0.0100    0.0100    0.0100
    0.0100    0.0100    0.0100    0.0100    0.0100    0.0100    0.0100    0.0100
    0.0100    0.0100    0.0100    0.0100    0.0100    0.0100    0.0100    0.0100
    0.0100    0.0100    0.0100    0.0100    0.0100    0.0100    0.0100    0.0100
    0.0100    0.0100    0.0100    0.0100    0.0100    0.0100    0.0100    0.0100
    0.0100    0.0100    0.0100    0.0100    0.0100    0.0100    0.0100    0.0100
    0.0100    0.0100    0.0100    0.0100    0.0100    0.0100    0.0100    0.0100
    0.0100    0.0100    0.0100    0.0100    0.0100    0.0100    0.0100    0.0100
    0.0100    0.0100    0.0100    0.0100    0.0100    0.0100    0.0100    0.0100
    0.0100    0.0100    0.0100    0.0100    0.0100    0.0100    0.0100    0.0100
    0.0100    0.0100    0.0100    0.0100    0.0100    0.0100    0.0100    0.0100
    0.0100    0.0100    0.0100    0.0100    0.0100    0.0100    0.0100    0.0100
    0.0100    0.0100    0.0100    0.0100    0.0100    0.0100    0.0100    0.0100
    0.0100    0.0100    0.0100    0.0100    0.0100    0.0100    0.0100    0.0100
    0.0100    0.0100    0.0100    0.0100    0.0100    0.0100    0.0100    0.0100
    0.0100    0.0100    0.0100    0.0100    0.0100    0.0100    0.0100    0.0100
    0.0100    0.0100    0.0100    0.0100
   </PP_RAB>
 </PP_MESH>
  <PP_LOCAL type="real"  size="1244" columns="4">
   -4.2121524390E+01   -4.2145335334E+01   -4.2144028388E+01   -4.2141846761E+01
   -4.2138785389E+01   -4.2134837196E+01   -4.2129993100E+01   -4.2124242034E+01
   -4.2117570958E+01   -4.2109964887E+01   -4.2101406908E+01   -4.2091878210E+01
   -4.2081358113E+01   -4.2069824097E+01   -4.2057251840E+01   -4.2043615248E+01
   -4.2028886498E+01   -4.2013036077E+01   -4.1996032821E+01   -4.1977843959E+01
   -4.1958435157E+01   -4.1937770567E+01   -4.1915812868E+01   -4.1892523320E+01
   -4.1867861810E+01   -4.1841786901E+01   -4.1814255886E+01   -4.1785224837E+01
   -4.1754648657E+01   -4.1722481134E+01   -4.1688674994E+01   -4.1653181953E+01
   -4.1615952770E+01   -4.1576937303E+01   -4.1536084560E+01   -4.1493342755E+01
   -4.1448659359E+01   -4.1401981157E+01   -4.1353254299E+01   -4.1302424356E+01
   -4.1249436374E+01   -4.1194234932E+01   -4.1136764199E+01   -4.1076967996E+01
   -4.1014789858E+01   -4.0950173109E+01   -4.0883060931E+01   -4.0813396454E+01
   -4.0741122848E+01   -4.0666183432E+01   -4.0588521796E+01   -4.0508081944E+01
   -4.0424808461E+01   -4.0338646703E+01   -4.0249543025E+01   -4.0157445042E+01
   -4.0062301936E+01   -3.9964064813E+01   -3.9862687111E+01   -3.9758125077E+01
   -3.9650338302E+01   -3.9539290324E+01   -3.9424949303E+01   -3.9307288751E+01
   -3.9186288316E+01   -3.9061934595E+01   -3.8934221958E+01   -3.8803153350E+01
   -3.8668741023E+01   -3.8531007163E+01   -3.8389984369E+01   -3.8245715923E+01
   -3.8098255827E+01   -3.7947668573E+01   -3.7794028633E+01   -3.7637419678E+01
   -3.7477933551E+01   -3.7315669034E+01   -3.7150730483E+01   -3.6983226397E+01
   -3.6813267984E+01   -3.6640967829E+01   -3.6466438684E+01   -3.6289792463E+01
   -3.6111139449E+01   -3.5930587722E+01   -3.5748242817E+01   -3.5564207561E+01
   -3.5378582088E+01   -3.5191463970E+01   -3.5002948438E+01   -3.4813128656E+01
   -3.4622096019E+01   -3.4429940437E+01   -3.4236750606E+01   -3.4042614234E+01
   -3.3847618220E+01   -3.3651848793E+01   -3.3455391582E+01   -3.3258331656E+01
   -3.3060753502E+01   -3.2862740975E+01   -3.2664377199E+01   -3.2465744455E+01
   -3.2266924035E+01   -3.2067996086E+01   -3.1869039444E+01   -3.1670131464E+01
   -3.1471347855E+01   -3.1272762522E+01   -3.1074447418E+01   -3.0876472413E+01
   -3.0678905182E+01   -3.0481811105E+01   -3.0285253196E+01   -3.0089292050E+01
   -2.9893985803E+01   -2.9699390123E+01   -2.9505558204E+01   -2.9312540792E+01
   -2.9120386210E+01   -2.8929140405E+01   -2.8738847004E+01   -2.8549547372E+01
   -2.8361280684E+01   -2.8174083999E+01   -2.7987992335E+01   -2.7803038748E+01
   -2.7619254414E+01   -2.7436668705E+01   -2.7255309269E+01   -2.7075202103E+01
   -2.6896371630E+01   -2.6718840764E+01   -2.6542630982E+01   -2.6367762382E+01
   -2.6194253744E+01   -2.6022122583E+01   -2.5851385202E+01   -2.5682056735E+01
   -2.5514151189E+01   -2.5347681483E+01   -2.5182659480E+01   -2.5019096014E+01
   -2.4857000918E+01   -2.4696383046E+01   -2.4537250284E+01   -2.4379609570E+01
   -2.4223466902E+01   -2.4068827344E+01   -2.3915695031E+01   -2.3764073171E+01
   -2.3613964042E+01   -2.3465368990E+01   -2.3318288424E+01   -2.3172721806E+01
   -2.3028667645E+01   -2.2886123487E+01   -2.2745085902E+01   -2.2605550472E+01
   -2.2467511783E+01   -2.2330963407E+01   -2.2195897892E+01   -2.2062306751E+01
   -2.1930180443E+01   -2.1799508369E+01   -2.1670278856E+01   -2.1542479144E+01
   -2.1416095380E+01   -2.1291112604E+01   -2.1167514741E+01   -2.1045284594E+01
   -2.0924403834E+01   -2.0804852990E+01   -2.0686611454E+01   -2.0569657441E+01
   -2.0453968197E+01   -2.0339520907E+01   -2.0226293393E+01   -2.0114264117E+01
   -2.0003412175E+01   -1.9893717291E+01   -1.9785159808E+01   -1.9677720686E+01
   -1.9571381488E+01   -1.9466124375E+01   -1.9361932093E+01   -1.9258787966E+01
   -1.9156675919E+01   -1.9055580442E+01   -1.8955486266E+01   -1.8856377805E+01
   -1.8758239849E+01   -1.8661058827E+01   -1.8564822438E+01   -1.8469518851E+01
   -1.8375136649E+01   -1.8281665137E+01   -1.8189094361E+01   -1.8097414900E+01
   -1.8006617467E+01   -1.7916692969E+01   -1.7827632684E+01   -1.7739428271E+01
   -1.7652071672E+01   -1.7565555092E+01   -1.7479870969E+01   -1.7395011933E+01
   -1.7310970772E+01   -1.7227740402E+01   -1.7145313825E+01   -1.7063684100E+01
   -1.6982844316E+01   -1.6902787569E+01   -1.6823506926E+01   -1.6744995404E+01
   -1.6667245912E+01   -1.6590251217E+01   -1.6514004343E+01   -1.6438498483E+01
   -1.6363725370E+01   -1.6289667269E+01   -1.6216297169E+01   -1.6143587842E+01
   -1.6071525058E+01   -1.6000101508E+01   -1.5929310337E+01   -1.5859142306E+01
   -1.5789589079E+01   -1.5720642600E+01   -1.5652294820E+01   -1.5584537814E+01
   -1.5517364178E+01   -1.5450766817E+01   -1.5384737565E+01   -1.5319264449E+01
   -1.5254339441E+01   -1.5189960747E+01   -1.5126129978E+01   -1.5062839835E+01
   -1.5000078900E+01   -1.4937837431E+01   -1.4876109871E+01   -1.4814890715E+01
   -1.4754173308E+01   -1.4693951554E+01   -1.4634219419E+01   -1.4574970953E+01
   -1.4516200305E+01   -1.4457901717E+01   -1.4400069525E+01   -1.4342698155E+01
   -1.4285782120E+01   -1.4229316021E+01   -1.4173294544E+01   -1.4117712458E+01
   -1.4062564613E+01   -1.4007845941E+01   -1.3953551451E+01   -1.3899676230E+01
   -1.3846215440E+01   -1.3793164317E+01   -1.3740518171E+01   -1.3688272381E+01
   -1.3636422398E+01   -1.3584963742E+01   -1.3533891999E+01   -1.3483202820E+01
   -1.3432891925E+01   -1.3382955094E+01   -1.3333388170E+01   -1.3284187059E+01
   -1.3235347726E+01   -1.3186866195E+01   -1.3138738548E+01   -1.3090960926E+01
   -1.3043529523E+01   -1.2996440589E+01   -1.2949690429E+01   -1.2903275401E+01
   -1.2857191912E+01   -1.2811436424E+01   -1.2766005447E+01   -1.2720895541E+01
   -1.2676103315E+01   -1.2631625424E+01   -1.2587458571E+01   -1.2543599504E+01
   -1.2500045018E+01   -1.2456791951E+01   -1.2413837185E+01   -1.2371177643E+01
   -1.2328810294E+01   -1.2286732145E+01   -1.2244940245E+01   -1.2203431683E+01
   -1.2162203587E+01   -1.2121253125E+01   -1.2080577501E+01   -1.2040173957E+01
   -1.2000039774E+01   -1.1960172265E+01   -1.1920568783E+01   -1.1881226712E+01
   -1.1842143473E+01   -1.1803316521E+01   -1.1764743341E+01   -1.1726421456E+01
   -1.1688348416E+01   -1.1650521805E+01   -1.1612939240E+01   -1.1575598365E+01
   -1.1538496857E+01   -1.1501632421E+01   -1.1465002793E+01   -1.1428605736E+01
   -1.1392439042E+01   -1.1356500530E+01   -1.1320788049E+01   -1.1285299473E+01
   -1.1250032702E+01   -1.1214985663E+01   -1.1180156309E+01   -1.1145542618E+01
   -1.1111142594E+01   -1.1076954264E+01   -1.1042975679E+01   -1.1009204916E+01
   -1.0975640074E+01   -1.0942279275E+01   -1.0909120664E+01   -1.0876162408E+01
   -1.0843402697E+01   -1.0810839742E+01   -1.0778471776E+01   -1.0746297053E+01
   -1.0714313848E+01   -1.0682520454E+01   -1.0650915189E+01   -1.0619496386E+01
   -1.0588262401E+01   -1.0557211607E+01   -1.0526342397E+01   -1.0495653184E+01
   -1.0465142398E+01   -1.0434808487E+01   -1.0404649917E+01   -1.0374665172E+01
   -1.0344852754E+01   -1.0315211182E+01   -1.0285738991E+01   -1.0256434734E+01
   -1.0227296979E+01   -1.0198324311E+01   -1.0169515331E+01   -1.0140868656E+01
   -1.0112382918E+01   -1.0084056764E+01   -1.0055888858E+01   -1.0027877877E+01
   -1.0000022513E+01   -9.9723214728E+00   -9.9447734778E+00   -9.9173772630E+00
   -9.8901315774E+00   -9.8630351838E+00   -9.8360868586E+00   -9.8092853912E+00
   -9.7826295846E+00   -9.7561182545E+00   -9.7297502294E+00   -9.7035243506E+00
   -9.6774394716E+00   -9.6514944585E+00   -9.6256881893E+00   -9.6000195541E+00
   -9.5744874547E+00   -9.5490908047E+00   -9.5238285290E+00   -9.4986995639E+00
   -9.4737028572E+00   -9.4488373673E+00   -9.4241020637E+00   -9.3994959267E+00
   -9.3750179473E+00   -9.3506671267E+00   -9.3264424767E+00   -9.3023430192E+00
   -9.2783677863E+00   -9.2545158199E+00   -9.2307861718E+00   -9.2071779035E+00
   -9.1836900862E+00   -9.1603218003E+00   -9.1370721357E+00   -9.1139401914E+00
   -9.0909250758E+00   -9.0680259058E+00   -9.0452418077E+00   -9.0225719162E+00
   -9.0000153746E+00   -8.9775713352E+00   -8.9552389582E+00   -8.9330174125E+00
   -8.9109058750E+00   -8.8889035309E+00   -8.8670095733E+00   -8.8452232034E+00
   -8.8235436301E+00   -8.8019700699E+00   -8.7805017473E+00   -8.7591378940E+00
   -8.7378777494E+00   -8.7167205601E+00   -8.6956655801E+00   -8.6747120705E+00
   -8.6538592997E+00   -8.6331065428E+00   -8.6124530820E+00   -8.5918982064E+00
   -8.5714412119E+00   -8.5510814010E+00   -8.5308180827E+00   -8.5106505727E+00
   -8.4905781932E+00   -8.4706002727E+00   -8.4507161459E+00   -8.4309251539E+00
   -8.4112266439E+00   -8.3916199691E+00   -8.3721044888E+00   -8.3526795684E+00
   -8.3333445788E+00   -8.3140988971E+00   -8.2949419059E+00   -8.2758729935E+00
   -8.2568915540E+00   -8.2379969867E+00   -8.2191886967E+00   -8.2004660944E+00
   -8.1818285956E+00   -8.1632756214E+00   -8.1448065979E+00   -8.1264209568E+00
   -8.1081181347E+00   -8.0898975731E+00   -8.0717587189E+00   -8.0537010235E+00
   -8.0357239436E+00   -8.0178269405E+00   -8.0000094804E+00   -7.9822710342E+00
   -7.9646110774E+00   -7.9470290902E+00   -7.9295245575E+00   -7.9120969685E+00
   -7.8947458170E+00   -7.8774706013E+00   -7.8602708239E+00   -7.8431459918E+00
   -7.8260956162E+00   -7.8091192126E+00   -7.7922163007E+00   -7.7753864042E+00
   -7.7586290511E+00   -7.7419437733E+00   -7.7253301069E+00   -7.7087875918E+00
   -7.6923157719E+00   -7.6759141950E+00   -7.6595824127E+00   -7.6433199806E+00
   -7.6271264577E+00   -7.6110014071E+00   -7.5949443954E+00   -7.5789549928E+00
   -7.5630327732E+00   -7.5471773142E+00   -7.5313881966E+00   -7.5156650051E+00
   -7.5000073275E+00   -7.4844147552E+00   -7.4688868831E+00   -7.4534233092E+00
   -7.4380236350E+00   -7.4226874653E+00   -7.4074144080E+00   -7.3922040744E+00
   -7.3770560788E+00   -7.3619700388E+00   -7.3469455751E+00   -7.3319823115E+00
   -7.3170798747E+00   -7.3022378947E+00   -7.2874560042E+00   -7.2727338391E+00
   -7.2580710382E+00   -7.2434672430E+00   -7.2289220982E+00   -7.2144352512E+00
   -7.2000063520E+00   -7.1856350539E+00   -7.1713210124E+00   -7.1570638861E+00
   -7.1428633363E+00   -7.1287190267E+00   -7.1146306241E+00   -7.1005977975E+00
   -7.0866202188E+00   -7.0726975623E+00   -7.0588295049E+00   -7.0450157261E+00
   -7.0312559079E+00   -7.0175497346E+00   -7.0038968932E+00   -6.9902970731E+00
   -6.9767499658E+00   -6.9632552656E+00   -6.9498126690E+00   -6.9364218746E+00
   -6.9230825838E+00   -6.9097944999E+00   -6.8965573285E+00   -6.8833707778E+00
   -6.8702345578E+00   -6.8571483809E+00   -6.8441119617E+00   -6.8311250170E+00
   -6.8181872656E+00   -6.8052984286E+00   -6.7924582291E+00   -6.7796663922E+00
   -6.7669226454E+00   -6.7542267178E+00   -6.7415783408E+00   -6.7289772478E+00
   -6.7164231741E+00   -6.7039158571E+00   -6.6914550360E+00   -6.6790404520E+00
   -6.6666718482E+00   -6.6543489697E+00   -6.6420715634E+00   -6.6298393780E+00
   -6.6176521641E+00   -6.6055096742E+00   -6.5934116626E+00   -6.5813578853E+00
   -6.5693481001E+00   -6.5573820666E+00   -6.5454595463E+00   -6.5335803021E+00
   -6.5217440989E+00   -6.5099507031E+00   -6.4981998830E+00   -6.4864914084E+00
   -6.4748250509E+00   -6.4632005835E+00   -6.4516177811E+00   -6.4400764200E+00
   -6.4285762782E+00   -6.4171171354E+00   -6.4056987726E+00   -6.3943209725E+00
   -6.3829835194E+00   -6.3716861991E+00   -6.3604287987E+00   -6.3492111072E+00
   -6.3380329147E+00   -6.3268940131E+00   -6.3157941954E+00   -6.3047332564E+00
   -6.2937109921E+00   -6.2827272001E+00   -6.2717816792E+00   -6.2608742299E+00
   -6.2500046537E+00   -6.2391727539E+00   -6.2283783347E+00   -6.2176212021E+00
   -6.2069011632E+00   -6.1962180263E+00   -6.1855716014E+00   -6.1749616994E+00
   -6.1643881329E+00   -6.1538507153E+00   -6.1433492617E+00   -6.1328835882E+00
   -6.1224535124E+00   -6.1120588528E+00   -6.1016994294E+00   -6.0913750634E+00
   -6.0810855770E+00   -6.0708307938E+00   -6.0606105386E+00   -6.0504246372E+00
   -6.0402729168E+00   -6.0301552055E+00   -6.0200713327E+00   -6.0100211290E+00
   -6.0000044260E+00   -5.9900210564E+00   -5.9800708543E+00   -5.9701536545E+00
   -5.9602692931E+00   -5.9504176074E+00   -5.9405984354E+00   -5.9308116166E+00
   -5.9210569913E+00   -5.9113344009E+00   -5.9016436878E+00   -5.8919846956E+00
   -5.8823572687E+00   -5.8727612527E+00   -5.8631964941E+00   -5.8536628403E+00
   -5.8441601400E+00   -5.8346882426E+00   -5.8252469986E+00   -5.8158362593E+00
   -5.8064558773E+00   -5.7971057059E+00   -5.7877855993E+00   -5.7784954128E+00
   -5.7692350025E+00   -5.7600042255E+00   -5.7508029397E+00   -5.7416310042E+00
   -5.7324882786E+00   -5.7233746236E+00   -5.7142899009E+00   -5.7052339728E+00
   -5.6962067027E+00   -5.6872079547E+00   -5.6782375940E+00   -5.6692954863E+00
   -5.6603814984E+00   -5.6514954979E+00   -5.6426373531E+00   -5.6338069333E+00
   -5.6250041086E+00   -5.6162287497E+00   -5.6074807284E+00   -5.5987599170E+00
   -5.5900661889E+00   -5.5813994180E+00   -5.5727594792E+00   -5.5641462480E+00
   -5.5555596009E+00   -5.5469994148E+00   -5.5384655678E+00   -5.5299579384E+00
   -5.5214764059E+00   -5.5130208506E+00   -5.5045911531E+00   -5.4961871951E+00
   -5.4878088590E+00   -5.4794560276E+00   -5.4711285847E+00   -5.4628264147E+00
   -5.4545494028E+00   -5.4462974347E+00   -5.4380703970E+00   -5.4298681768E+00
   -5.4216906621E+00   -5.4135377414E+00   -5.4054093039E+00   -5.3973052394E+00
   -5.3892254386E+00   -5.3811697926E+00   -5.3731381932E+00   -5.3651305330E+00
   -5.3571467050E+00   -5.3491866031E+00   -5.3412501216E+00   -5.3333371556E+00
   -5.3254476006E+00   -5.3175813530E+00   -5.3097383097E+00   -5.3019183680E+00
   -5.2941214261E+00   -5.2863473827E+00   -5.2785961369E+00   -5.2708675888E+00
   -5.2631616388E+00   -5.2554781878E+00   -5.2478171375E+00   -5.2401783900E+00
   -5.2325618482E+00   -5.2249674153E+00   -5.2173949952E+00   -5.2098444923E+00
   -5.2023158117E+00   -5.1948088588E+00   -5.1873235397E+00   -5.1798597611E+00
   -5.1724174300E+00   -5.1649964542E+00   -5.1575967420E+00   -5.1502182019E+00
   -5.1428607434E+00   -5.1355242761E+00   -5.1282087104E+00   -5.1209139571E+00
   -5.1136399275E+00   -5.1063865333E+00   -5.0991536870E+00   -5.0919413013E+00
   -5.0847492896E+00   -5.0775775655E+00   -5.0704260435E+00   -5.0632946382E+00
   -5.0561832649E+00   -5.0490918393E+00   -5.0420202776E+00   -5.0349684965E+00
   -5.0279364130E+00   -5.0209239448E+00   -5.0139310099E+00   -5.0069575268E+00
   -5.0000034144E+00   -4.9930685922E+00   -4.9861529800E+00   -4.9792564980E+00
   -4.9723790671E+00   -4.9655206084E+00   -4.9586810434E+00   -4.9518602943E+00
   -4.9450582835E+00   -4.9382749338E+00   -4.9315101687E+00   -4.9247639117E+00
   -4.9180360871E+00   -4.9113266194E+00   -4.9046354337E+00   -4.8979624552E+00
   -4.8913076097E+00   -4.8846708235E+00   -4.8780520232E+00   -4.8714511356E+00
   -4.8648680883E+00   -4.8583028090E+00   -4.8517552258E+00   -4.8452252673E+00
   -4.8387128624E+00   -4.8322179404E+00   -4.8257404311E+00   -4.8192802645E+00
   -4.8128373710E+00   -4.8064116815E+00   -4.8000031271E+00   -4.7936116395E+00
   -4.7872371504E+00   -4.7808795922E+00   -4.7745388976E+00   -4.7682149995E+00
   -4.7619078312E+00   -4.7556173265E+00   -4.7493434194E+00   -4.7430860443E+00
   -4.7368451360E+00   -4.7306206295E+00   -4.7244124603E+00   -4.7182205641E+00
   -4.7120448771E+00   -4.7058853356E+00   -4.6997418764E+00   -4.6936144367E+00
   -4.6875029538E+00   -4.6814073656E+00   -4.6753276100E+00   -4.6692636255E+00
   -4.6632153507E+00   -4.6571827248E+00   -4.6511656871E+00   -4.6451641771E+00
   -4.6391781350E+00   -4.6332075009E+00   -4.6272522155E+00   -4.6213122197E+00
   -4.6153874546E+00   -4.6094778617E+00   -4.6035833828E+00   -4.5977039601E+00
   -4.5918395359E+00   -4.5859900529E+00   -4.5801554541E+00   -4.5743356827E+00
   -4.5685306822E+00   -4.5627403966E+00   -4.5569647700E+00   -4.5512037466E+00
   -4.5454572713E+00   -4.5397252890E+00   -4.5340077449E+00   -4.5283045846E+00
   -4.5226157538E+00   -4.5169411986E+00   -4.5112808653E+00   -4.5056347006E+00
   -4.5000026513E+00   -4.4943846645E+00   -4.4887806876E+00   -4.4831906684E+00
   -4.4776145546E+00   -4.4720522946E+00   -4.4665038366E+00   -4.4609691295E+00
   -4.4554481222E+00   -4.4499407638E+00   -4.4444470038E+00   -4.4389667919E+00
   -4.4335000781E+00   -4.4280468125E+00   -4.4226069456E+00   -4.4171804281E+00
   -4.4117672109E+00   -4.4063672451E+00   -4.4009804821E+00   -4.3956068736E+00
   -4.3902463715E+00   -4.3848989279E+00   -4.3795644950E+00   -4.3742430256E+00
   -4.3689344723E+00   -4.3636387882E+00   -4.3583559266E+00   -4.3530858410E+00
   -4.3478284851E+00   -4.3425838127E+00   -4.3373517782E+00   -4.3321323357E+00
   -4.3269254400E+00   -4.3217310459E+00   -4.3165491083E+00   -4.3113795826E+00
   -4.3062224241E+00   -4.3010775886E+00   -4.2959450320E+00   -4.2908247102E+00
   -4.2857165798E+00   -4.2806205970E+00   -4.2755367188E+00   -4.2704649019E+00
   -4.2654051036E+00   -4.2603572811E+00   -4.2553213920E+00   -4.2502973941E+00
   -4.2452852452E+00   -4.2402849034E+00   -4.2352963272E+00   -4.2303194750E+00
   -4.2253543056E+00   -4.2204007779E+00   -4.2154588509E+00   -4.2105284839E+00
   -4.2056096366E+00   -4.2007022684E+00   -4.1958063394E+00   -4.1909218094E+00
   -4.1860486389E+00   -4.1811867882E+00   -4.1763362178E+00   -4.1714968886E+00
   -4.1666687616E+00   -4.1618517979E+00   -4.1570459589E+00   -4.1522512059E+00
   -4.1474675008E+00   -4.1426948054E+00   -4.1379330817E+00   -4.1331822919E+00
   -4.1284423984E+00   -4.1237133638E+00   -4.1189951508E+00   -4.1142877223E+00
   -4.1095910413E+00   -4.1049050712E+00   -4.1002297752E+00   -4.0955651170E+00
   -4.0909110603E+00   -4.0862675690E+00   -4.0816346072E+00   -4.0770121390E+00
   -4.0724001290E+00   -4.0677985415E+00   -4.0632073414E+00   -4.0586264936E+00
   -4.0540559629E+00   -4.0494957146E+00   -4.0449457142E+00   -4.0404059269E+00
   -4.0358763186E+00   -4.0313568549E+00   -4.0268475020E+00   -4.0223482258E+00
   -4.0178589926E+00   -4.0133797689E+00   -4.0089105212E+00   -4.0044512162E+00
   -4.0000018208E+00   -3.9955623019E+00   -3.9911326268E+00   -3.9867127628E+00
   -3.9823026771E+00   -3.9779023376E+00   -3.9735117118E+00   -3.9691307677E+00
   -3.9647594732E+00   -3.9603977966E+00   -3.9560457060E+00   -3.9517031700E+00
   -3.9473701571E+00   -3.9430466361E+00   -3.9387325757E+00   -3.9344279449E+00
   -3.9301327130E+00   -3.9258468490E+00   -3.9215703224E+00   -3.9173031028E+00
   -3.9130451597E+00   -3.9087964630E+00   -3.9045569826E+00   -3.9003266885E+00
   -3.8961055508E+00   -3.8918935400E+00   -3.8876906264E+00   -3.8834967805E+00
   -3.8793119732E+00   -3.8751361751E+00   -3.8709693572E+00   -3.8668114906E+00
   -3.8626625465E+00   -3.8585224962E+00   -3.8543913111E+00   -3.8502689627E+00
   -3.8461554228E+00   -3.8420506632E+00   -3.8379546557E+00   -3.8338673724E+00
   -3.8297887854E+00   -3.8257188671E+00   -3.8216575898E+00   -3.8176049261E+00
   -3.8135608485E+00   -3.8095253298E+00   -3.8054983429E+00   -3.8014798607E+00
   -3.7974698563E+00   -3.7934683029E+00   -3.7894751739E+00   -3.7854904427E+00
   -3.7815140827E+00   -3.7775460676E+00   -3.7735863713E+00   -3.7696349676E+00
   -3.7656918303E+00   -3.7617569337E+00   -3.7578302520E+00   -3.7539117593E+00
   -3.7500014302E+00   -3.7460992392E+00   -3.7422051608E+00   -3.7383191698E+00
   -3.7344412411E+00   -3.7305713495E+00   -3.7267094701E+00   -3.7228555781E+00
   -3.7190096487E+00   -3.7151716572E+00   -3.7113415791E+00   -3.7075193899E+00
   -3.7037050654E+00   -3.6998985812E+00   -3.6960999132E+00   -3.6923090373E+00
   -3.6885259297E+00   -3.6847505664E+00   -3.6809829236E+00   -3.6772229778E+00
   -3.6734707054E+00   -3.6697260829E+00   -3.6659890869E+00   -3.6622596942E+00
   -3.6585378815E+00   -3.6548236258E+00   -3.6511169042E+00   -3.6474176936E+00
   -3.6437259713E+00   -3.6400417146E+00   -3.6363649008E+00   -3.6326955075E+00
   -3.6290335121E+00   -3.6253788924E+00   -3.6217316260E+00   -3.6180916909E+00
   -3.6144590648E+00   -3.6108337259E+00   -3.6072156522E+00   -3.6036048219E+00
   -3.6000012133E+00   -3.5964048046E+00   -3.5928155745E+00   -3.5892335014E+00
   -3.5856585638E+00   -3.5820907406E+00   -3.5785300105E+00   -3.5749763523E+00
   -3.5714297451E+00   -3.5678901678E+00   -3.5643575996E+00   -3.5608320197E+00
   -3.5573134073E+00   -3.5538017418E+00   -3.5502970028E+00   -3.5467991696E+00
   -3.5433082219E+00   -3.5398241394E+00   -3.5363469019E+00   -3.5328764892E+00
   -3.5294128812E+00   -3.5259560580E+00   -3.5225059996E+00   -3.5190626862E+00
   -3.5156260981E+00   -3.5121962155E+00   -3.5087730188E+00   -3.5053564885E+00
   -3.5019466052E+00   -3.4985433494E+00   -3.4951467020E+00   -3.4917566436E+00
   -3.4883731550E+00   -3.4849962173E+00   -3.4816258114E+00   -3.4782619183E+00
   -3.4749045193E+00   -3.4715535955E+00   -3.4682091281E+00   -3.4648710987E+00
   -3.4615394886E+00   -3.4582142792E+00   -3.4548954522E+00   -3.4515829893E+00
   -3.4482768720E+00   -3.4449770823E+00   -3.4416836019E+00   -3.4383964128E+00
   -3.4351154969E+00   -3.4318408364E+00   -3.4285724134E+00   -3.4253102100E+00
   -3.4220542085E+00   -3.4188043913E+00   -3.4155607407E+00   -3.4123232392E+00
   -3.4090918693E+00   -3.4058666137E+00   -3.4026474550E+00   -3.3994343760E+00
   -3.3962273593E+00   -3.3930263879E+00   -3.3898314448E+00   -3.3866425128E+00
   -3.3834595750E+00   -3.3802826146E+00   -3.3771116148E+00   -3.3739465587E+00
   -3.3707874297E+00   -3.3676342112E+00   -3.3644868865E+00   -3.3613454392E+00
   -3.3582098528E+00   -3.3550801109E+00   -3.3519561972E+00   -3.3488380955E+00
   -3.3457257895E+00   -3.3426192631E+00   -3.3395185002E+00   -3.3364234848E+00
   -3.3333342009E+00   -3.3302506327E+00   -3.3271727642E+00   -3.3241005796E+00
   -3.3210340633E+00   -3.3179731996E+00   -3.3149179728E+00   -3.3118683675E+00
   -3.3088243680E+00   -3.3057859590E+00   -3.3027531251E+00   -3.2997258509E+00
   -3.2967041211E+00   -3.2936879206E+00   -3.2906772342E+00   -3.2876720468E+00
   -3.2846723433E+00   -3.2816781088E+00   -3.2786893282E+00   -3.2757059867E+00
   -3.2727280695E+00   -3.2697555617E+00   -3.2667884487E+00   -3.2638267159E+00
   -3.2608703484E+00   -3.2579193319E+00   -3.2549736517E+00   -3.2520332935E+00
   -3.2490982428E+00   -3.2461684853E+00   -3.2432440065E+00   -3.2403247924E+00
   -3.2374108287E+00   -3.2345021012E+00   -3.2315985959E+00   -3.2287002986E+00
   -3.2258071955E+00   -3.2229192724E+00   -3.2200365156E+00   -3.2171589112E+00
   -3.2142864454E+00   -3.2114191044E+00   -3.2085568746E+00   -3.2056997422E+00
   -3.2028476937E+00   -3.2000007155E+00   -3.1971587941E+00   -3.1943219161E+00
   -3.1914900679E+00   -3.1886632364E+00   -3.1858414081E+00   -3.1830245698E+00
   -3.1802127082E+00   -3.1774058102E+00   -3.1746038627E+00   -3.1718068525E+00
   -3.1690147666E+00   -3.1662275921E+00   -3.1634453159E+00   -3.1606679252E+00
   -3.1578954072E+00   -3.1551277489E+00   -3.1523649377E+00   -3.1496069608E+00
   -3.1468538055E+00   -3.1441054593E+00   -3.1413619095E+00   -3.1386231436E+00
   -3.1358891490E+00   -3.1331599133E+00   -3.1304354242E+00   -3.1277156692E+00
   -3.1250006360E+00   -3.1222903123E+00   -3.1195846858E+00   -3.1168837445E+00
   -3.1141874761E+00   -3.1114958684E+00   -3.1088089095E+00   -3.1061265873E+00
   -3.1034488897E+00   -3.1007758050E+00   -3.0981073210E+00   -3.0954434261E+00
   -3.0927841082E+00   -3.0901293558E+00   -3.0874791569E+00   -3.0848335000E+00
   -3.0821923733E+00   -3.0795557652E+00   -3.0769236641E+00   -3.0742960585E+00
   -3.0716729369E+00   -3.0690542878E+00   -3.0664400998E+00   -3.0638303614E+00
   -3.0612250614E+00   -3.0586241884E+00   -3.0560277312E+00   -3.0534356785E+00
   -3.0508480190E+00   -3.0482647418E+00   -3.0456858356E+00   -3.0431112893E+00
   -3.0405410919E+00   -3.0379752324E+00   -3.0354136998E+00   -3.0328564833E+00
   -3.0303035717E+00   -3.0277549545E+00   -3.0252106206E+00   -3.0226705593E+00
   -3.0201347599E+00   -3.0176032116E+00   -3.0150759037E+00   -3.0125528257E+00
   -3.0100339668E+00   -3.0075193166E+00   -3.0050088645E+00   -3.0025025999E+00
   -3.0000005125E+00   -2.9975025917E+00   -2.9950088273E+00   -2.9925192087E+00
   -2.9900337257E+00   -2.9875523680E+00   -2.9850751253E+00   -2.9826019875E+00
   -2.9801329442E+00   -2.9776679854E+00   -2.9752071008E+00   -2.9727502805E+00
   -2.9702975144E+00   -2.9678487924E+00   -2.9654041046E+00   -2.9629634409E+00
   -2.9605267915E+00   -2.9580941464E+00   -2.9556654959E+00   -2.9532408299E+00
   -2.9508201389E+00   -2.9484034130E+00   -2.9459906424E+00   -2.9435818175E+00
   -2.9411769286E+00   -2.9387759660E+00   -2.9363789202E+00   -2.9339857815E+00
   -2.9315965405E+00   -2.9292111876E+00   -2.9268297133E+00   -2.9244521082E+00
   -2.9220783628E+00   -2.9197084678E+00   -2.9173424138E+00   -2.9149801914E+00
   -2.9126217915E+00   -2.9102672046E+00   -2.9079164216E+00   -2.9055694332E+00
   -2.9032262303E+00   -2.9008868037E+00   -2.8985511444E+00   -2.8962192431E+00
  </PP_LOCAL>
 <PP_NONLOCAL>
   <PP_BETA.1
       type="real"
       size="1244"
       columns="4"
       index="1"
       angular_momentum="0"
       cutoff_radius_index=" 224"
       cutoff_radius="    2.2300000000E+00" >
   -3.8801517555E-11    6.3972649284E-02    1.2781714402E-01    1.9140565332E-01
    2.5461099236E-01    3.1730694233E-01    3.7936856666E-01    4.4067252234E-01
    5.0109736530E-01    5.6052384854E-01    6.1883521218E-01    6.7591746429E-01
    7.3165965170E-01    7.8595411987E-01    8.3869676113E-01    8.8978725056E-01
    9.3912926896E-01    9.8663071244E-01    1.0322038881E+00    1.0757656958E+00
    1.1172377950E+00    1.1565467579E+00    1.1936242071E+00    1.2284069397E+00
    1.2608370354E+00    1.2908619518E+00    1.3184346046E+00    1.3435134340E+00
    1.3660624576E+00    1.3860513098E+00    1.4034552685E+00    1.4182552691E+00
    1.4304379061E+00    1.4399954229E+00    1.4469256908E+00    1.4512321759E+00
    1.4529238963E+00    1.4520153681E+00    1.4485265420E+00    1.4424827301E+00
    1.4339145223E+00    1.4228576950E+00    1.4093531093E+00    1.3934466006E+00
    1.3751888602E+00    1.3546353068E+00    1.3318459505E+00    1.3068852474E+00
    1.2798219458E+00    1.2507289241E+00    1.2196830193E+00    1.1867648476E+00
    1.1520586160E+00    1.1156519251E+00    1.0776355639E+00    1.0381032957E+00
    9.9715163516E-01    9.5487961799E-01    9.1138856200E-01    8.6678182045E-01
    8.2116452803E-01    7.7464333969E-01    7.2732616290E-01    6.7932188382E-01
    6.3074008810E-01    5.8169077695E-01    5.3228407921E-01    4.8262996047E-01
    4.3283792998E-01    3.8301674648E-01    3.3327412404E-01    2.8371643899E-01
    2.3444843915E-01    1.8557295671E-01    1.3719062583E-01    8.9399606492E-02
    4.2295315724E-02   -4.0298323113E-03   -4.9486676207E-02   -9.3989545792E-02
   -1.3745648800E-01   -1.7980947890E-01   -2.2097462076E-01   -2.6088232309E-01
   -2.9946746664E-01   -3.3666954951E-01   -3.7243281456E-01   -4.0670635749E-01
   -4.3944421500E-01   -4.7060543269E-01   -5.0015411233E-01   -5.2805943847E-01
   -5.5429568438E-01   -5.7884219734E-01   -6.0168336383E-01   -6.2280855482E-01
   -6.4221205190E-01   -6.5989295487E-01   -6.7585507167E-01   -6.9010679162E-01
   -7.0266094298E-01   -7.1353463605E-01   -7.2274909302E-01   -7.3032946588E-01
   -7.3630464386E-01   -7.4070705165E-01   -7.4357244004E-01   -7.4493967035E-01
   -7.4485049407E-01   -7.4334932929E-01   -7.4048303528E-01   -7.3630068653E-01
   -7.3085334770E-01   -7.2419385066E-01   -7.1637657475E-01   -7.0745723146E-01
   -6.9749265440E-01   -6.8654059547E-01   -6.7465952802E-01   -6.6190845753E-01
   -6.4834674049E-01   -6.3403391176E-01   -6.1902952066E-01   -6.0339297608E-01
   -5.8718340050E-01   -5.7045949294E-01   -5.5327940061E-01   -5.3570059905E-01
   -5.1777978038E-01   -4.9957274911E-01   -4.8113432528E-01   -4.6251825412E-01
   -4.4377712176E-01   -4.2496227640E-01   -4.0612375426E-01   -3.8731020972E-01
   -3.6856884903E-01   -3.4994536700E-01   -3.3148388612E-01   -3.1322689766E-01
   -2.9521520425E-01   -2.7748786358E-01   -2.6008213299E-01   -2.4303341466E-01
   -2.2637520134E-01   -2.1013902247E-01   -1.9435439094E-01   -1.7904875049E-01
   -1.6424742397E-01   -1.4997356292E-01   -1.3624809877E-01   -1.2308969615E-01
   -1.1051470891E-01   -9.8537139376E-02   -8.7168601610E-02   -7.6418289217E-02
   -6.6292948531E-02   -5.6796857843E-02   -4.7931813399E-02   -3.9697122882E-02
   -3.2089607026E-02   -2.5103610017E-02   -1.8731019220E-02   -1.2961294758E-02
   -7.7815093369E-03   -3.1763986516E-03    8.7157740683E-04    4.3821626416E-03
    7.3772215418E-03    9.8806455120E-03    1.1918248602E-02    1.3517653126E-02
    1.4708165804E-02    1.5520644957E-02    1.5987355023E-02    1.6141837361E-02
    1.6018613925E-02    1.5652415479E-02    1.5077510368E-02    1.4327488837E-02
    1.3435049113E-02    1.2431790627E-02    1.1348011564E-02    1.0212512243E-02
    9.0524071421E-03    7.8929326563E-03    6.7573136357E-03    5.6665392902E-03
    4.6383488196E-03    3.6876552538E-03    2.8290310948E-03    2.0741337645E-03
    1.4316838160E-03    9.0739986019E-04    5.0411348069E-04    2.2038402384E-04
    5.6115231998E-05    4.6917389657E-07   -1.2869005696E-06    8.5032429346E-07
   -1.9056721225E-07    2.1613437723E-12    0.0000000000E+00    0.0000000000E+00
    0.0000000000E+00    0.0000000000E+00    0.0000000000E+00    0.0000000000E+00
    0.0000000000E+00    0.0000000000E+00    0.0000000000E+00    0.0000000000E+00
    0.0000000000E+00    0.0000000000E+00    0.0000000000E+00    0.0000000000E+00
    0.0000000000E+00    0.0000000000E+00    0.0000000000E+00    0.0000000000E+00
    0.0000000000E+00    0.0000000000E+00    0.0000000000E+00    0.0000000000E+00
 0. 0. 0. 0.
 0. 0. 0. 0.
 0. 0. 0. 0.
 0. 0. 0. 0.
 0. 0. 0. 0.
 0. 0. 0. 0.
 0. 0. 0. 0.
 0. 0. 0. 0.
 0. 0. 0. 0.
 0. 0. 0. 0.
 0. 0. 0. 0.
 0. 0. 0. 0.
 0. 0. 0. 0.
 0. 0. 0. 0.
 0. 0. 0. 0.
 0. 0. 0. 0.
 0. 0. 0. 0.
 0. 0. 0. 0.
 0. 0. 0. 0.
 0. 0. 0. 0.
 0. 0. 0. 0.
 0. 0. 0. 0.
 0. 0. 0. 0.
 0. 0. 0. 0.
 0. 0. 0. 0.
 0. 0. 0. 0.
 0. 0. 0. 0.
 0. 0. 0. 0.
 0. 0. 0. 0.
 0. 0. 0. 0.
 0. 0. 0. 0.
 0. 0. 0. 0.
 0. 0. 0. 0.
 0. 0. 0. 0.
 0. 0. 0. 0.
 0. 0. 0. 0.
 0. 0. 0. 0.
 0. 0. 0. 0.
 0. 0. 0. 0.
 0. 0. 0. 0.
 0. 0. 0. 0.
 0. 0. 0. 0.
 0. 0. 0. 0.
 0. 0. 0. 0.
 0. 0. 0. 0.
 0. 0. 0. 0.
 0. 0. 0. 0.
 0. 0. 0. 0.
 0. 0. 0. 0.
 0. 0. 0. 0.
 0. 0. 0. 0.
 0. 0. 0. 0.
 0. 0. 0. 0.
 0. 0. 0. 0.
 0. 0. 0. 0.
 0. 0. 0. 0.
 0. 0. 0. 0.
 0. 0. 0. 0.
 0. 0. 0. 0.
 0. 0. 0. 0.
 0. 0. 0. 0.
 0. 0. 0. 0.
 0. 0. 0. 0.
 0. 0. 0. 0.
 0. 0. 0. 0.
 0. 0. 0. 0.
 0. 0. 0. 0.
 0. 0. 0. 0.
 0. 0. 0. 0.
 0. 0. 0. 0.
 0. 0. 0. 0.
 0. 0. 0. 0.
 0. 0. 0. 0.
 0. 0. 0. 0.
 0. 0. 0. 0.
 0. 0. 0. 0.
 0. 0. 0. 0.
 0. 0. 0. 0.
 0. 0. 0. 0.
 0. 0. 0. 0.
 0. 0. 0. 0.
 0. 0. 0. 0.
 0. 0. 0. 0.
 0. 0. 0. 0.
 0. 0. 0. 0.
 0. 0. 0. 0.
 0. 0. 0. 0.
 0. 0. 0. 0.
 0. 0. 0. 0.
 0. 0. 0. 0.
 0. 0. 0. 0.
 0. 0. 0. 0.
 0. 0. 0. 0.
 0. 0. 0. 0.
 0. 0. 0. 0.
 0. 0. 0. 0.
 0. 0. 0. 0.
 0. 0. 0. 0.
 0. 0. 0. 0.
 0. 0. 0. 0.
 0. 0. 0. 0.
 0. 0. 0. 0.
 0. 0. 0. 0.
 0. 0. 0. 0.
 0. 0. 0. 0.
 0. 0. 0. 0.
 0. 0. 0. 0.
 0. 0. 0. 0.
 0. 0. 0. 0.
 0. 0. 0. 0.
 0. 0. 0. 0.
 0. 0. 0. 0.
 0. 0. 0. 0.
 0. 0. 0. 0.
 0. 0. 0. 0.
 0. 0. 0. 0.
 0. 0. 0. 0.
 0. 0. 0. 0.
 0. 0. 0. 0.
 0. 0. 0. 0.
 0. 0. 0. 0.
 0. 0. 0. 0.
 0. 0. 0. 0.
 0. 0. 0. 0.
 0. 0. 0. 0.
 0. 0. 0. 0.
 0. 0. 0. 0.
 0. 0. 0. 0.
 0. 0. 0. 0.
 0. 0. 0. 0.
 0. 0. 0. 0.
 0. 0. 0. 0.
 0. 0. 0. 0.
 0. 0. 0. 0.
 0. 0. 0. 0.
 0. 0. 0. 0.
 0. 0. 0. 0.
 0. 0. 0. 0.
 0. 0. 0. 0.
 0. 0. 0. 0.
 0. 0. 0. 0.
 0. 0. 0. 0.
 0. 0. 0. 0.
 0. 0. 0. 0.
 0. 0. 0. 0.
 0. 0. 0. 0.
 0. 0. 0. 0.
 0. 0. 0. 0.
 0. 0. 0. 0.
 0. 0. 0. 0.
 0. 0. 0. 0.
 0. 0. 0. 0.
 0. 0. 0. 0.
 0. 0. 0. 0.
 0. 0. 0. 0.
 0. 0. 0. 0.
 0. 0. 0. 0.
 0. 0. 0. 0.
 0. 0. 0. 0.
 0. 0. 0. 0.
 0. 0. 0. 0.
 0. 0. 0. 0.
 0. 0. 0. 0.
 0. 0. 0. 0.
 0. 0. 0. 0.
 0. 0. 0. 0.
 0. 0. 0. 0.
 0. 0. 0. 0.
 0. 0. 0. 0.
 0. 0. 0. 0.
 0. 0. 0. 0.
 0. 0. 0. 0.
 0. 0. 0. 0.
 0. 0. 0. 0.
 0. 0. 0. 0.
 0. 0. 0. 0.
 0. 0. 0. 0.
 0. 0. 0. 0.
 0. 0. 0. 0.
 0. 0. 0. 0.
 0. 0. 0. 0.
 0. 0. 0. 0.
 0. 0. 0. 0.
 0. 0. 0. 0.
 0. 0. 0. 0.
 0. 0. 0. 0.
 0. 0. 0. 0.
 0. 0. 0. 0.
 0. 0. 0. 0.
 0. 0. 0. 0.
 0. 0. 0. 0.
 0. 0. 0. 0.
 0. 0. 0. 0.
 0. 0. 0. 0.
 0. 0. 0. 0.
 0. 0. 0. 0.
 0. 0. 0. 0.
 0. 0. 0. 0.
 0. 0. 0. 0.
 0. 0. 0. 0.
 0. 0. 0. 0.
 0. 0. 0. 0.
 0. 0. 0. 0.
 0. 0. 0. 0.
 0. 0. 0. 0.
 0. 0. 0. 0.
 0. 0. 0. 0.
 0. 0. 0. 0.
 0. 0. 0. 0.
 0. 0. 0. 0.
 0. 0. 0. 0.
 0. 0. 0. 0.
 0. 0. 0. 0.
 0. 0. 0. 0.
 0. 0. 0. 0.
 0. 0. 0. 0.
 0. 0. 0. 0.
 0. 0. 0. 0.
 0. 0. 0. 0.
 0. 0. 0. 0.
 0. 0. 0. 0.
 0. 0. 0. 0.
 0. 0. 0. 0.
 0. 0. 0. 0.
 0. 0. 0. 0.
 0. 0. 0. 0.
 0. 0. 0. 0.
 0. 0. 0. 0.
 0. 0. 0. 0.
 0. 0. 0. 0.
 0. 0. 0. 0.
 0. 0. 0. 0.
 0. 0. 0. 0.
 0. 0. 0. 0.
 0. 0. 0. 0.
 0. 0. 0. 0.
 0. 0. 0. 0.
 0. 0. 0. 0.
 0. 0. 0. 0.
 0. 0. 0. 0.
 0. 0. 0. 0.
 0. 0. 0. 0.
 0. 0. 0. 0.
 0. 0. 0. 0.
 0. 0. 0. 0.
 0. 0. 0. 0.
 0. 0. 0. 0.
 0. 0. 0. 0.
 0. 0. 0. 0.
 0. 0. 0. 0.
 0. 0. 0. 0.
 0. 0. 0. 0.
 0. 0. 0. 0.
 0. 0. 0. 0.
 0. 0. 0. 0.
   </PP_BETA.1>
   <PP_BETA.2
       type="real"
       size="1244"
       columns="4"
       index="2"
       angular_momentum="0"
       cutoff_radius_index=" 224"
       cutoff_radius="    2.2300000000E+00" >
   -4.2876369122E-11    1.3534094914E-02    2.7068288606E-02    4.0602712369E-02
    5.4137561817E-02    6.7673127315E-02    8.1209822346E-02    9.4748209194E-02
    1.0828902135E-01    1.2183318211E-01    1.3538181884E-01    1.4893627260E-01
    1.6249810268E-01    1.7606908590E-01    1.8965121038E-01    2.0324666389E-01
    2.1685781656E-01    2.3048719827E-01    2.4413747081E-01    2.5781139500E-01
    2.7151179338E-01    2.8524150865E-01    2.9900335854E-01    3.1280008760E-01
    3.2663431660E-01    3.4050849020E-01    3.5442482360E-01    3.6838524889E-01
    3.8239136195E-01    3.9644437050E-01    4.1054504428E-01    4.2469366780E-01
    4.3888999671E-01    4.5313321810E-01    4.6742191561E-01    4.8175403975E-01
    4.9612688399E-01    5.1053706691E-01    5.2498052084E-01    5.3945248721E-01
    5.5394751860E-01    5.6845948769E-01    5.8298160301E-01    5.9750643120E-01
    6.1202592576E-01    6.2653146167E-01    6.4101387570E-01    6.5546351170E-01
    6.6987027039E-01    6.8422366291E-01    6.9851286753E-01    7.1272678861E-01
    7.2685411711E-01    7.4088339186E-01    7.5480306062E-01    7.6860154021E-01
    7.8226727491E-01    7.9578879223E-01    8.0915475538E-01    8.2235401171E-01
    8.3537563648E-01    8.4820897136E-01    8.6084365724E-01    8.7326966081E-01
    8.8547729479E-01    8.9745723139E-01    9.0920050905E-01    9.2069853241E-01
    9.3194306558E-01    9.4292621902E-01    9.5364043018E-01    9.6407843858E-01
    9.7423325558E-01    9.8409812962E-01    9.9366650754E-01    1.0029319928E+00
    1.0118883011E+00    1.0205292152E+00    1.0288485385E+00    1.0368400489E+00
    1.0444974548E+00    1.0518143526E+00    1.0587841872E+00    1.0654002173E+00
    1.0716554847E+00    1.0775427892E+00    1.0830546709E+00    1.0881833977E+00
    1.0929209616E+00    1.0972590823E+00    1.1011892185E+00    1.1047025883E+00
    1.1077901976E+00    1.1104428766E+00    1.1126513248E+00    1.1144061637E+00
    1.1156979968E+00    1.1165174764E+00    1.1168553770E+00    1.1167026734E+00
    1.1160506240E+00    1.1148908574E+00    1.1132154618E+00    1.1110170755E+00
    1.1082889783E+00    1.1050251819E+00    1.1012205184E+00    1.0968707260E+00
    1.0919725299E+00    1.0865237186E+00    1.0805232135E+00    1.0739711308E+00
    1.0668688359E+00    1.0592189882E+00    1.0510255757E+00    1.0422939403E+00
    1.0330307913E+00    1.0232442079E+00    1.0129436304E+00    1.0021398397E+00
    9.9084492560E-01    9.7907224405E-01    9.6683636301E-01    9.5415299864E-01
    9.4103894152E-01    9.2751197410E-01    9.1359078017E-01    8.9929484730E-01
    8.8464436341E-01    8.6966010864E-01    8.5436334374E-01    8.3877569615E-01
    8.2291904536E-01    8.0681540856E-01    7.9048682818E-01    7.7395526242E-01
    7.5724248021E-01    7.4036996168E-01    7.2335880544E-01    7.0622964352E-01
    6.8900256521E-01    6.7169705040E-01    6.5433191332E-01    6.3692525721E-01
    6.1949444037E-01    6.0205605400E-01    5.8462591182E-01    5.6721905170E-01
    5.4984974901E-01    5.3253154143E-01    5.1527726492E-01    4.9809910007E-01
    4.8100862834E-01    4.6401689730E-01    4.4713449395E-01    4.3037162510E-01
    4.1373820373E-01    3.9724394027E-01    3.8089843745E-01    3.6471128756E-01
    3.4869217090E-01    3.3285095420E-01    3.1719778768E-01    3.0174319968E-01
    2.8649818771E-01    2.7147430483E-01    2.5668374042E-01    2.4213939449E-01
    2.2785494464E-01    2.1384490522E-01    2.0012467798E-01    1.8671059394E-01
    1.7361994634E-01    1.6087101436E-01    1.4848306999E-01    1.3647641665E-01
    1.2487213865E-01    1.1369104298E-01    1.0295282662E-01    9.2676053532E-02
    8.2878124818E-02    7.3575250281E-02    6.4782414970E-02    5.6513341821E-02
    4.8780454993E-02    4.1594809710E-02    3.4966138179E-02    2.8902666634E-02
    2.3408845942E-02    1.8486596025E-02    1.4141885271E-02    1.0378737947E-02
    7.1993123676E-03    4.6038538508E-03    2.5915260430E-03    1.1526975137E-03
    3.0020024672E-04    2.5979905833E-06   -7.1259044793E-06    4.6158929000E-06
   -1.0154558887E-06   -4.0858491539E-12    0.0000000000E+00    0.0000000000E+00
    0.0000000000E+00    0.0000000000E+00    0.0000000000E+00    0.0000000000E+00
    0.0000000000E+00    0.0000000000E+00    0.0000000000E+00    0.0000000000E+00
    0.0000000000E+00    0.0000000000E+00    0.0000000000E+00    0.0000000000E+00
    0.0000000000E+00    0.0000000000E+00    0.0000000000E+00    0.0000000000E+00
    0.0000000000E+00    0.0000000000E+00    0.0000000000E+00    0.0000000000E+00
 0. 0. 0. 0.
 0. 0. 0. 0.
 0. 0. 0. 0.
 0. 0. 0. 0.
 0. 0. 0. 0.
 0. 0. 0. 0.
 0. 0. 0. 0.
 0. 0. 0. 0.
 0. 0. 0. 0.
 0. 0. 0. 0.
 0. 0. 0. 0.
 0. 0. 0. 0.
 0. 0. 0. 0.
 0. 0. 0. 0.
 0. 0. 0. 0.
 0. 0. 0. 0.
 0. 0. 0. 0.
 0. 0. 0. 0.
 0. 0. 0. 0.
 0. 0. 0. 0.
 0. 0. 0. 0.
 0. 0. 0. 0.
 0. 0. 0. 0.
 0. 0. 0. 0.
 0. 0. 0. 0.
 0. 0. 0. 0.
 0. 0. 0. 0.
 0. 0. 0. 0.
 0. 0. 0. 0.
 0. 0. 0. 0.
 0. 0. 0. 0.
 0. 0. 0. 0.
 0. 0. 0. 0.
 0. 0. 0. 0.
 0. 0. 0. 0.
 0. 0. 0. 0.
 0. 0. 0. 0.
 0. 0. 0. 0.
 0. 0. 0. 0.
 0. 0. 0. 0.
 0. 0. 0. 0.
 0. 0. 0. 0.
 0. 0. 0. 0.
 0. 0. 0. 0.
 0. 0. 0. 0.
 0. 0. 0. 0.
 0. 0. 0. 0.
 0. 0. 0. 0.
 0. 0. 0. 0.
 0. 0. 0. 0.
 0. 0. 0. 0.
 0. 0. 0. 0.
 0. 0. 0. 0.
 0. 0. 0. 0.
 0. 0. 0. 0.
 0. 0. 0. 0.
 0. 0. 0. 0.
 0. 0. 0. 0.
 0. 0. 0. 0.
 0. 0. 0. 0.
 0. 0. 0. 0.
 0. 0. 0. 0.
 0. 0. 0. 0.
 0. 0. 0. 0.
 0. 0. 0. 0.
 0. 0. 0. 0.
 0. 0. 0. 0.
 0. 0. 0. 0.
 0. 0. 0. 0.
 0. 0. 0. 0.
 0. 0. 0. 0.
 0. 0. 0. 0.
 0. 0. 0. 0.
 0. 0. 0. 0.
 0. 0. 0. 0.
 0. 0. 0. 0.
 0. 0. 0. 0.
 0. 0. 0. 0.
 0. 0. 0. 0.
 0. 0. 0. 0.
 0. 0. 0. 0.
 0. 0. 0. 0.
 0. 0. 0. 0.
 0. 0. 0. 0.
 0. 0. 0. 0.
 0. 0. 0. 0.
 0. 0. 0. 0.
 0. 0. 0. 0.
 0. 0. 0. 0.
 0. 0. 0. 0.
 0. 0. 0. 0.
 0. 0. 0. 0.
 0. 0. 0. 0.
 0. 0. 0. 0.
 0. 0. 0. 0.
 0. 0. 0. 0.
 0. 0. 0. 0.
 0. 0. 0. 0.
 0. 0. 0. 0.
 0. 0. 0. 0.
 0. 0. 0. 0.
 0. 0. 0. 0.
 0. 0. 0. 0.
 0. 0. 0. 0.
 0. 0. 0. 0.
 0. 0. 0. 0.
 0. 0. 0. 0.
 0. 0. 0. 0.
 0. 0. 0. 0.
 0. 0. 0. 0.
 0. 0. 0. 0.
 0. 0. 0. 0.
 0. 0. 0. 0.
 0. 0. 0. 0.
 0. 0. 0. 0.
 0. 0. 0. 0.
 0. 0. 0. 0.
 0. 0. 0. 0.
 0. 0. 0. 0.
 0. 0. 0. 0.
 0. 0. 0. 0.
 0. 0. 0. 0.
 0. 0. 0. 0.
 0. 0. 0. 0.
 0. 0. 0. 0.
 0. 0. 0. 0.
 0. 0. 0. 0.
 0. 0. 0. 0.
 0. 0. 0. 0.
 0. 0. 0. 0.
 0. 0. 0. 0.
 0. 0. 0. 0.
 0. 0. 0. 0.
 0. 0. 0. 0.
 0. 0. 0. 0.
 0. 0. 0. 0.
 0. 0. 0. 0.
 0. 0. 0. 0.
 0. 0. 0. 0.
 0. 0. 0. 0.
 0. 0. 0. 0.
 0. 0. 0. 0.
 0. 0. 0. 0.
 0. 0. 0. 0.
 0. 0. 0. 0.
 0. 0. 0. 0.
 0. 0. 0. 0.
 0. 0. 0. 0.
 0. 0. 0. 0.
 0. 0. 0. 0.
 0. 0. 0. 0.
 0. 0. 0. 0.
 0. 0. 0. 0.
 0. 0. 0. 0.
 0. 0. 0. 0.
 0. 0. 0. 0.
 0. 0. 0. 0.
 0. 0. 0. 0.
 0. 0. 0. 0.
 0. 0. 0. 0.
 0. 0. 0. 0.
 0. 0. 0. 0.
 0. 0. 0. 0.
 0. 0. 0. 0.
 0. 0. 0. 0.
 0. 0. 0. 0.
 0. 0. 0. 0.
 0. 0. 0. 0.
 0. 0. 0. 0.
 0. 0. 0. 0.
 0. 0. 0. 0.
 0. 0. 0. 0.
 0. 0. 0. 0.
 0. 0. 0. 0.
 0. 0. 0. 0.
 0. 0. 0. 0.
 0. 0. 0. 0.
 0. 0. 0. 0.
 0. 0. 0. 0.
 0. 0. 0. 0.
 0. 0. 0. 0.
 0. 0. 0. 0.
 0. 0. 0. 0.
 0. 0. 0. 0.
 0. 0. 0. 0.
 0. 0. 0. 0.
 0. 0. 0. 0.
 0. 0. 0. 0.
 0. 0. 0. 0.
 0. 0. 0. 0.
 0. 0. 0. 0.
 0. 0. 0. 0.
 0. 0. 0. 0.
 0. 0. 0. 0.
 0. 0. 0. 0.
 0. 0. 0. 0.
 0. 0. 0. 0.
 0. 0. 0. 0.
 0. 0. 0. 0.
 0. 0. 0. 0.
 0. 0. 0. 0.
 0. 0. 0. 0.
 0. 0. 0. 0.
 0. 0. 0. 0.
 0. 0. 0. 0.
 0. 0. 0. 0.
 0. 0. 0. 0.
 0. 0. 0. 0.
 0. 0. 0. 0.
 0. 0. 0. 0.
 0. 0. 0. 0.
 0. 0. 0. 0.
 0. 0. 0. 0.
 0. 0. 0. 0.
 0. 0. 0. 0.
 0. 0. 0. 0.
 0. 0. 0. 0.
 0. 0. 0. 0.
 0. 0. 0. 0.
 0. 0. 0. 0.
 0. 0. 0. 0.
 0. 0. 0. 0.
 0. 0. 0. 0.
 0. 0. 0. 0.
 0. 0. 0. 0.
 0. 0. 0. 0.
 0. 0. 0. 0.
 0. 0. 0. 0.
 0. 0. 0. 0.
 0. 0. 0. 0.
 0. 0. 0. 0.
 0. 0. 0. 0.
 0. 0. 0. 0.
 0. 0. 0. 0.
 0. 0. 0. 0.
 0. 0. 0. 0.
 0. 0. 0. 0.
 0. 0. 0. 0.
 0. 0. 0. 0.
 0. 0. 0. 0.
 0. 0. 0. 0.
 0. 0. 0. 0.
 0. 0. 0. 0.
 0. 0. 0. 0.
 0. 0. 0. 0.
 0. 0. 0. 0.
 0. 0. 0. 0.
 0. 0. 0. 0.
 0. 0. 0. 0.
 0. 0. 0. 0.
 0. 0. 0. 0.
 0. 0. 0. 0.
 0. 0. 0. 0.
 0. 0. 0. 0.
 0. 0. 0. 0.
   </PP_BETA.2>
   <PP_BETA.3
       type="real"
       size="1244"
       columns="4"
       index="3"
       angular_momentum="1"
       cutoff_radius_index=" 224"
       cutoff_radius="    2.2300000000E+00" >
    3.6609240917E-09    1.8924094056E-03    7.5564772210E-03    1.6952862777E-02
    3.0016464630E-02    4.6657112711E-02    6.6760522760E-02    9.0189498746E-02
    1.1678536535E-01    1.4636960917E-01    1.7874570442E-01    2.1370109612E-01
    2.5100931191E-01    2.9043217171E-01    3.3172206352E-01    3.7462425291E-01
    4.1887919393E-01    4.6422480933E-01    5.1039870927E-01    5.5714031927E-01
    6.0419288972E-01    6.5130536248E-01    6.9823407210E-01    7.4474426320E-01
    7.9061140835E-01    8.3562231507E-01    8.7957601411E-01    9.2228442522E-01
    9.6357280071E-01    1.0032799509E+00    1.0412582596E+00    1.0773735007E+00
    1.1115044721E+00    1.1435424630E+00    1.1733905778E+00    1.2009629373E+00
    1.2261837837E+00    1.2489865144E+00    1.2693126728E+00    1.2871109225E+00
    1.3023360317E+00    1.3149478961E+00    1.3249106225E+00    1.3321916991E+00
    1.3367612720E+00    1.3385915473E+00    1.3376563343E+00    1.3339307419E+00
    1.3273910374E+00    1.3180146728E+00    1.3057804802E+00    1.2906690333E+00
    1.2726631696E+00    1.2517486626E+00    1.2279150316E+00    1.2011564713E+00
    1.1714728820E+00    1.1388709784E+00    1.1033654522E+00    1.0649801624E+00
    1.0237493257E+00    9.7971867883E-01    9.3294658470E-01    8.8350505373E-01
    8.3148065387E-01    7.7697528301E-01    7.2010678029E-01    6.6100935472E-01
    5.9983381268E-01    5.3674756880E-01    4.7193442860E-01    4.0559413488E-01
    3.3794167400E-01    2.6920634229E-01    1.9963057733E-01    1.2946856257E-01
    5.8984618446E-02   -1.1548603237E-02   -8.1852101043E-02   -1.5164265773E-01
   -2.2063509906E-01   -2.8854464791E-01   -3.5508934185E-01   -4.1999248067E-01
   -4.8298506932E-01   -5.4380822133E-01   -6.0221548766E-01   -6.5797507686E-01
   -7.1087193347E-01   -7.6070964381E-01   -8.0731214024E-01   -8.5052517826E-01
   -8.9021756407E-01   -9.2628211382E-01   -9.5863633018E-01   -9.8722278600E-01
   -1.0120092095E+00   -1.0329882701E+00   -1.0501770691E+00   -1.0636163429E+00
   -1.0733693930E+00   -1.0795207597E+00   -1.0821746611E+00   -1.0814532227E+00
   -1.0774945266E+00   -1.0704505115E+00   -1.0604847574E+00   -1.0477701904E+00
   -1.0324867447E+00   -1.0148190185E+00   -9.9495396120E-01   -9.7307862824E-01
   -9.4937803823E-01   -9.2403316570E-01   -8.9721909962E-01   -8.6910339507E-01
   -8.3984464193E-01   -8.0959127027E-01   -7.7848060798E-01   -7.4663820156E-01
   -7.1417740622E-01   -6.8119924653E-01   -6.4779254403E-01   -6.1403430332E-01
   -5.7999034350E-01   -5.4571615739E-01   -5.1125797686E-01   -4.7665401873E-01
   -4.4193588266E-01   -4.0713006942E-01   -3.7225958585E-01   -3.3734560128E-01
   -3.0240911911E-01   -2.6747262700E-01   -2.3256168945E-01   -1.9770644765E-01
   -1.6294299301E-01   -1.2831458323E-01   -9.3872672389E-02   -5.9677730167E-02
   -2.5799829049E-02    7.6810174577E-03    4.0674777836E-02    7.3081594294E-02
    1.0479224571E-01    1.3568887924E-01    1.6564600285E-01    1.9453172640E-01
    2.2220923377E-01    2.4853846438E-01    2.7337797818E-01    2.9658697472E-01
    3.1802743339E-01    3.3756633984E-01    3.5507796125E-01    3.7044613189E-01
    3.8356650992E-01    3.9434876628E-01    4.0271866746E-01    4.0862001513E-01
    4.1201640819E-01    4.1289279505E-01    4.1125678778E-01    4.0713971332E-01
    4.0059738166E-01    3.9171055529E-01    3.8058510967E-01    3.6735187959E-01
    3.5216619191E-01    3.3520709051E-01    3.1667626489E-01    2.9679669924E-01
    2.7581106529E-01    2.5397988404E-01    2.3157941842E-01    2.0889975837E-01
    1.8624033783E-01    1.6389820572E-01    1.4215770037E-01    1.2128715918E-01
    1.0153566342E-01    8.3121223058E-02    6.6200541670E-02    5.0952096817E-02
    3.7542344839E-02    2.6097221075E-02    1.6704792136E-02    9.4150865400E-03
    4.2225879565E-03    1.1250108930E-03    2.7367458039E-05   -2.4374063162E-05
    1.4112490940E-05   -3.1666667982E-06    1.3222882084E-10    0.0000000000E+00
    0.0000000000E+00    0.0000000000E+00    0.0000000000E+00    0.0000000000E+00
    0.0000000000E+00    0.0000000000E+00    0.0000000000E+00    0.0000000000E+00
    0.0000000000E+00    0.0000000000E+00    0.0000000000E+00    0.0000000000E+00
    0.0000000000E+00    0.0000000000E+00    0.0000000000E+00    0.0000000000E+00
    0.0000000000E+00    0.0000000000E+00    0.0000000000E+00    0.0000000000E+00
    0.0000000000E+00    0.0000000000E+00    0.0000000000E+00    0.0000000000E+00
    0.0000000000E+00    0.0000000000E+00    0.0000000000E+00    0.0000000000E+00
 0. 0. 0. 0.
 0. 0. 0. 0.
 0. 0. 0. 0.
 0. 0. 0. 0.
 0. 0. 0. 0.
 0. 0. 0. 0.
 0. 0. 0. 0.
 0. 0. 0. 0.
 0. 0. 0. 0.
 0. 0. 0. 0.
 0. 0. 0. 0.
 0. 0. 0. 0.
 0. 0. 0. 0.
 0. 0. 0. 0.
 0. 0. 0. 0.
 0. 0. 0. 0.
 0. 0. 0. 0.
 0. 0. 0. 0.
 0. 0. 0. 0.
 0. 0. 0. 0.
 0. 0. 0. 0.
 0. 0. 0. 0.
 0. 0. 0. 0.
 0. 0. 0. 0.
 0. 0. 0. 0.
 0. 0. 0. 0.
 0. 0. 0. 0.
 0. 0. 0. 0.
 0. 0. 0. 0.
 0. 0. 0. 0.
 0. 0. 0. 0.
 0. 0. 0. 0.
 0. 0. 0. 0.
 0. 0. 0. 0.
 0. 0. 0. 0.
 0. 0. 0. 0.
 0. 0. 0. 0.
 0. 0. 0. 0.
 0. 0. 0. 0.
 0. 0. 0. 0.
 0. 0. 0. 0.
 0. 0. 0. 0.
 0. 0. 0. 0.
 0. 0. 0. 0.
 0. 0. 0. 0.
 0. 0. 0. 0.
 0. 0. 0. 0.
 0. 0. 0. 0.
 0. 0. 0. 0.
 0. 0. 0. 0.
 0. 0. 0. 0.
 0. 0. 0. 0.
 0. 0. 0. 0.
 0. 0. 0. 0.
 0. 0. 0. 0.
 0. 0. 0. 0.
 0. 0. 0. 0.
 0. 0. 0. 0.
 0. 0. 0. 0.
 0. 0. 0. 0.
 0. 0. 0. 0.
 0. 0. 0. 0.
 0. 0. 0. 0.
 0. 0. 0. 0.
 0. 0. 0. 0.
 0. 0. 0. 0.
 0. 0. 0. 0.
 0. 0. 0. 0.
 0. 0. 0. 0.
 0. 0. 0. 0.
 0. 0. 0. 0.
 0. 0. 0. 0.
 0. 0. 0. 0.
 0. 0. 0. 0.
 0. 0. 0. 0.
 0. 0. 0. 0.
 0. 0. 0. 0.
 0. 0. 0. 0.
 0. 0. 0. 0.
 0. 0. 0. 0.
 0. 0. 0. 0.
 0. 0. 0. 0.
 0. 0. 0. 0.
 0. 0. 0. 0.
 0. 0. 0. 0.
 0. 0. 0. 0.
 0. 0. 0. 0.
 0. 0. 0. 0.
 0. 0. 0. 0.
 0. 0. 0. 0.
 0. 0. 0. 0.
 0. 0. 0. 0.
 0. 0. 0. 0.
 0. 0. 0. 0.
 0. 0. 0. 0.
 0. 0. 0. 0.
 0. 0. 0. 0.
 0. 0. 0. 0.
 0. 0. 0. 0.
 0. 0. 0. 0.
 0. 0. 0. 0.
 0. 0. 0. 0.
 0. 0. 0. 0.
 0. 0. 0. 0.
 0. 0. 0. 0.
 0. 0. 0. 0.
 0. 0. 0. 0.
 0. 0. 0. 0.
 0. 0. 0. 0.
 0. 0. 0. 0.
 0. 0. 0. 0.
 0. 0. 0. 0.
 0. 0. 0. 0.
 0. 0. 0. 0.
 0. 0. 0. 0.
 0. 0. 0. 0.
 0. 0. 0. 0.
 0. 0. 0. 0.
 0. 0. 0. 0.
 0. 0. 0. 0.
 0. 0. 0. 0.
 0. 0. 0. 0.
 0. 0. 0. 0.
 0. 0. 0. 0.
 0. 0. 0. 0.
 0. 0. 0. 0.
 0. 0. 0. 0.
 0. 0. 0. 0.
 0. 0. 0. 0.
 0. 0. 0. 0.
 0. 0. 0. 0.
 0. 0. 0. 0.
 0. 0. 0. 0.
 0. 0. 0. 0.
 0. 0. 0. 0.
 0. 0. 0. 0.
 0. 0. 0. 0.
 0. 0. 0. 0.
 0. 0. 0. 0.
 0. 0. 0. 0.
 0. 0. 0. 0.
 0. 0. 0. 0.
 0. 0. 0. 0.
 0. 0. 0. 0.
 0. 0. 0. 0.
 0. 0. 0. 0.
 0. 0. 0. 0.
 0. 0. 0. 0.
 0. 0. 0. 0.
 0. 0. 0. 0.
 0. 0. 0. 0.
 0. 0. 0. 0.
 0. 0. 0. 0.
 0. 0. 0. 0.
 0. 0. 0. 0.
 0. 0. 0. 0.
 0. 0. 0. 0.
 0. 0. 0. 0.
 0. 0. 0. 0.
 0. 0. 0. 0.
 0. 0. 0. 0.
 0. 0. 0. 0.
 0. 0. 0. 0.
 0. 0. 0. 0.
 0. 0. 0. 0.
 0. 0. 0. 0.
 0. 0. 0. 0.
 0. 0. 0. 0.
 0. 0. 0. 0.
 0. 0. 0. 0.
 0. 0. 0. 0.
 0. 0. 0. 0.
 0. 0. 0. 0.
 0. 0. 0. 0.
 0. 0. 0. 0.
 0. 0. 0. 0.
 0. 0. 0. 0.
 0. 0. 0. 0.
 0. 0. 0. 0.
 0. 0. 0. 0.
 0. 0. 0. 0.
 0. 0. 0. 0.
 0. 0. 0. 0.
 0. 0. 0. 0.
 0. 0. 0. 0.
 0. 0. 0. 0.
 0. 0. 0. 0.
 0. 0. 0. 0.
 0. 0. 0. 0.
 0. 0. 0. 0.
 0. 0. 0. 0.
 0. 0. 0. 0.
 0. 0. 0. 0.
 0. 0. 0. 0.
 0. 0. 0. 0.
 0. 0. 0. 0.
 0. 0. 0. 0.
 0. 0. 0. 0.
 0. 0. 0. 0.
 0. 0. 0. 0.
 0. 0. 0. 0.
 0. 0. 0. 0.
 0. 0. 0. 0.
 0. 0. 0. 0.
 0. 0. 0. 0.
 0. 0. 0. 0.
 0. 0. 0. 0.
 0. 0. 0. 0.
 0. 0. 0. 0.
 0. 0. 0. 0.
 0. 0. 0. 0.
 0. 0. 0. 0.
 0. 0. 0. 0.
 0. 0. 0. 0.
 0. 0. 0. 0.
 0. 0. 0. 0.
 0. 0. 0. 0.
 0. 0. 0. 0.
 0. 0. 0. 0.
 0. 0. 0. 0.
 0. 0. 0. 0.
 0. 0. 0. 0.
 0. 0. 0. 0.
 0. 0. 0. 0.
 0. 0. 0. 0.
 0. 0. 0. 0.
 0. 0. 0. 0.
 0. 0. 0. 0.
 0. 0. 0. 0.
 0. 0. 0. 0.
 0. 0. 0. 0.
 0. 0. 0. 0.
 0. 0. 0. 0.
 0. 0. 0. 0.
 0. 0. 0. 0.
 0. 0. 0. 0.
 0. 0. 0. 0.
 0. 0. 0. 0.
 0. 0. 0. 0.
 0. 0. 0. 0.
 0. 0. 0. 0.
 0. 0. 0. 0.
 0. 0. 0. 0.
 0. 0. 0. 0.
 0. 0. 0. 0.
 0. 0. 0. 0.
 0. 0. 0. 0.
 0. 0. 0. 0.
 0. 0. 0. 0.
 0. 0. 0. 0.
 0. 0. 0. 0.
 0. 0. 0. 0.
 0. 0. 0. 0.
 0. 0. 0. 0.
 0. 0. 0. 0.
   </PP_BETA.3>
   <PP_BETA.4
       type="real"
       size="1244"
       columns="4"
       index="4"
       angular_momentum="1"
       cutoff_radius_index=" 224"
       cutoff_radius="    2.2300000000E+00" >
   -1.7254570689E-10    3.9113969706E-04    1.5645847635E-03    3.5204068376E-03
    6.2587044576E-03    9.7795721211E-03    1.4083057657E-02    1.9169108582E-02
    2.5037508297E-02    3.1687803113E-02    3.9119221268E-02    4.7330585194E-02
    5.6320218401E-02    6.6085848418E-02    7.6624507295E-02    8.7932431172E-02
    1.0000496045E-01    1.1283644206E-01    1.2642013527E-01    1.4074812238E-01
    1.5581122570E-01    1.7159893182E-01    1.8809932429E-01    2.0529902559E-01
    2.2318314917E-01    2.4173526194E-01    2.6093735780E-01    2.8076984230E-01
    3.0121152837E-01    3.2223964321E-01    3.4382984576E-01    3.6595625438E-01
    3.8859148424E-01    4.1170669335E-01    4.3527163678E-01    4.5925472776E-01
    4.8362310484E-01    5.0834270402E-01    5.3337833471E-01    5.5869375845E-01
    5.8425176944E-01    6.1001427564E-01    6.3594237974E-01    6.6199645899E-01
    6.8813624322E-01    7.1432089034E-01    7.4050905898E-01    7.6665897771E-01
    7.9272851092E-01    8.1867522103E-01    8.4445642733E-01    8.7002926172E-01
    8.9535072165E-01    9.2037772090E-01    9.4506713877E-01    9.6937586858E-01
    9.9326086619E-01    1.0166791996E+00    1.0395881003E+00    1.0619450179E+00
    1.0837076783E+00    1.1048341468E+00    1.1252828970E+00    1.1450128857E+00
    1.1639836360E+00    1.1821553265E+00    1.1994888900E+00    1.2159461194E+00
    1.2314897829E+00    1.2460837461E+00    1.2596931032E+00    1.2722843143E+00
    1.2838253497E+00    1.2942858396E+00    1.3036372276E+00    1.3118529276E+00
    1.3189084816E+00    1.3247817177E+00    1.3294529054E+00    1.3329049069E+00
    1.3351233228E+00    1.3360966294E+00    1.3358163064E+00    1.3342769515E+00
    1.3314763826E+00    1.3274157228E+00    1.3220994692E+00    1.3155355411E+00
    1.3077353098E+00    1.2987136052E+00    1.2884887013E+00    1.2770822777E+00
    1.2645193591E+00    1.2508282302E+00    1.2360403282E+00    1.2201901136E+00
    1.2033149176E+00    1.1854547710E+00    1.1666522135E+00    1.1469520853E+00
    1.1264013047E+00    1.1050486317E+00    1.0829444218E+00    1.0601403716E+00
    1.0366892589E+00    1.0126446807E+00    9.8806079072E-01    9.6299204132E-01
    9.3749292970E-01    9.1161775359E-01    8.8542037756E-01    8.5895401275E-01
    8.3227101211E-01    8.0542268297E-01    7.7845911870E-01    7.5142905060E-01
    7.2437972127E-01    6.9735677979E-01    6.7040419931E-01    6.4356421682E-01
    6.1687729478E-01    5.9038210372E-01    5.6411552490E-01    5.3811267146E-01
    5.1240692644E-01    4.8702999560E-01    4.6201197300E-01    4.3738141674E-01
    4.1316543246E-01    3.8938976192E-01    3.6607887393E-01    3.4325605494E-01
    3.2094349656E-01    2.9916237751E-01    2.7793293755E-01    2.5727454102E-01
    2.3720572805E-01    2.1774425174E-01    1.9890709966E-01    1.8071049866E-01
    1.6316990227E-01    1.4629996012E-01    1.3011446959E-01    1.1462630983E-01
    9.9847359178E-02    8.5788396988E-02    7.2458991448E-02    5.9867375293E-02
    4.8020311614E-02    3.6922952260E-02    2.6578691583E-02    1.6989018484E-02
    8.1533698477E-03    6.8988596278E-05   -7.2692103966E-03   -1.3868763278E-02
   -1.9739765894E-02   -2.4894965116E-02   -2.9349829936E-02   -3.3122599688E-02
   -3.6234307031E-02   -3.8708773671E-02   -4.0572577157E-02   -4.1854987525E-02
   -4.2587872966E-02   -4.2805574207E-02   -4.2544747731E-02   -4.1844178496E-02
   -4.0744563271E-02   -3.9288266222E-02   -3.7519048848E-02   -3.5481776803E-02
   -3.3222106653E-02   -3.0786155877E-02   -2.8220156622E-02   -2.5570116574E-02
   -2.2881365199E-02   -2.0197768606E-02   -1.7560989504E-02   -1.5010067089E-02
   -1.2581011031E-02   -1.0305803103E-02   -8.2101734615E-03   -6.3192724856E-03
   -4.6551084049E-03   -3.2344340426E-03   -2.0688633783E-03   -1.1648989064E-03
   -5.2179644810E-04   -1.3880582173E-04   -3.3742354123E-06    2.9986997189E-06
   -1.7386746754E-06    3.9062234726E-07   -3.3361304776E-12    0.0000000000E+00
    0.0000000000E+00    0.0000000000E+00    0.0000000000E+00    0.0000000000E+00
    0.0000000000E+00    0.0000000000E+00    0.0000000000E+00    0.0000000000E+00
    0.0000000000E+00    0.0000000000E+00    0.0000000000E+00    0.0000000000E+00
    0.0000000000E+00    0.0000000000E+00    0.0000000000E+00    0.0000000000E+00
    0.0000000000E+00    0.0000000000E+00    0.0000000000E+00    0.0000000000E+00
    0.0000000000E+00    0.0000000000E+00    0.0000000000E+00    0.0000000000E+00
    0.0000000000E+00    0.0000000000E+00    0.0000000000E+00    0.0000000000E+00
 0. 0. 0. 0.
 0. 0. 0. 0.
 0. 0. 0. 0.
 0. 0. 0. 0.
 0. 0. 0. 0.
 0. 0. 0. 0.
 0. 0. 0. 0.
 0. 0. 0. 0.
 0. 0. 0. 0.
 0. 0. 0. 0.
 0. 0. 0. 0.
 0. 0. 0. 0.
 0. 0. 0. 0.
 0. 0. 0. 0.
 0. 0. 0. 0.
 0. 0. 0. 0.
 0. 0. 0. 0.
 0. 0. 0. 0.
 0. 0. 0. 0.
 0. 0. 0. 0.
 0. 0. 0. 0.
 0. 0. 0. 0.
 0. 0. 0. 0.
 0. 0. 0. 0.
 0. 0. 0. 0.
 0. 0. 0. 0.
 0. 0. 0. 0.
 0. 0. 0. 0.
 0. 0. 0. 0.
 0. 0. 0. 0.
 0. 0. 0. 0.
 0. 0. 0. 0.
 0. 0. 0. 0.
 0. 0. 0. 0.
 0. 0. 0. 0.
 0. 0. 0. 0.
 0. 0. 0. 0.
 0. 0. 0. 0.
 0. 0. 0. 0.
 0. 0. 0. 0.
 0. 0. 0. 0.
 0. 0. 0. 0.
 0. 0. 0. 0.
 0. 0. 0. 0.
 0. 0. 0. 0.
 0. 0. 0. 0.
 0. 0. 0. 0.
 0. 0. 0. 0.
 0. 0. 0. 0.
 0. 0. 0. 0.
 0. 0. 0. 0.
 0. 0. 0. 0.
 0. 0. 0. 0.
 0. 0. 0. 0.
 0. 0. 0. 0.
 0. 0. 0. 0.
 0. 0. 0. 0.
 0. 0. 0. 0.
 0. 0. 0. 0.
 0. 0. 0. 0.
 0. 0. 0. 0.
 0. 0. 0. 0.
 0. 0. 0. 0.
 0. 0. 0. 0.
 0. 0. 0. 0.
 0. 0. 0. 0.
 0. 0. 0. 0.
 0. 0. 0. 0.
 0. 0. 0. 0.
 0. 0. 0. 0.
 0. 0. 0. 0.
 0. 0. 0. 0.
 0. 0. 0. 0.
 0. 0. 0. 0.
 0. 0. 0. 0.
 0. 0. 0. 0.
 0. 0. 0. 0.
 0. 0. 0. 0.
 0. 0. 0. 0.
 0. 0. 0. 0.
 0. 0. 0. 0.
 0. 0. 0. 0.
 0. 0. 0. 0.
 0. 0. 0. 0.
 0. 0. 0. 0.
 0. 0. 0. 0.
 0. 0. 0. 0.
 0. 0. 0. 0.
 0. 0. 0. 0.
 0. 0. 0. 0.
 0. 0. 0. 0.
 0. 0. 0. 0.
 0. 0. 0. 0.
 0. 0. 0. 0.
 0. 0. 0. 0.
 0. 0. 0. 0.
 0. 0. 0. 0.
 0. 0. 0. 0.
 0. 0. 0. 0.
 0. 0. 0. 0.
 0. 0. 0. 0.
 0. 0. 0. 0.
 0. 0. 0. 0.
 0. 0. 0. 0.
 0. 0. 0. 0.
 0. 0. 0. 0.
 0. 0. 0. 0.
 0. 0. 0. 0.
 0. 0. 0. 0.
 0. 0. 0. 0.
 0. 0. 0. 0.
 0. 0. 0. 0.
 0. 0. 0. 0.
 0. 0. 0. 0.
 0. 0. 0. 0.
 0. 0. 0. 0.
 0. 0. 0. 0.
 0. 0. 0. 0.
 0. 0. 0. 0.
 0. 0. 0. 0.
 0. 0. 0. 0.
 0. 0. 0. 0.
 0. 0. 0. 0.
 0. 0. 0. 0.
 0. 0. 0. 0.
 0. 0. 0. 0.
 0. 0. 0. 0.
 0. 0. 0. 0.
 0. 0. 0. 0.
 0. 0. 0. 0.
 0. 0. 0. 0.
 0. 0. 0. 0.
 0. 0. 0. 0.
 0. 0. 0. 0.
 0. 0. 0. 0.
 0. 0. 0. 0.
 0. 0. 0. 0.
 0. 0. 0. 0.
 0. 0. 0. 0.
 0. 0. 0. 0.
 0. 0. 0. 0.
 0. 0. 0. 0.
 0. 0. 0. 0.
 0. 0. 0. 0.
 0. 0. 0. 0.
 0. 0. 0. 0.
 0. 0. 0. 0.
 0. 0. 0. 0.
 0. 0. 0. 0.
 0. 0. 0. 0.
 0. 0. 0. 0.
 0. 0. 0. 0.
 0. 0. 0. 0.
 0. 0. 0. 0.
 0. 0. 0. 0.
 0. 0. 0. 0.
 0. 0. 0. 0.
 0. 0. 0. 0.
 0. 0. 0. 0.
 0. 0. 0. 0.
 0. 0. 0. 0.
 0. 0. 0. 0.
 0. 0. 0. 0.
 0. 0. 0. 0.
 0. 0. 0. 0.
 0. 0. 0. 0.
 0. 0. 0. 0.
 0. 0. 0. 0.
 0. 0. 0. 0.
 0. 0. 0. 0.
 0. 0. 0. 0.
 0. 0. 0. 0.
 0. 0. 0. 0.
 0. 0. 0. 0.
 0. 0. 0. 0.
 0. 0. 0. 0.
 0. 0. 0. 0.
 0. 0. 0. 0.
 0. 0. 0. 0.
 0. 0. 0. 0.
 0. 0. 0. 0.
 0. 0. 0. 0.
 0. 0. 0. 0.
 0. 0. 0. 0.
 0. 0. 0. 0.
 0. 0. 0. 0.
 0. 0. 0. 0.
 0. 0. 0. 0.
 0. 0. 0. 0.
 0. 0. 0. 0.
 0. 0. 0. 0.
 0. 0. 0. 0.
 0. 0. 0. 0.
 0. 0. 0. 0.
 0. 0. 0. 0.
 0. 0. 0. 0.
 0. 0. 0. 0.
 0. 0. 0. 0.
 0. 0. 0. 0.
 0. 0. 0. 0.
 0. 0. 0. 0.
 0. 0. 0. 0.
 0. 0. 0. 0.
 0. 0. 0. 0.
 0. 0. 0. 0.
 0. 0. 0. 0.
 0. 0. 0. 0.
 0. 0. 0. 0.
 0. 0. 0. 0.
 0. 0. 0. 0.
 0. 0. 0. 0.
 0. 0. 0. 0.
 0. 0. 0. 0.
 0. 0. 0. 0.
 0. 0. 0. 0.
 0. 0. 0. 0.
 0. 0. 0. 0.
 0. 0. 0. 0.
 0. 0. 0. 0.
 0. 0. 0. 0.
 0. 0. 0. 0.
 0. 0. 0. 0.
 0. 0. 0. 0.
 0. 0. 0. 0.
 0. 0. 0. 0.
 0. 0. 0. 0.
 0. 0. 0. 0.
 0. 0. 0. 0.
 0. 0. 0. 0.
 0. 0. 0. 0.
 0. 0. 0. 0.
 0. 0. 0. 0.
 0. 0. 0. 0.
 0. 0. 0. 0.
 0. 0. 0. 0.
 0. 0. 0. 0.
 0. 0. 0. 0.
 0. 0. 0. 0.
 0. 0. 0. 0.
 0. 0. 0. 0.
 0. 0. 0. 0.
 0. 0. 0. 0.
 0. 0. 0. 0.
 0. 0. 0. 0.
 0. 0. 0. 0.
 0. 0. 0. 0.
 0. 0. 0. 0.
 0. 0. 0. 0.
 0. 0. 0. 0.
 0. 0. 0. 0.
 0. 0. 0. 0.
 0. 0. 0. 0.
 0. 0. 0. 0.
 0. 0. 0. 0.
 0. 0. 0. 0.
   </PP_BETA.4>
   <PP_BETA.5
       type="real"
       size="1244"
       columns="4"
       index="5"
       angular_momentum="2"
       cutoff_radius_index=" 224"
       cutoff_radius="    2.2300000000E+00" >
   -9.2881459468E-11    5.9845955630E-06    4.7881792723E-05    1.6162896387E-04
    3.8321130022E-04    7.4868143831E-04    1.2941740136E-03    2.0559135609E-03
    3.0702142733E-03    4.3734702466E-03    6.0021349689E-03    7.9926889674E-03
    1.0381594692E-02    1.3205237900E-02    1.6499854998E-02    2.0301445997E-02
    2.4645672972E-02    2.9567744089E-02    3.5102283532E-02    4.1283187838E-02
    4.8143469391E-02    5.5715088021E-02    6.4028771852E-02    7.3113828743E-02
    8.2997949834E-02    9.3707006870E-02    1.0526484512E-01    1.1769307382E-01
    1.3101085622E-01    1.4523470128E-01    1.6037825928E-01    1.7645212346E-01
    1.9346364002E-01    2.1141672849E-01    2.3031171486E-01    2.5014517928E-01
    2.7090982055E-01    2.9259433909E-01    3.1518334018E-01    3.3865725907E-01
    3.6299230924E-01    3.8816045505E-01    4.1412940971E-01    4.4086265933E-01
    4.6831951356E-01    4.9645518294E-01    5.2522088313E-01    5.5456396568E-01
    5.8442807473E-01    6.1475332906E-01    6.4547652833E-01    6.7653138233E-01
    7.0784876171E-01    7.3935696859E-01    7.7098202509E-01    8.0264797777E-01
    8.3427721580E-01    8.6579080038E-01    8.9710880318E-01    9.2815065107E-01
    9.5883547468E-01    9.8908245812E-01    1.0188111873E+00    1.0479419939E+00
    1.0763962937E+00    1.1040969144E+00    1.1309684137E+00    1.1569373822E+00
    1.1819327325E+00    1.2058859686E+00    1.2287314381E+00    1.2504065625E+00
    1.2708520458E+00    1.2900120604E+00    1.3078344090E+00    1.3242706625E+00
    1.3392762731E+00    1.3528106633E+00    1.3648372904E+00    1.3753236876E+00
    1.3842414819E+00    1.3915663897E+00    1.3972781929E+00    1.4013606938E+00
    1.4038016536E+00    1.4045927144E+00    1.4037293063E+00    1.4012105436E+00
    1.3970391089E+00    1.3912211307E+00    1.3837660542E+00    1.3746865077E+00
    1.3639981683E+00    1.3517196263E+00    1.3378722530E+00    1.3224800712E+00
    1.3055696323E+00    1.2871698992E+00    1.2673121386E+00    1.2460298224E+00
    1.2233585390E+00    1.1993359164E+00    1.1740015558E+00    1.1473969781E+00
    1.1195655802E+00    1.0905526043E+00    1.0604051165E+00    1.0291719955E+00
    9.9690393075E-01    9.6365342684E-01    9.2947481499E-01    8.9442426813E-01
    8.5855981884E-01    8.2194137766E-01    7.8463074995E-01    7.4669164902E-01
    7.0818970344E-01    6.6919245625E-01    6.2976935378E-01    5.8999172221E-01
    5.4993272945E-01    5.0966733067E-01    4.6927219548E-01    4.2882561526E-01
    3.8840738911E-01    3.4809868729E-01    3.0798189122E-01    2.6814040930E-01
    2.2865846834E-01    1.8962088040E-01    1.5111278542E-01    1.1321937022E-01
    7.6025564884E-02    3.9615717706E-02    4.0732504531E-03   -3.0519704189E-02
   -6.4082680678E-02   -9.6537271637E-02   -1.2780752899E-01   -1.5782037214E-01
   -1.8650599983E-01   -2.1379830227E-01   -2.3963526976E-01   -2.6395939415E-01
   -2.8671805914E-01   -3.0786391567E-01   -3.2735523838E-01   -3.4515625939E-01
   -3.6123747559E-01   -3.7557592581E-01   -3.8815543452E-01   -3.9896681874E-01
   -4.0800805530E-01   -4.1528440569E-01   -4.2080849635E-01   -4.2460035227E-01
   -4.2668738254E-01   -4.2710431658E-01   -4.2589309057E-01   -4.2310268366E-01
   -4.1878890446E-01   -4.1301412843E-01   -4.0584698749E-01   -3.9736201361E-01
   -3.8763923854E-01   -3.7676375247E-01   -3.6482522455E-01   -3.5191738915E-01
   -3.3813750146E-01   -3.2358576694E-01   -3.0836474926E-01   -2.9257876152E-01
   -2.7633324605E-01   -2.5973414809E-01   -2.4288728544E-01   -2.2589773988E-01
   -2.0886914433E-01   -1.9190264007E-01   -1.7509590338E-01   -1.5854251437E-01
   -1.4233136030E-01   -1.2654608065E-01   -1.1126455603E-01   -9.6558445004E-02
   -8.2492772891E-02   -6.9125575986E-02   -5.6507604176E-02   -4.4682084481E-02
   -3.3684547492E-02   -2.3542718128E-02   -1.4276471583E-02   -5.8978547224E-03
    1.5888273721E-03    8.1868606257E-03    1.3906908450E-02    1.8766737558E-02
    2.2790885752E-02    2.6010274854E-02    2.8461772488E-02    3.0187706868E-02
    3.1235339238E-02    3.1656298967E-02    3.1505986701E-02    3.0842951252E-02
    2.9728246185E-02    2.8224772237E-02    2.6396607435E-02    2.4308371796E-02
    2.2024476501E-02    1.9608583856E-02    1.7123528489E-02    1.4633748864E-02
    1.2197913043E-02    9.8679590745E-03    7.6930438765E-03    5.7182655205E-03
    3.9844033176E-03    2.5278424193E-03    1.3790254130E-03    5.5971997315E-04
    1.1737384124E-04   -1.2630364727E-05   -1.7027041990E-06    3.6010826028E-06
 0. 0. 0. 0.
 0. 0. 0. 0.
 0. 0. 0. 0.
 0. 0. 0. 0.
 0. 0. 0. 0.
 0. 0. 0. 0.
 0. 0. 0. 0.
 0. 0. 0. 0.
 0. 0. 0. 0.
 0. 0. 0. 0.
 0. 0. 0. 0.
 0. 0. 0. 0.
 0. 0. 0. 0.
 0. 0. 0. 0.
 0. 0. 0. 0.
 0. 0. 0. 0.
 0. 0. 0. 0.
 0. 0. 0. 0.
 0. 0. 0. 0.
 0. 0. 0. 0.
 0. 0. 0. 0.
 0. 0. 0. 0.
 0. 0. 0. 0.
 0. 0. 0. 0.
 0. 0. 0. 0.
 0. 0. 0. 0.
 0. 0. 0. 0.
 0. 0. 0. 0.
 0. 0. 0. 0.
 0. 0. 0. 0.
 0. 0. 0. 0.
 0. 0. 0. 0.
 0. 0. 0. 0.
 0. 0. 0. 0.
 0. 0. 0. 0.
 0. 0. 0. 0.
 0. 0. 0. 0.
 0. 0. 0. 0.
 0. 0. 0. 0.
 0. 0. 0. 0.
 0. 0. 0. 0.
 0. 0. 0. 0.
 0. 0. 0. 0.
 0. 0. 0. 0.
 0. 0. 0. 0.
 0. 0. 0. 0.
 0. 0. 0. 0.
 0. 0. 0. 0.
 0. 0. 0. 0.
 0. 0. 0. 0.
 0. 0. 0. 0.
 0. 0. 0. 0.
 0. 0. 0. 0.
 0. 0. 0. 0.
 0. 0. 0. 0.
 0. 0. 0. 0.
 0. 0. 0. 0.
 0. 0. 0. 0.
 0. 0. 0. 0.
 0. 0. 0. 0.
 0. 0. 0. 0.
 0. 0. 0. 0.
 0. 0. 0. 0.
 0. 0. 0. 0.
 0. 0. 0. 0.
 0. 0. 0. 0.
 0. 0. 0. 0.
 0. 0. 0. 0.
 0. 0. 0. 0.
 0. 0. 0. 0.
 0. 0. 0. 0.
 0. 0. 0. 0.
 0. 0. 0. 0.
 0. 0. 0. 0.
 0. 0. 0. 0.
 0. 0. 0. 0.
 0. 0. 0. 0.
 0. 0. 0. 0.
 0. 0. 0. 0.
 0. 0. 0. 0.
 0. 0. 0. 0.
 0. 0. 0. 0.
 0. 0. 0. 0.
 0. 0. 0. 0.
 0. 0. 0. 0.
 0. 0. 0. 0.
 0. 0. 0. 0.
 0. 0. 0. 0.
 0. 0. 0. 0.
 0. 0. 0. 0.
 0. 0. 0. 0.
 0. 0. 0. 0.
 0. 0. 0. 0.
 0. 0. 0. 0.
 0. 0. 0. 0.
 0. 0. 0. 0.
 0. 0. 0. 0.
 0. 0. 0. 0.
 0. 0. 0. 0.
 0. 0. 0. 0.
 0. 0. 0. 0.
 0. 0. 0. 0.
 0. 0. 0. 0.
 0. 0. 0. 0.
 0. 0. 0. 0.
 0. 0. 0. 0.
 0. 0. 0. 0.
 0. 0. 0. 0.
 0. 0. 0. 0.
 0. 0. 0. 0.
 0. 0. 0. 0.
 0. 0. 0. 0.
 0. 0. 0. 0.
 0. 0. 0. 0.
 0. 0. 0. 0.
 0. 0. 0. 0.
 0. 0. 0. 0.
 0. 0. 0. 0.
 0. 0. 0. 0.
 0. 0. 0. 0.
 0. 0. 0. 0.
 0. 0. 0. 0.
 0. 0. 0. 0.
 0. 0. 0. 0.
 0. 0. 0. 0.
 0. 0. 0. 0.
 0. 0. 0. 0.
 0. 0. 0. 0.
 0. 0. 0. 0.
 0. 0. 0. 0.
 0. 0. 0. 0.
 0. 0. 0. 0.
 0. 0. 0. 0.
 0. 0. 0. 0.
 0. 0. 0. 0.
 0. 0. 0. 0.
 0. 0. 0. 0.
 0. 0. 0. 0.
 0. 0. 0. 0.
 0. 0. 0. 0.
 0. 0. 0. 0.
 0. 0. 0. 0.
 0. 0. 0. 0.
 0. 0. 0. 0.
 0. 0. 0. 0.
 0. 0. 0. 0.
 0. 0. 0. 0.
 0. 0. 0. 0.
 0. 0. 0. 0.
 0. 0. 0. 0.
 0. 0. 0. 0.
 0. 0. 0. 0.
 0. 0. 0. 0.
 0. 0. 0. 0.
 0. 0. 0. 0.
 0. 0. 0. 0.
 0. 0. 0. 0.
 0. 0. 0. 0.
 0. 0. 0. 0.
 0. 0. 0. 0.
 0. 0. 0. 0.
 0. 0. 0. 0.
 0. 0. 0. 0.
 0. 0. 0. 0.
 0. 0. 0. 0.
 0. 0. 0. 0.
 0. 0. 0. 0.
 0. 0. 0. 0.
 0. 0. 0. 0.
 0. 0. 0. 0.
 0. 0. 0. 0.
 0. 0. 0. 0.
 0. 0. 0. 0.
 0. 0. 0. 0.
 0. 0. 0. 0.
 0. 0. 0. 0.
 0. 0. 0. 0.
 0. 0. 0. 0.
 0. 0. 0. 0.
 0. 0. 0. 0.
 0. 0. 0. 0.
 0. 0. 0. 0.
 0. 0. 0. 0.
 0. 0. 0. 0.
 0. 0. 0. 0.
 0. 0. 0. 0.
 0. 0. 0. 0.
 0. 0. 0. 0.
 0. 0. 0. 0.
 0. 0. 0. 0.
 0. 0. 0. 0.
 0. 0. 0. 0.
 0. 0. 0. 0.
 0. 0. 0. 0.
 0. 0. 0. 0.
 0. 0. 0. 0.
 0. 0. 0. 0.
 0. 0. 0. 0.
 0. 0. 0. 0.
 0. 0. 0. 0.
 0. 0. 0. 0.
 0. 0. 0. 0.
 0. 0. 0. 0.
 0. 0. 0. 0.
 0. 0. 0. 0.
 0. 0. 0. 0.
 0. 0. 0. 0.
 0. 0. 0. 0.
 0. 0. 0. 0.
 0. 0. 0. 0.
 0. 0. 0. 0.
 0. 0. 0. 0.
 0. 0. 0. 0.
 0. 0. 0. 0.
 0. 0. 0. 0.
 0. 0. 0. 0.
 0. 0. 0. 0.
 0. 0. 0. 0.
 0. 0. 0. 0.
 0. 0. 0. 0.
 0. 0. 0. 0.
 0. 0. 0. 0.
 0. 0. 0. 0.
 0. 0. 0. 0.
 0. 0. 0. 0.
 0. 0. 0. 0.
 0. 0. 0. 0.
 0. 0. 0. 0.
 0. 0. 0. 0.
 0. 0. 0. 0.
 0. 0. 0. 0.
 0. 0. 0. 0.
 0. 0. 0. 0.
 0. 0. 0. 0.
 0. 0. 0. 0.
 0. 0. 0. 0.
 0. 0. 0. 0.
 0. 0. 0. 0.
 0. 0. 0. 0.
 0. 0. 0. 0.
 0. 0. 0. 0.
 0. 0. 0. 0.
 0. 0. 0. 0.
 0. 0. 0. 0.
 0. 0. 0. 0.
 0. 0. 0. 0.
 0. 0. 0. 0.
 0. 0. 0. 0.
 0. 0. 0. 0.
 0. 0. 0. 0.
 0. 0. 0. 0.
 0. 0. 0. 0.
 0. 0. 0. 0.
 0. 0. 0. 0.
 0. 0. 0. 0.
   </PP_BETA.5>
   <PP_BETA.6
       type="real"
       size="1244"
       columns="4"
       index="6"
       angular_momentum="2"
       cutoff_radius_index=" 224"
       cutoff_radius="    2.2300000000E+00" >
    2.2243380694E-10   -1.5948268329E-06   -1.2797706705E-05   -4.3411260930E-05
   -1.0362309778E-04   -2.0418798939E-04   -3.5659782862E-04   -5.7323555702E-04
   -8.6750947747E-04   -1.2539646376E-03   -1.7483682907E-03   -2.3677668025E-03
   -3.1305117754E-03   -4.0562535951E-03   -5.1659010685E-03   -6.4815463084E-03
   -8.0263545194E-03   -9.8244188546E-03   -1.1900581026E-02   -1.4280218862E-02
   -1.6989002518E-02   -2.0052621512E-02   -2.3496485246E-02   -2.7345400100E-02
   -3.1623226574E-02   -3.6352520341E-02   -4.1554161379E-02   -4.7246975613E-02
   -5.3447353738E-02   -6.0168872021E-02   -6.7421920030E-02   -7.5213340229E-02
   -8.3546084407E-02   -9.2418891791E-02   -1.0182599358E-01   -1.1175684843E-01
   -1.2219591312E-01   -1.3312245239E-01   -1.4451039153E-01   -1.5632821478E-01
   -1.6853891242E-01   -1.8109997856E-01   -1.9396346138E-01   -2.0707606698E-01
   -2.2037931710E-01   -2.3380976099E-01   -2.4729924035E-01   -2.6077520631E-01
   -2.7416108640E-01   -2.8737669902E-01   -3.0033871241E-01   -3.1296114446E-01
   -3.2515589918E-01   -3.3683333548E-01   -3.4790286295E-01   -3.5827355958E-01
   -3.6785480548E-01   -3.7655692699E-01   -3.8429184470E-01   -3.9097371958E-01
   -3.9651959053E-01   -4.0084999752E-01   -4.0388958383E-01   -4.0556767165E-01
   -4.0581880514E-01   -4.0458325560E-01   -4.0180748365E-01   -3.9744455370E-01
   -3.9145449661E-01   -3.8380461696E-01   -3.7446974167E-01   -3.6343240775E-01
   -3.5068298726E-01   -3.3621974835E-01   -3.2004885210E-01   -3.0218428515E-01
   -2.8264772943E-01   -2.6146837035E-01   -2.3868264598E-01   -2.1433394010E-01
   -1.8847222282E-01   -1.6115364284E-01   -1.3244007620E-01   -1.0239863668E-01
   -7.1101153402E-02   -3.8623621736E-02   -5.0456337503E-03    2.9550205374E-02
    6.5078868254E-02    1.0145349691E-01    1.3858598839E-01    1.7638756782E-01
    2.1476934262E-01    2.5364283158E-01    2.9292046321E-01    3.3251603786E-01
    3.7234514880E-01    4.1232555789E-01    4.5237752196E-01    4.9242406708E-01
    5.3239120794E-01    5.7220811095E-01    6.1180719992E-01    6.5112420423E-01
    6.9009815003E-01    7.2867129588E-01    7.6678901495E-01    8.0439962657E-01
    8.4145418081E-01    8.7790620029E-01    9.1371138400E-01    9.4882727872E-01
    9.8321292385E-01    1.0168284760E+00    1.0496348202E+00    1.0815931745E+00
    1.1126646952E+00    1.1428100902E+00    1.1719892472E+00    1.2001608846E+00
    1.2272822314E+00    1.2533087431E+00    1.2781938603E+00    1.3018888149E+00
    1.3243424901E+00    1.3455013387E+00    1.3653093629E+00    1.3837081606E+00
    1.4006370384E+00    1.4160331945E+00    1.4298319720E+00    1.4419671811E+00
    1.4523714906E+00    1.4609768859E+00    1.4677151897E+00    1.4725186432E+00
    1.4753205403E+00    1.4760559121E+00    1.4746622529E+00    1.4710802810E+00
    1.4652547270E+00    1.4571351410E+00    1.4466767081E+00    1.4338410659E+00
    1.4185971110E+00    1.4009217870E+00    1.3808008433E+00    1.3582295548E+00
    1.3332133921E+00    1.3057686349E+00    1.2759229170E+00    1.2437156959E+00
    1.2091986394E+00    1.1724359210E+00    1.1335044178E+00    1.0924938073E+00
    1.0495065555E+00    1.0046577965E+00    9.5807509882E-01    9.0989811800E-01
    8.6027813663E-01    8.0937749196E-01    7.5736889454E-01    7.0443464134E-01
    6.5076572884E-01    5.9656087209E-01    5.4202543743E-01    4.8737029728E-01
    4.3281061663E-01    3.7856458167E-01    3.2485208204E-01    2.7189335856E-01
    2.1990762959E-01    1.6911170883E-01    1.1971861375E-01    7.1936267287E-02
    2.5965723253E-02   -1.8002050505E-02   -5.9789003047E-02   -9.9231315492E-02
   -1.3618062692E-01   -1.7050514616E-01   -2.0209065112E-01   -2.3084136488E-01
   -2.5668069869E-01   -2.7955185336E-01   -2.9941827179E-01   -3.1626393640E-01
   -3.3009350686E-01   -3.4093229481E-01   -3.4882607366E-01   -3.5384072320E-01
   -3.5606171019E-01   -3.5559340771E-01   -3.5255825736E-01   -3.4709578024E-01
   -3.3936144382E-01   -3.2952539327E-01   -3.1777105724E-01   -3.0429363933E-01
   -2.8929850745E-01   -2.7299949460E-01   -2.5561712531E-01   -2.3737678288E-01
   -2.1850683317E-01   -1.9923672135E-01   -1.7979504667E-01   -1.6040773611E-01
   -1.4129593285E-01   -1.2267443580E-01   -1.0475133257E-01   -8.7734083937E-02
   -7.1810486696E-02   -5.7146081840E-02   -4.3894155292E-02   -3.2192366628E-02
   -2.2161998185E-02   -1.3908515188E-02   -7.5141132679E-03   -3.0237870526E-03
   -6.2860414172E-04    6.7522175468E-05    9.0453626522E-06   -1.9250126479E-05
 0. 0. 0. 0.
 0. 0. 0. 0.
 0. 0. 0. 0.
 0. 0. 0. 0.
 0. 0. 0. 0.
 0. 0. 0. 0.
 0. 0. 0. 0.
 0. 0. 0. 0.
 0. 0. 0. 0.
 0. 0. 0. 0.
 0. 0. 0. 0.
 0. 0. 0. 0.
 0. 0. 0. 0.
 0. 0. 0. 0.
 0. 0. 0. 0.
 0. 0. 0. 0.
 0. 0. 0. 0.
 0. 0. 0. 0.
 0. 0. 0. 0.
 0. 0. 0. 0.
 0. 0. 0. 0.
 0. 0. 0. 0.
 0. 0. 0. 0.
 0. 0. 0. 0.
 0. 0. 0. 0.
 0. 0. 0. 0.
 0. 0. 0. 0.
 0. 0. 0. 0.
 0. 0. 0. 0.
 0. 0. 0. 0.
 0. 0. 0. 0.
 0. 0. 0. 0.
 0. 0. 0. 0.
 0. 0. 0. 0.
 0. 0. 0. 0.
 0. 0. 0. 0.
 0. 0. 0. 0.
 0. 0. 0. 0.
 0. 0. 0. 0.
 0. 0. 0. 0.
 0. 0. 0. 0.
 0. 0. 0. 0.
 0. 0. 0. 0.
 0. 0. 0. 0.
 0. 0. 0. 0.
 0. 0. 0. 0.
 0. 0. 0. 0.
 0. 0. 0. 0.
 0. 0. 0. 0.
 0. 0. 0. 0.
 0. 0. 0. 0.
 0. 0. 0. 0.
 0. 0. 0. 0.
 0. 0. 0. 0.
 0. 0. 0. 0.
 0. 0. 0. 0.
 0. 0. 0. 0.
 0. 0. 0. 0.
 0. 0. 0. 0.
 0. 0. 0. 0.
 0. 0. 0. 0.
 0. 0. 0. 0.
 0. 0. 0. 0.
 0. 0. 0. 0.
 0. 0. 0. 0.
 0. 0. 0. 0.
 0. 0. 0. 0.
 0. 0. 0. 0.
 0. 0. 0. 0.
 0. 0. 0. 0.
 0. 0. 0. 0.
 0. 0. 0. 0.
 0. 0. 0. 0.
 0. 0. 0. 0.
 0. 0. 0. 0.
 0. 0. 0. 0.
 0. 0. 0. 0.
 0. 0. 0. 0.
 0. 0. 0. 0.
 0. 0. 0. 0.
 0. 0. 0. 0.
 0. 0. 0. 0.
 0. 0. 0. 0.
 0. 0. 0. 0.
 0. 0. 0. 0.
 0. 0. 0. 0.
 0. 0. 0. 0.
 0. 0. 0. 0.
 0. 0. 0. 0.
 0. 0. 0. 0.
 0. 0. 0. 0.
 0. 0. 0. 0.
 0. 0. 0. 0.
 0. 0. 0. 0.
 0. 0. 0. 0.
 0. 0. 0. 0.
 0. 0. 0. 0.
 0. 0. 0. 0.
 0. 0. 0. 0.
 0. 0. 0. 0.
 0. 0. 0. 0.
 0. 0. 0. 0.
 0. 0. 0. 0.
 0. 0. 0. 0.
 0. 0. 0. 0.
 0. 0. 0. 0.
 0. 0. 0. 0.
 0. 0. 0. 0.
 0. 0. 0. 0.
 0. 0. 0. 0.
 0. 0. 0. 0.
 0. 0. 0. 0.
 0. 0. 0. 0.
 0. 0. 0. 0.
 0. 0. 0. 0.
 0. 0. 0. 0.
 0. 0. 0. 0.
 0. 0. 0. 0.
 0. 0. 0. 0.
 0. 0. 0. 0.
 0. 0. 0. 0.
 0. 0. 0. 0.
 0. 0. 0. 0.
 0. 0. 0. 0.
 0. 0. 0. 0.
 0. 0. 0. 0.
 0. 0. 0. 0.
 0. 0. 0. 0.
 0. 0. 0. 0.
 0. 0. 0. 0.
 0. 0. 0. 0.
 0. 0. 0. 0.
 0. 0. 0. 0.
 0. 0. 0. 0.
 0. 0. 0. 0.
 0. 0. 0. 0.
 0. 0. 0. 0.
 0. 0. 0. 0.
 0. 0. 0. 0.
 0. 0. 0. 0.
 0. 0. 0. 0.
 0. 0. 0. 0.
 0. 0. 0. 0.
 0. 0. 0. 0.
 0. 0. 0. 0.
 0. 0. 0. 0.
 0. 0. 0. 0.
 0. 0. 0. 0.
 0. 0. 0. 0.
 0. 0. 0. 0.
 0. 0. 0. 0.
 0. 0. 0. 0.
 0. 0. 0. 0.
 0. 0. 0. 0.
 0. 0. 0. 0.
 0. 0. 0. 0.
 0. 0. 0. 0.
 0. 0. 0. 0.
 0. 0. 0. 0.
 0. 0. 0. 0.
 0. 0. 0. 0.
 0. 0. 0. 0.
 0. 0. 0. 0.
 0. 0. 0. 0.
 0. 0. 0. 0.
 0. 0. 0. 0.
 0. 0. 0. 0.
 0. 0. 0. 0.
 0. 0. 0. 0.
 0. 0. 0. 0.
 0. 0. 0. 0.
 0. 0. 0. 0.
 0. 0. 0. 0.
 0. 0. 0. 0.
 0. 0. 0. 0.
 0. 0. 0. 0.
 0. 0. 0. 0.
 0. 0. 0. 0.
 0. 0. 0. 0.
 0. 0. 0. 0.
 0. 0. 0. 0.
 0. 0. 0. 0.
 0. 0. 0. 0.
 0. 0. 0. 0.
 0. 0. 0. 0.
 0. 0. 0. 0.
 0. 0. 0. 0.
 0. 0. 0. 0.
 0. 0. 0. 0.
 0. 0. 0. 0.
 0. 0. 0. 0.
 0. 0. 0. 0.
 0. 0. 0. 0.
 0. 0. 0. 0.
 0. 0. 0. 0.
 0. 0. 0. 0.
 0. 0. 0. 0.
 0. 0. 0. 0.
 0. 0. 0. 0.
 0. 0. 0. 0.
 0. 0. 0. 0.
 0. 0. 0. 0.
 0. 0. 0. 0.
 0. 0. 0. 0.
 0. 0. 0. 0.
 0. 0. 0. 0.
 0. 0. 0. 0.
 0. 0. 0. 0.
 0. 0. 0. 0.
 0. 0. 0. 0.
 0. 0. 0. 0.
 0. 0. 0. 0.
 0. 0. 0. 0.
 0. 0. 0. 0.
 0. 0. 0. 0.
 0. 0. 0. 0.
 0. 0. 0. 0.
 0. 0. 0. 0.
 0. 0. 0. 0.
 0. 0. 0. 0.
 0. 0. 0. 0.
 0. 0. 0. 0.
 0. 0. 0. 0.
 0. 0. 0. 0.
 0. 0. 0. 0.
 0. 0. 0. 0.
 0. 0. 0. 0.
 0. 0. 0. 0.
 0. 0. 0. 0.
 0. 0. 0. 0.
 0. 0. 0. 0.
 0. 0. 0. 0.
 0. 0. 0. 0.
 0. 0. 0. 0.
 0. 0. 0. 0.
 0. 0. 0. 0.
 0. 0. 0. 0.
 0. 0. 0. 0.
 0. 0. 0. 0.
 0. 0. 0. 0.
 0. 0. 0. 0.
 0. 0. 0. 0.
 0. 0. 0. 0.
 0. 0. 0. 0.
 0. 0. 0. 0.
 0. 0. 0. 0.
 0. 0. 0. 0.
 0. 0. 0. 0.
 0. 0. 0. 0.
 0. 0. 0. 0.
 0. 0. 0. 0.
 0. 0. 0. 0.
 0. 0. 0. 0.
 0. 0. 0. 0.
 0. 0. 0. 0.
   </PP_BETA.6>
   <PP_DIJ type="real"  size="  36" columns="4">
    6.0177174850E+00    0.0000000000E+00    0.0000000000E+00    0.0000000000E+00
    0.0000000000E+00    0.0000000000E+00    0.0000000000E+00   -8.5018369523E-01
    0.0000000000E+00    0.0000000000E+00    0.0000000000E+00    0.0000000000E+00
    0.0000000000E+00    0.0000000000E+00    3.3139441652E+00    0.0000000000E+00
    0.0000000000E+00    0.0000000000E+00    0.0000000000E+00    0.0000000000E+00
    0.0000000000E+00   -2.6987161597E+00    0.0000000000E+00    0.0000000000E+00
    0.0000000000E+00    0.0000000000E+00    0.0000000000E+00    0.0000000000E+00
   -4.4135671152E+00    0.0000000000E+00    0.0000000000E+00    0.0000000000E+00
    0.0000000000E+00    0.0000000000E+00    0.0000000000E+00   -1.3423527428E+00
   </PP_DIJ>
 </PP_NONLOCAL>
 <PP_PSWFC>
   <PP_CHI.1
       type="real"
       size="1244"
       columns="4"
       index="1"
       occupation=" 2.000"
       pseudo_energy="   -0.6265620872E+01"
       label="4S"
       l="0" >
   -1.2492784585E-13    2.1255894833E-02    4.2502975693E-02    6.3732431085E-02
    8.4935454477E-02    1.0610324682E-01    1.2722701907E-01    1.4829799479E-01
    1.6930741279E-01    1.9024652978E-01    2.1110662319E-01    2.3187899400E-01
    2.5255496966E-01    2.7312590713E-01    2.9358319605E-01    3.1391826195E-01
    3.3412256963E-01    3.5418762668E-01    3.7410498710E-01    3.9386625503E-01
    4.1346308868E-01    4.3288720438E-01    4.5213038074E-01    4.7118446302E-01
    4.9004136759E-01    5.0869308657E-01    5.2713169260E-01    5.4534934377E-01
    5.6333828870E-01    5.8109087172E-01    5.9859953820E-01    6.1585684007E-01
    6.3285544134E-01    6.4958812387E-01    6.6604779314E-01    6.8222748418E-01
    6.9812036758E-01    7.1371975555E-01    7.2901910808E-01    7.4401203915E-01
    7.5869232296E-01    7.7305390019E-01    7.8709088436E-01    8.0079756803E-01
    8.1416842912E-01    8.2719813717E-01    8.3988155950E-01    8.5221376735E-01
    8.6419004196E-01    8.7580588050E-01    8.8705700193E-01    8.9793935268E-01
    9.0844911222E-01    9.1858269848E-01    9.2833677300E-01    9.3770824600E-01
    9.4669428108E-01    9.5529229985E-01    9.6349998617E-01    9.7131529020E-01
    9.7873643213E-01    9.8576190563E-01    9.9239048094E-01    9.9862120775E-01
    1.0044534175E+00    1.0098867258E+00    1.0149210337E+00    1.0195565296E+00
    1.0237936895E+00    1.0276332785E+00    1.0310763504E+00    1.0341242473E+00
    1.0367785995E+00    1.0390413243E+00    1.0409146242E+00    1.0424009853E+00
    1.0435031749E+00    1.0442242389E+00    1.0445674984E+00    1.0445365462E+00
    1.0441352429E+00    1.0433677123E+00    1.0422383368E+00    1.0407517521E+00
    1.0389128416E+00    1.0367267304E+00    1.0341987789E+00    1.0313345764E+00
    1.0281399335E+00    1.0246208754E+00    1.0207836336E+00    1.0166346383E+00
    1.0121805099E+00    1.0074280505E+00    1.0023842351E+00    9.9705620270E-01
    9.9145124678E-01    9.8557680596E-01    9.7944045442E-01    9.7304989199E-01
    9.6641293429E-01    9.5953750264E-01    9.5243161390E-01    9.4510337024E-01
    9.3756094884E-01    9.2981259153E-01    9.2186659447E-01    9.1373129778E-01
    9.0541507518E-01    8.9692632377E-01    8.8827345372E-01    8.7946487816E-01
    8.7050900314E-01    8.6141421767E-01    8.5218888394E-01    8.4284132768E-01
    8.3337982869E-01    8.2381261152E-01    8.1414783643E-01    8.0439359053E-01
    7.9455787910E-01    7.8464861724E-01    7.7467362178E-01    7.6464060334E-01
    7.5455715885E-01    7.4443076425E-01    7.3426876753E-01    7.2407838205E-01
    7.1386668028E-01    7.0364058778E-01    6.9340687755E-01    6.8317216472E-01
    6.7294290163E-01    6.6272537322E-01    6.5252569282E-01    6.4234979824E-01
    6.3220344833E-01    6.2209221979E-01    6.1202150448E-01    6.0199650695E-01
    5.9202224248E-01    5.8210353538E-01    5.7224501772E-01    5.6245112838E-01
    5.5272611248E-01    5.4307402114E-01    5.3349871162E-01    5.2400384776E-01
    5.1459290077E-01    5.0526915033E-01    4.9603568604E-01    4.8689540913E-01
    4.7785103450E-01    4.6890509302E-01    4.6005993410E-01    4.5131772858E-01
    4.4268047175E-01    4.3414998674E-01    4.2572792806E-01    4.1741578530E-01
    4.0921488715E-01    4.0112640546E-01    3.9315135958E-01    3.8529062075E-01
    3.7754491668E-01    3.6991483622E-01    3.6240083415E-01    3.5500323599E-01
    3.4772224295E-01    3.4055793687E-01    3.3351028522E-01    3.2657914610E-01
    3.1976427324E-01    3.1306532096E-01    3.0648184914E-01    3.0001332808E-01
    2.9365914330E-01    2.8741860035E-01    2.8129092933E-01    2.7527528950E-01
    2.6937077363E-01    2.6357641226E-01    2.5789117779E-01    2.5231398844E-01
    2.4684371194E-01    2.4147916918E-01    2.3621913751E-01    2.3106235397E-01
    2.2600751820E-01    2.2105329531E-01    2.1619831846E-01    2.1144119119E-01
    2.0678048926E-01    2.0221476249E-01    1.9774253619E-01    1.9336231255E-01
    1.8907257161E-01    1.8487177205E-01    1.8075835491E-01    1.7673075538E-01
    1.7278742413E-01    1.6892682970E-01    1.6514745721E-01    1.6144780947E-01
    1.5782640723E-01    1.5428178942E-01    1.5081251347E-01    1.4741715552E-01
    1.4409431059E-01    1.4084259276E-01    1.3766063532E-01    1.3454709083E-01
    1.3150063124E-01    1.2851994795E-01    1.2560375181E-01    1.2275077314E-01
    1.1995976175E-01    1.1722948689E-01    1.1455873722E-01    1.1194632072E-01
    1.0939106467E-01    1.0689181550E-01    1.0444743874E-01    1.0205681887E-01
    9.9718859209E-02    9.7432481785E-02    9.5196627180E-02    9.3010254379E-02
    9.0872340609E-02    8.8781881169E-02    8.6737889252E-02    8.4739395767E-02
    8.2785449145E-02    8.0875115150E-02    7.9007476679E-02    7.7181633561E-02
    7.5396702353E-02    7.3651816130E-02    7.1946124272E-02    7.0278792254E-02
    6.8649001428E-02    6.7055948805E-02    6.5498846841E-02    6.3976923209E-02
    6.2489420585E-02    6.1035596427E-02    5.9614722749E-02    5.8226085903E-02
    5.6868986359E-02    5.5542738480E-02    5.4246670308E-02    5.2980123338E-02
    5.1742452303E-02    5.0533024959E-02    4.9351221863E-02    4.8196436164E-02
    4.7068073386E-02    4.5965551218E-02    4.4888299303E-02    4.3835759031E-02
    4.2807383333E-02    4.1802636473E-02    4.0820993852E-02    3.9861941802E-02
    3.8924977391E-02    3.8009608226E-02    3.7115352261E-02    3.6241737605E-02
    3.5388302331E-02    3.4554594293E-02    3.3740170940E-02    3.2944599133E-02
    3.2167454970E-02    3.1408323606E-02    3.0666799078E-02    2.9942484136E-02
    2.9234990072E-02    2.8543936555E-02    2.7868951463E-02    2.7209670728E-02
    2.6565738168E-02    2.5936805338E-02    2.5322531372E-02    2.4722582831E-02
    2.4136633557E-02    2.3564364521E-02    2.3005463685E-02    2.2459625854E-02
    2.1926552540E-02    2.1405951825E-02    2.0897538224E-02    2.0401032554E-02
    1.9916161805E-02    1.9442659009E-02    1.8980263119E-02    1.8528718881E-02
    1.8087776718E-02    1.7657192606E-02    1.7236727961E-02    1.6826149523E-02
    1.6425229245E-02    1.6033744183E-02    1.5651476383E-02    1.5278212783E-02
    1.4913745103E-02    1.4557869743E-02    1.4210387687E-02    1.3871104402E-02
    1.3539829740E-02    1.3216377847E-02    1.2900567069E-02    1.2592219863E-02
    1.2291162702E-02    1.1997225998E-02    1.1710244005E-02    1.1430054746E-02
    1.1156499924E-02    1.0889424842E-02    1.0628678330E-02    1.0374112659E-02
    1.0125583475E-02    9.8829497157E-03    9.6460735455E-03    9.4148202798E-03
    9.1890583176E-03    8.9686590725E-03    8.7534969062E-03    8.5434490633E-03
    8.3383956072E-03    8.1382193573E-03    7.9428058282E-03    7.7520431688E-03
    7.5658221046E-03    7.3840358792E-03    7.2065801986E-03    7.0333531758E-03
    6.8642552770E-03    6.6991892688E-03    6.5380601662E-03    6.3807751827E-03
    6.2272436802E-03    6.0773771209E-03    5.9310890197E-03    5.7882948981E-03
    5.6489122388E-03    5.5128604412E-03    5.3800607780E-03    5.2504363528E-03
    5.1239120588E-03    5.0004145375E-03    4.8798721397E-03    4.7622148861E-03
    4.6473744295E-03    4.5352840177E-03    4.4258784567E-03    4.3190940757E-03
    4.2148686919E-03    4.1131415764E-03    4.0138534213E-03    3.9169463070E-03
    3.8223636702E-03    3.7300502731E-03    3.6399521725E-03    3.5520166907E-03
    3.4661923859E-03    3.3824290241E-03    3.3006775508E-03    3.2208900645E-03
    3.1430197897E-03    3.0670210508E-03    2.9928492472E-03    2.9204608280E-03
    2.8498132679E-03    2.7808650436E-03    2.7135756105E-03    2.6479053798E-03
    2.5838156969E-03    2.5212688193E-03    2.4602278954E-03    2.4006569442E-03
    2.3425208347E-03    2.2857852662E-03    2.2304167494E-03    2.1763825870E-03
    2.1236508553E-03    2.0721903865E-03    2.0219707511E-03    1.9729622400E-03
    1.9251358486E-03    1.8784632599E-03    1.8329168282E-03    1.7884695639E-03
    1.7450951179E-03    1.7027677667E-03    1.6614623976E-03    1.6211544945E-03
    1.5818201240E-03    1.5434359217E-03    1.5059790787E-03    1.4694273288E-03
    1.4337589356E-03    1.3989526801E-03    1.3649878485E-03    1.3318442205E-03
    1.2995020574E-03    1.2679420910E-03    1.2371455126E-03    1.2070939617E-03
    1.1777695162E-03    1.1491546812E-03    1.1212323797E-03    1.0939859423E-03
    1.0673990976E-03    1.0414559631E-03    1.0161410356E-03    9.9143918260E-04
    9.6733563329E-04    9.4381597013E-04    9.2086612045E-04    8.9847234829E-04
    8.7662124646E-04    8.5529972868E-04    8.3449502205E-04    8.1419465961E-04
    7.9438647304E-04    7.7505858564E-04    7.5619940536E-04    7.3779761808E-04
    7.1984218097E-04    7.0232231612E-04    6.8522750415E-04    6.6854747814E-04
    6.5227221759E-04    6.3639194260E-04    6.2089710807E-04    6.0577839820E-04
    5.9102672098E-04    5.7663320285E-04    5.6258918355E-04    5.4888621099E-04
    5.3551603631E-04    5.2247060901E-04    5.0974207226E-04    4.9732275825E-04
    4.8520518368E-04    4.7338204536E-04    4.6184621593E-04    4.5059073962E-04
    4.3960882817E-04    4.2889385686E-04    4.1843936053E-04    4.0823902983E-04
    3.9828670745E-04    3.8857638452E-04    3.7910219702E-04    3.6985842235E-04
    3.6083947589E-04    3.5203990777E-04    3.4345439958E-04    3.3507776125E-04
    3.2690492796E-04    3.1893095714E-04    3.1115102556E-04    3.0356042644E-04
    2.9615456667E-04    2.8892896406E-04    2.8187924473E-04    2.7500114045E-04
    2.6829048614E-04    2.6174321739E-04    2.5535536802E-04    2.4912306774E-04
    2.4304253984E-04    2.3711009893E-04    2.3132214879E-04    2.2567518014E-04
    2.2016576863E-04    2.1479057276E-04    2.0954633188E-04    2.0442986429E-04
    1.9943806525E-04    1.9456790524E-04    1.8981642806E-04    1.8518074909E-04
    1.8065805358E-04    1.7624559497E-04    1.7194069322E-04    1.6774073322E-04
    1.6364316322E-04    1.5964549333E-04    1.5574529398E-04    1.5194019450E-04
    1.4822788169E-04    1.4460609843E-04    1.4107264235E-04    1.3762536444E-04
    1.3426216786E-04    1.3098100660E-04    1.2777988430E-04    1.2465685301E-04
    1.2161001208E-04    1.1863750693E-04    1.1573752804E-04    1.1290830978E-04
    1.1014812938E-04    1.0745530590E-04    1.0482819920E-04    1.0226520897E-04
    9.9764773769E-05    9.7325370056E-05    9.4945511307E-05    9.2623747104E-05
    9.0358662262E-05    8.8148875976E-05    8.5993040993E-05    8.3889842793E-05
    8.1837998804E-05    7.9836257622E-05    7.7883398261E-05    7.5978229412E-05
    7.4119588728E-05    7.2306342119E-05    7.0537383072E-05    6.8811631976E-05
    6.7128035475E-05    6.5485565832E-05    6.3883220304E-05    6.2320020540E-05
    6.0795011986E-05    5.9307263314E-05    5.7855865849E-05    5.6439933029E-05
    5.5058599864E-05    5.3711022413E-05    5.2396377274E-05    5.1113861085E-05
    4.9862690039E-05    4.8642099408E-05    4.7451343080E-05    4.6289693108E-05
    4.5156439268E-05    4.4050888630E-05    4.2972365136E-05    4.1920209193E-05
    4.0893777271E-05    3.9892441513E-05    3.8915589357E-05    3.7962623158E-05
    3.7032959835E-05    3.6126030508E-05    3.5241280159E-05    3.4378167293E-05
    3.3536163608E-05    3.2714753677E-05    3.1913434634E-05    3.1131715867E-05
    3.0369118723E-05    2.9625176214E-05    2.8899432737E-05    2.8191443795E-05
    2.7500775725E-05    2.6827005439E-05    2.6169720164E-05    2.5528517191E-05
    2.4903003630E-05    2.4292796173E-05    2.3697520859E-05    2.3116812848E-05
    2.2550316197E-05    2.1997683647E-05    2.1458576406E-05    2.0932663949E-05
    2.0419623814E-05    1.9919141405E-05    1.9430909800E-05    1.8954629569E-05
    1.8490008584E-05    1.8036761849E-05    1.7594611320E-05    1.7163285740E-05
    1.6742520470E-05    1.6332057332E-05    1.5931644448E-05    1.5541036089E-05
    1.5159992524E-05    1.4788279873E-05    1.4425669966E-05    1.4071940205E-05
    1.3726873424E-05    1.3390257762E-05    1.3061886528E-05    1.2741558081E-05
    1.2429075702E-05    1.2124247476E-05    1.1826886176E-05    1.1536809146E-05
    1.1253838193E-05    1.0977799474E-05    1.0708523395E-05    1.0445844503E-05
    1.0189601386E-05    9.9396365771E-06    9.6957964551E-06    9.4579311524E-06
    9.2258944628E-06    8.9995437525E-06    8.7787398732E-06    8.5633470765E-06
    8.3532329311E-06    8.1482682423E-06    7.9483269728E-06    7.7532861653E-06
    7.5630258680E-06    7.3774290608E-06    7.1963815840E-06    7.0197720682E-06
    6.8474918667E-06    6.6794349887E-06    6.5154980344E-06    6.3555801320E-06
    6.1995828760E-06    6.0474102668E-06    5.8989686521E-06    5.7541666696E-06
    5.6129151911E-06    5.4751272679E-06    5.3407180776E-06    5.2096048721E-06
    5.0817069274E-06    4.9569454934E-06    4.8352437464E-06    4.7165267417E-06
    4.6007213679E-06    4.4877563017E-06    4.3775619650E-06    4.2700704814E-06
    4.1652156353E-06    4.0629328310E-06    3.9631590533E-06    3.8658328288E-06
    3.7708941880E-06    3.6782846291E-06    3.5879470816E-06    3.4998258718E-06
    3.4138666883E-06    3.3300165487E-06    3.2482237676E-06    3.1684379243E-06
    3.0906098324E-06    3.0146915090E-06    2.9406361462E-06    2.8683980814E-06
    2.7979327702E-06    2.7291967583E-06    2.6621476553E-06    2.5967441087E-06
    2.5329457782E-06    2.4707133114E-06    2.4100083193E-06    2.3507933528E-06
    2.2930318798E-06    2.2366882628E-06    2.1817277370E-06    2.1281163890E-06
    2.0758211356E-06    2.0248097043E-06    1.9750506126E-06    1.9265131493E-06
    1.8791673552E-06    1.8329840050E-06    1.7879345894E-06    1.7439912973E-06
    1.7011269989E-06    1.6593152289E-06    1.6185301706E-06    1.5787466395E-06
    1.5399400682E-06    1.5020864913E-06    1.4651625305E-06    1.4291453803E-06
    1.3940127941E-06    1.3597430703E-06    1.3263150392E-06    1.2937080497E-06
    1.2619019569E-06    1.2308771097E-06    1.2006143384E-06    1.1710949432E-06
    1.1423006827E-06    1.1142137623E-06    1.0868168241E-06    1.0600929351E-06
    1.0340255778E-06    1.0085986392E-06    9.8379640181E-07    9.5960353298E-07
    9.3600507620E-07    9.1298644154E-07    8.9053339682E-07    8.6863205883E-07
    8.4726888470E-07    8.2643066366E-07    8.0610450885E-07    7.8627784945E-07
    7.6693842288E-07    7.4807426725E-07    7.2967371405E-07    7.1172538090E-07
    6.9421816462E-07    6.7714123429E-07    6.6048402466E-07    6.4423622962E-07
    6.2838779585E-07    6.1292891662E-07    5.9785002574E-07    5.8314179169E-07
    5.6879511190E-07    5.5480110704E-07    5.4115111564E-07    5.2783668874E-07
    5.1484958465E-07    5.0218176388E-07    4.8982538421E-07    4.7777279581E-07
    4.6601653660E-07    4.5454932757E-07    4.4336406832E-07    4.3245383269E-07
    4.2181186451E-07    4.1143157339E-07    4.0130653069E-07    3.9143046551E-07
    3.8179726089E-07    3.7240094999E-07    3.6323571241E-07    3.5429587063E-07
    3.4557588646E-07    3.3707035768E-07    3.2877401467E-07    3.2068171717E-07
    3.1278845107E-07    3.0508932539E-07    2.9757956923E-07    2.9025452878E-07
    2.8310966451E-07    2.7614054834E-07    2.6934286091E-07    2.6271238891E-07
    2.5624502248E-07    2.4993675269E-07    2.4378366904E-07    2.3778195706E-07
    2.3192789594E-07    2.2621785625E-07    2.2064829769E-07    2.1521576691E-07
    2.0991689537E-07    2.0474839725E-07    1.9970706745E-07    1.9478977956E-07
    1.8999348400E-07    1.8531520608E-07    1.8075204416E-07    1.7630116788E-07
    1.7195981644E-07    1.6772529683E-07    1.6359498219E-07    1.5956631020E-07
    1.5563678150E-07    1.5180395813E-07    1.4806546202E-07    1.4441897352E-07
    1.4086222998E-07    1.3739302435E-07    1.3400920380E-07    1.3070866842E-07
    1.2748936985E-07    1.2434931012E-07    1.2128654032E-07    1.1829915944E-07
    1.1538531321E-07    1.1254319288E-07    1.0977103421E-07    1.0706711627E-07
    1.0442976045E-07    1.0185732940E-07    9.9348225982E-08    9.6900892354E-08
    9.4513808943E-08    9.2185493531E-08    8.9914500328E-08    8.7699419091E-08
    8.5538874242E-08    8.3431524019E-08    8.1376059640E-08    7.9371204496E-08
    7.7415713370E-08    7.5508371655E-08    7.3647994604E-08    7.1833426599E-08
    7.0063540430E-08    6.8337236610E-08    6.6653442682E-08    6.5011112559E-08
    6.3409225873E-08    6.1846787347E-08    6.0322826182E-08    5.8836395448E-08
    5.7386571503E-08    5.5972453413E-08    5.4593162404E-08    5.3247841317E-08
    5.1935654068E-08    5.0655785138E-08    4.9407439059E-08    4.8189839936E-08
    4.7002230955E-08    4.5843873913E-08    4.4714048769E-08    4.3612053185E-08
    4.2537202108E-08    4.1488827331E-08    4.0466277086E-08    3.9468915636E-08
    3.8496122881E-08    3.7547293981E-08    3.6621838972E-08    3.5719182404E-08
    3.4838762986E-08    3.3980033231E-08    3.3142459127E-08    3.2325519800E-08
    3.1528707188E-08    3.0751525734E-08    2.9993492066E-08    2.9254134716E-08
    2.8532993810E-08    2.7829620793E-08    2.7143578145E-08    2.6474439112E-08
    2.5821787444E-08    2.5185217134E-08    2.4564332164E-08    2.3958746264E-08
    2.3368082666E-08    2.2791973880E-08    2.2230061457E-08    2.1681995770E-08
    2.1147435798E-08    2.0626048911E-08    2.0117510667E-08    1.9621504611E-08
    1.9137722077E-08    1.8665861995E-08    1.8205630703E-08    1.7756741773E-08
    1.7318915826E-08    1.6891880358E-08    1.6475369576E-08    1.6069124225E-08
    1.5672891438E-08    1.5286424570E-08    1.4909483049E-08    1.4541832225E-08
    1.4183243223E-08    1.3833492805E-08    1.3492363231E-08    1.3159642118E-08
    1.2835122314E-08    1.2518601767E-08    1.2209883398E-08    1.1908774985E-08
    1.1615089036E-08    1.1328642676E-08    1.1049257532E-08    1.0776759624E-08
    1.0510979257E-08    1.0251750915E-08    9.9989131562E-09    9.7523085156E-09
    9.5117834041E-09    9.2771880174E-09    9.0483762395E-09    8.8252055529E-09
    8.6075369496E-09    8.3952348444E-09    8.1881669928E-09    7.9862044071E-09
    7.7892212762E-09    7.5970948877E-09    7.4097055511E-09    7.2269365242E-09
    7.0486739410E-09    6.8748067400E-09    6.7052265948E-09    6.5398278475E-09
    6.3785074420E-09    6.2211648625E-09    6.0677020683E-09    5.9180234340E-09
    5.7720356896E-09    5.6296478624E-09    5.4907712213E-09    5.3553192216E-09
    5.2232074501E-09    5.0943535733E-09    4.9686772858E-09    4.8461002605E-09
    4.7265461011E-09    4.6099402930E-09    4.4962101573E-09    4.3852848059E-09
    4.2770950966E-09    4.1715735918E-09    4.0686545155E-09    3.9682737120E-09
    3.8703686064E-09    3.7748781656E-09    3.6817428602E-09    3.5909046285E-09
    3.5023068391E-09    3.4158942560E-09    3.3316130044E-09    3.2494105366E-09
    3.1692356006E-09    3.0910382074E-09    3.0147695995E-09    2.9403822213E-09
    2.8678296887E-09    2.7970667609E-09    2.7280493124E-09    2.6607343051E-09
    2.5950797615E-09    2.5310447386E-09    2.4685893021E-09    2.4076745026E-09
    2.3482623508E-09    2.2903157932E-09    2.2337986900E-09    2.1786757917E-09
    2.1249127177E-09    2.0724759353E-09    2.0213327382E-09    1.9714512261E-09
    1.9228002852E-09    1.8753495682E-09    1.8290694764E-09    1.7839311406E-09
    1.7399064032E-09    1.6969678008E-09    1.6550885469E-09    1.6142425150E-09
    1.5744042234E-09    1.5355488181E-09    1.4976520581E-09    1.4606902998E-09
    1.4246404825E-09    1.3894801139E-09    1.3551872565E-09    1.3217405138E-09
    1.2891190164E-09    1.2573024097E-09    1.2262708406E-09    1.1960049459E-09
    1.1664858396E-09    1.1376951016E-09    1.1096147656E-09    1.0822273086E-09
    1.0555156393E-09    1.0294630882E-09    1.0040533966E-09    9.7927070693E-10
    9.5509955246E-10    9.3152484785E-10    9.0853187955E-10    8.8610629722E-10
    8.6423410424E-10    8.4290164912E-10    8.2209561701E-10    8.0180302137E-10
    7.8201119572E-10    7.6270778636E-10    7.4388074406E-10    7.2551831671E-10
    7.0760904203E-10    6.9014174039E-10    6.7310550772E-10    6.5648970924E-10
    6.4028397224E-10    6.2447817986E-10    6.0906246473E-10    5.9402720277E-10
    5.7936300726E-10    5.6506072319E-10    5.5111142123E-10    5.3750639229E-10
    5.2423714206E-10    5.1129538571E-10    4.9867304273E-10    4.8636223208E-10
    4.7435526704E-10    4.6264465047E-10    4.5122307012E-10    4.4008339411E-10
    4.2921866642E-10    4.1862210280E-10    4.0828708625E-10    3.9820716298E-10
    3.8837603840E-10    3.7878757315E-10    3.6943577929E-10    3.6031481676E-10
    3.5141898946E-10    3.4274274183E-10    3.3428065531E-10    3.2602744503E-10
    3.1797795642E-10    3.1012716225E-10    3.0247015922E-10    2.9500216498E-10
    2.8771851517E-10    2.8061466049E-10    2.7368616381E-10    2.6692869762E-10
    2.6033804111E-10    2.5391007759E-10    2.4764079193E-10    2.4152626807E-10
    2.3556268647E-10    2.2974632200E-10    2.2407354138E-10    2.1854080094E-10
    2.1314464445E-10    2.0788170096E-10    2.0274868261E-10    1.9774238282E-10
    1.9285967405E-10    1.8809750595E-10    1.8345290340E-10    1.7892296471E-10
    1.7450485973E-10    1.7019582822E-10    1.6599317805E-10    1.6189428350E-10
    1.5789658363E-10    1.5399758070E-10    1.5019483857E-10    1.4648598124E-10
    1.4286869137E-10    1.3934070879E-10    1.3589982909E-10    1.3254390227E-10
    1.2927083136E-10    1.2607857110E-10    1.2296512682E-10    1.1992855300E-10
    1.1696695214E-10    1.1407847358E-10    1.1126131230E-10    1.0851370780E-10
    1.0583394311E-10    1.0322034359E-10    1.0067127594E-10    9.8185147159E-11
    9.5760403550E-11    9.3395529748E-11    9.1089047805E-11    8.8839516278E-11
    8.6645529272E-11    8.4505715592E-11    8.2418737882E-11    8.0383291787E-11
    7.8398105116E-11    7.6461937150E-11    7.4573577755E-11    7.2731846665E-11
    7.0935592743E-11    6.9183693262E-11    6.7475053185E-11    6.5808604535E-11
    6.4183305700E-11    6.2598140765E-11    6.1052118888E-11    5.9544273685E-11
    5.8073662616E-11    5.6639366393E-11    5.5240488466E-11    5.3876154391E-11
    5.2545511308E-11    5.1247727405E-11    4.9981991404E-11    4.8747512032E-11
    4.7543517580E-11    4.6369255385E-11    4.5223991358E-11    4.4107009527E-11
    4.3017611595E-11    4.1955116496E-11    4.0918859964E-11    3.9908194170E-11
    3.8922487258E-11    3.7961122967E-11    3.7023500250E-11    3.6109032896E-11
    3.5217149152E-11    3.4347291396E-11    3.3498915781E-11    3.2671491873E-11
    3.1864502334E-11    3.1077442598E-11    3.0309820553E-11    2.9561156217E-11
    2.8830981495E-11    2.8118839834E-11    2.7424285948E-11    2.6746885546E-11
    2.6086215057E-11    2.5441861362E-11    2.4813421539E-11    2.4200502635E-11
    2.3602721384E-11    2.3019703986E-11    2.2451085865E-11    2.1896511447E-11
    2.1355633930E-11    2.0828115083E-11    2.0313625032E-11    1.9811842040E-11
    1.9322452315E-11    1.8845149810E-11    1.8379636035E-11    1.7925619859E-11
    1.7482817358E-11    1.7050951614E-11    1.6629752543E-11    1.6218956730E-11
    1.5818307261E-11    1.5427553567E-11    1.5046451255E-11    1.4674761990E-11
    1.4312253310E-11    1.3958698491E-11    1.3613876409E-11    1.3277571400E-11
    1.2949573120E-11    1.2629676419E-11    1.2317681224E-11    1.2013392395E-11
    1.1716619611E-11    1.1427177251E-11    1.1144884275E-11    1.0869564111E-11
    1.0601044549E-11    1.0339157639E-11    1.0083739572E-11    9.8346305849E-12
    9.5916748596E-12    9.3547204246E-12    9.1236190576E-12    8.8982262000E-12
    8.6784008680E-12    8.4640055550E-12    8.2549061499E-12    8.0509718531E-12
    7.8520750949E-12    7.6580914518E-12    7.4688995776E-12    7.2843811256E-12
    7.1044206687E-12    6.9289056297E-12    6.7577262117E-12    6.5907753289E-12
    6.4279485364E-12    6.2691439731E-12    6.1142622958E-12    5.9632066116E-12
    5.8158824206E-12    5.6721975564E-12    5.5320621286E-12    5.3953884638E-12
    5.2620910571E-12    5.1320865178E-12    5.0052935120E-12    4.8816327146E-12
    4.7610267591E-12    4.6434001899E-12    4.5286794123E-12    4.4167926515E-12
    4.3076699081E-12    4.2012429091E-12    4.0974450678E-12    3.9962114415E-12
    3.8974786916E-12    3.8011850422E-12    3.7072702434E-12    3.6156755374E-12
    3.5263436150E-12    3.4392185824E-12    3.3542459263E-12    3.2713724793E-12
    3.1905463868E-12    3.1117170731E-12    3.0348352171E-12    2.9598527131E-12
    2.8867226434E-12    2.8153992490E-12    2.7458379010E-12    2.6779950728E-12
    2.6118283099E-12    2.5472962123E-12    2.4843584000E-12    2.4229754901E-12
    2.3631090724E-12    2.3047216854E-12    2.2477767927E-12    2.1922387584E-12
    2.1380728303E-12    2.0852451139E-12    2.0337225513E-12    1.9834729011E-12
    1.9344647180E-12    1.8866673337E-12    1.8400508360E-12    1.7945860526E-12
    1.7502445334E-12    1.7069985296E-12    1.6648209781E-12    1.6236854840E-12
    1.5835663043E-12    1.5444383316E-12    1.5062770776E-12    1.4690586620E-12
    1.4327597930E-12    1.3973577538E-12    1.3628303889E-12    1.3291560899E-12
    1.2963137821E-12    1.2642829103E-12    1.2330434289E-12    1.2025757875E-12
    1.1728609180E-12    1.1438802233E-12    1.1156155657E-12    1.0880492553E-12
   </PP_CHI.1>
   <PP_CHI.2
       type="real"
       size="1244"
       columns="4"
       index="2"
       occupation=" 6.000"
       pseudo_energy="   -0.3758800903E+01"
       label="4P"
       l="1" >
    6.3887124757E-12    3.5442327972E-04    1.4171566781E-03    3.1865919550E-03
    5.6600523215E-03    8.8337978468E-03    1.2703033005E-02    1.7261916337E-02
    2.2503572202E-02    2.8420104583E-02    3.5002612894E-02    4.2241209768E-02
    5.0125040739E-02    5.8642305793E-02    6.7780282703E-02    7.7525352094E-02
    8.7863024164E-02    9.8777966980E-02    1.1025403629E-01    1.2227430673E-01
    1.3482110444E-01    1.4787604080E-01    1.6142004751E-01    1.7543341261E-01
    1.8989581751E-01    2.0478637502E-01    2.2008366805E-01    2.3576578912E-01
    2.5181038044E-01    2.6819467462E-01    2.8489553567E-01    3.0188950054E-01
    3.1915282078E-01    3.3666150447E-01    3.5439135826E-01    3.7231802932E-01
    3.9041704739E-01    4.0866386652E-01    4.2703390672E-01    4.4550259519E-01
    4.6404540731E-01    4.8263790705E-01    5.0125578693E-01    5.1987490740E-01
    5.3847133551E-01    5.5702138291E-01    5.7550164300E-01    5.9388902730E-01
    6.1216080084E-01    6.3029461662E-01    6.4826854899E-01    6.6606112603E-01
    6.8365136064E-01    7.0101878061E-01    7.1814345730E-01    7.3500603308E-01
    7.5158774746E-01    7.6787046173E-01    7.8383668231E-01    7.9946958248E-01
    8.1475302272E-01    8.2967156946E-01    8.4421051224E-01    8.5835587928E-01
    8.7209445147E-01    8.8541377462E-01    8.9830217013E-01    9.1074874391E-01
    9.2274339371E-01    9.3427681463E-01    9.4534050301E-01    9.5592675865E-01
    9.6602868530E-01    9.7564018951E-01    9.8475597778E-01    9.9337155218E-01
    1.0014832043E+00    1.0090880076E+00    1.0161838085E+00    1.0227692153E+00
    1.0288435867E+00    1.0344070180E+00    1.0394603265E+00    1.0440050354E+00
    1.0480433566E+00    1.0515781723E+00    1.0546130155E+00    1.0571520497E+00
    1.0592000476E+00    1.0607623686E+00    1.0618449361E+00    1.0624542138E+00
    1.0625971813E+00    1.0622813098E+00    1.0615145361E+00    1.0603052380E+00
    1.0586622077E+00    1.0565946260E+00    1.0541120365E+00    1.0512243189E+00
    1.0479416630E+00    1.0442745429E+00    1.0402336909E+00    1.0358300715E+00
    1.0310748569E+00    1.0259794009E+00    1.0205552153E+00    1.0148139449E+00
    1.0087673444E+00    1.0024272549E+00    9.9580558169E-01    9.8891427188E-01
    9.8176529342E-01    9.7437061427E-01    9.6674218249E-01    9.5889190694E-01
    9.5083163870E-01    9.4257315325E-01    9.3412813336E-01    9.2550815270E-01
    9.1672466019E-01    9.0778896512E-01    8.9871222298E-01    8.8950542201E-01
    8.8017937049E-01    8.7074468478E-01    8.6121177801E-01    8.5159084951E-01
    8.4189187495E-01    8.3212459713E-01    8.2229851748E-01    8.1242288822E-01
    8.0250670513E-01    7.9255870109E-01    7.8258734014E-01    7.7260081225E-01
    7.6260702870E-01    7.5261361809E-01    7.4262792296E-01    7.3265699706E-01
    7.2270760317E-01    7.1278621157E-01    7.0289899912E-01    6.9305184893E-01
    6.8325035057E-01    6.7349980100E-01    6.6380520595E-01    6.5417128195E-01
    6.4460245896E-01    6.3510288351E-01    6.2567642243E-01    6.1632666716E-01
    6.0705693854E-01    5.9787029219E-01    5.8876952436E-01    5.7975717830E-01
    5.7083555109E-01    5.6200670094E-01    5.5327245493E-01    5.4463441713E-01
    5.3609397711E-01    5.2765231881E-01    5.1931042970E-01    5.1106911022E-01
    5.0292898348E-01    4.9489050513E-01    4.8695397337E-01    4.7911953915E-01
    4.7138721633E-01    4.6375689194E-01    4.5622833634E-01    4.4880121336E-01
    4.4147509030E-01    4.3424944769E-01    4.2712368887E-01    4.2009714934E-01
    4.1316910565E-01    4.0633878404E-01    3.9960536861E-01    3.9296800908E-01
    3.8642582802E-01    3.7997792767E-01    3.7362339606E-01    3.6736131268E-01
    3.6119075346E-01    3.5511079516E-01    3.4912051907E-01    3.4321901407E-01
    3.3740537890E-01    3.3167872383E-01    3.2603817158E-01    3.2048285588E-01
    3.1501191435E-01    3.0962447410E-01    3.0431965187E-01    2.9909655657E-01
    2.9395428952E-01    2.8889194569E-01    2.8390861470E-01    2.7900338170E-01
    2.7417532832E-01    2.6942353346E-01    2.6474707414E-01    2.6014502621E-01
    2.5561646508E-01    2.5116046640E-01    2.4677610668E-01    2.4246246390E-01
    2.3821861807E-01    2.3404365175E-01    2.2993665058E-01    2.2589670372E-01
    2.2192290429E-01    2.1801434980E-01    2.1417014253E-01    2.1038938989E-01
    2.0667120474E-01    2.0301470576E-01    1.9941901767E-01    1.9588327155E-01
    1.9240660508E-01    1.8898816278E-01    1.8562709620E-01    1.8232256416E-01
    1.7907373289E-01    1.7587977623E-01    1.7273987577E-01    1.6965322098E-01
    1.6661900935E-01    1.6363644648E-01    1.6070474621E-01    1.5782313069E-01
    1.5499083046E-01    1.5220708452E-01    1.4947114039E-01    1.4678225416E-01
    1.4413969050E-01    1.4154272277E-01    1.3899063295E-01    1.3648271170E-01
    1.3401825840E-01    1.3159658110E-01    1.2921699653E-01    1.2687883013E-01
    1.2458141597E-01    1.2232409679E-01    1.2010622395E-01    1.1792715737E-01
    1.1578626557E-01    1.1368292557E-01    1.1161652285E-01    1.0958645135E-01
    1.0759211339E-01    1.0563291960E-01    1.0370828892E-01    1.0181764847E-01
    9.9960433576E-02    9.8136087627E-02    9.6344062060E-02    9.4583816279E-02
    9.2854817587E-02    9.1156541114E-02    8.9488469753E-02    8.7850094079E-02
    8.6240912279E-02    8.4660430077E-02    8.3108160659E-02    8.1583624590E-02
    8.0086349743E-02    7.8615871218E-02    7.7171731260E-02    7.5753479182E-02
    7.4360671285E-02    7.2992870776E-02    7.1649647687E-02    7.0330578795E-02
    6.9035247540E-02    6.7763243944E-02    6.6514164528E-02    6.5287612235E-02
    6.4083196342E-02    6.2900532385E-02    6.1739242076E-02    6.0598953221E-02
    5.9479299640E-02    5.8379921088E-02    5.7300463176E-02    5.6240577289E-02
    5.5199920508E-02    5.4178155532E-02    5.3174950602E-02    5.2189979419E-02
    5.1222921070E-02    5.0273459952E-02    4.9341285695E-02    4.8426093086E-02
    4.7527581997E-02    4.6645457308E-02    4.5779428835E-02    4.4929211261E-02
    4.4094524055E-02    4.3275091411E-02    4.2470642170E-02    4.1680909755E-02
    4.0905632098E-02    4.0144551573E-02    3.9397414930E-02    3.8663973226E-02
    3.7943981760E-02    3.7237200006E-02    3.6543391550E-02    3.5862324026E-02
    3.5193769050E-02    3.4537502163E-02    3.3893302763E-02    3.3260954049E-02
    3.2640242958E-02    3.2030960109E-02    3.1432899738E-02    3.0845859648E-02
    3.0269641145E-02    2.9704048987E-02    2.9148891324E-02    2.8603979647E-02
    2.8069128731E-02    2.7544156582E-02    2.7028884386E-02    2.6523136455E-02
    2.6026740177E-02    2.5539525967E-02    2.5061327212E-02    2.4591980228E-02
    2.4131324207E-02    2.3679201174E-02    2.3235455935E-02    2.2799936033E-02
    2.2372491703E-02    2.1952975828E-02    2.1541243889E-02    2.1137153929E-02
    2.0740566506E-02    2.0351344649E-02    1.9969353820E-02    1.9594461872E-02
    1.9226539007E-02    1.8865457737E-02    1.8511092845E-02    1.8163321346E-02
    1.7822022451E-02    1.7487077524E-02    1.7158370054E-02    1.6835785610E-02
    1.6519211809E-02    1.6208538285E-02    1.5903656645E-02    1.5604460443E-02
    1.5310845145E-02    1.5022708093E-02    1.4739948475E-02    1.4462467291E-02
    1.4190167327E-02    1.3922953115E-02    1.3660730913E-02    1.3403408667E-02
    1.3150895985E-02    1.2903104108E-02    1.2659945881E-02    1.2421335725E-02
    1.2187189610E-02    1.1957425026E-02    1.1731960961E-02    1.1510717869E-02
    1.1293617648E-02    1.1080583613E-02    1.0871540472E-02    1.0666414302E-02
    1.0465132523E-02    1.0267623875E-02    1.0073818397E-02    9.8836473988E-03
    9.6970434455E-03    9.5139403296E-03    9.3342730518E-03    9.1579777991E-03
    8.9849919236E-03    8.8152539223E-03    8.6487034161E-03    8.4852811303E-03
    8.3249288746E-03    8.1675895243E-03    8.0132070005E-03    7.8617262523E-03
    7.7130932378E-03    7.5672549064E-03    7.4241591809E-03    7.2837549403E-03
    7.1459920024E-03    7.0108211071E-03    6.8781939000E-03    6.7480629158E-03
    6.6203815628E-03    6.4951041067E-03    6.3721856555E-03    6.2515821442E-03
    6.1332503201E-03    6.0171477278E-03    5.9032326952E-03    5.7914643190E-03
    5.6818024513E-03    5.5742076854E-03    5.4686413427E-03    5.3650654595E-03
    5.2634427741E-03    5.1637367140E-03    5.0659113832E-03    4.9699315505E-03
    4.8757626368E-03    4.7833707036E-03    4.6927224414E-03    4.6037851582E-03
    4.5165267679E-03    4.4309157800E-03    4.3469212881E-03    4.2645129596E-03
    4.1836610251E-03    4.1043362682E-03    4.0265100153E-03    3.9501541259E-03
    3.8752409826E-03    3.8017434817E-03    3.7296350237E-03    3.6588895043E-03
    3.5894813049E-03    3.5213852842E-03    3.4545767691E-03    3.3890315463E-03
    3.3247258537E-03    3.2616363724E-03    3.1997402180E-03    3.1390149334E-03
    3.0794384804E-03    3.0209892320E-03    2.9636459652E-03    2.9073878531E-03
    2.8521944580E-03    2.7980457240E-03    2.7449219700E-03    2.6928038829E-03
    2.6416725107E-03    2.5915092559E-03    2.5422958687E-03    2.4940144412E-03
    2.4466474004E-03    2.4001775023E-03    2.3545878259E-03    2.3098617671E-03
    2.2659830328E-03    2.2229356354E-03    2.1807038867E-03    2.1392723929E-03
    2.0986260485E-03    2.0587500315E-03    2.0196297981E-03    1.9812510770E-03
    1.9435998650E-03    1.9066624217E-03    1.8704252647E-03    1.8348751646E-03
    1.7999991407E-03    1.7657844558E-03    1.7322186125E-03    1.6992893479E-03
    1.6669846296E-03    1.6352926515E-03    1.6042018296E-03    1.5737007974E-03
    1.5437784026E-03    1.5144237023E-03    1.4856259598E-03    1.4573746404E-03
    1.4296594075E-03    1.4024701193E-03    1.3757968247E-03    1.3496297603E-03
    1.3239593464E-03    1.2987761837E-03    1.2740710501E-03    1.2498348972E-03
    1.2260588471E-03    1.2027341893E-03    1.1798523773E-03    1.1574050261E-03
    1.1353839085E-03    1.1137809524E-03    1.0925882383E-03    1.0717979957E-03
    1.0514026009E-03    1.0313945741E-03    1.0117665764E-03    9.9251140773E-04
    9.7362200367E-04    9.5509143327E-04    9.3691289641E-04    9.1907972137E-04
    9.0158536244E-04    8.8442339752E-04    8.6758752582E-04    8.5107156557E-04
    8.3486945179E-04    8.1897523412E-04    8.0338307461E-04    7.8808724567E-04
    7.7308212795E-04    7.5836220833E-04    7.4392207790E-04    7.2975643004E-04
    7.1586005844E-04    7.0222785526E-04    6.8885480926E-04    6.7573600398E-04
    6.6286661596E-04    6.5024191297E-04    6.3785725233E-04    6.2570807920E-04
    6.1378992491E-04    6.0209840538E-04    5.9062921948E-04    5.7937814751E-04
    5.6834104961E-04    5.5751386433E-04    5.4689260708E-04    5.3647336872E-04
    5.2625231413E-04    5.1622568080E-04    5.0638977750E-04    4.9674098288E-04
    4.8727574420E-04    4.7799057599E-04    4.6888205884E-04    4.5994683809E-04
    4.5118162264E-04    4.4258318377E-04    4.3414835390E-04    4.2587402551E-04
    4.1775714996E-04    4.0979473636E-04    4.0198385055E-04    3.9432161396E-04
    3.8680520258E-04    3.7943184596E-04    3.7219882614E-04    3.6510347671E-04
    3.5814318182E-04    3.5131537519E-04    3.4461753924E-04    3.3804720411E-04
    3.3160194678E-04    3.2527939018E-04    3.1907720235E-04    3.1299309553E-04
    3.0702482537E-04    3.0117019010E-04    2.9542702970E-04    2.8979322515E-04
    2.8426669762E-04    2.7884540772E-04    2.7352735477E-04    2.6831057604E-04
    2.6319314605E-04    2.5817317586E-04    2.5324881238E-04    2.4841823768E-04
    2.4367966835E-04    2.3903135482E-04    2.3447158072E-04    2.2999866229E-04
    2.2561094769E-04    2.2130681648E-04    2.1708467897E-04    2.1294297563E-04
    2.0888017657E-04    2.0489478093E-04    2.0098531636E-04    1.9715033845E-04
    1.9338843024E-04    1.8969820168E-04    1.8607828908E-04    1.8252735470E-04
    1.7904408618E-04    1.7562719608E-04    1.7227542143E-04    1.6898752325E-04
    1.6576228608E-04    1.6259851756E-04    1.5949504798E-04    1.5645072986E-04
    1.5346443749E-04    1.5053506659E-04    1.4766153383E-04    1.4484277647E-04
    1.4207775198E-04    1.3936543762E-04    1.3670483009E-04    1.3409494516E-04
    1.3153481730E-04    1.2902349934E-04    1.2656006209E-04    1.2414359405E-04
    1.2177320101E-04    1.1944800578E-04    1.1716714784E-04    1.1492978302E-04
    1.1273508320E-04    1.1058223602E-04    1.0847044453E-04    1.0639892695E-04
    1.0436691637E-04    1.0237366044E-04    1.0041842114E-04    9.8500474463E-05
    9.6619110171E-05    9.4773631537E-05    9.2963355080E-05    9.1187610316E-05
    8.9445739512E-05    8.7737097442E-05    8.6061051151E-05    8.4416979725E-05
    8.2804274055E-05    8.1222336619E-05    7.9670581261E-05    7.8148432974E-05
    7.6655327686E-05    7.5190712059E-05    7.3754043277E-05    7.2344788853E-05
    7.0962426429E-05    6.9606443586E-05    6.8276337651E-05    6.6971615517E-05
    6.5691793459E-05    6.4436396954E-05    6.3204960512E-05    6.1997027495E-05
    6.0812149959E-05    5.9649888481E-05    5.8509812003E-05    5.7391497667E-05
    5.6294530664E-05    5.5218504081E-05    5.4163018748E-05    5.3127683092E-05
    5.2112112994E-05    5.1115931645E-05    5.0138769411E-05    4.9180263691E-05
    4.8240058788E-05    4.7317805777E-05    4.6413162374E-05    4.5525792813E-05
    4.4655367717E-05    4.3801563984E-05    4.2964064661E-05    4.2142558831E-05
    4.1336741497E-05    4.0546313468E-05    3.9770981252E-05    3.9010456946E-05
    3.8264458127E-05    3.7532707753E-05    3.6814934056E-05    3.6110870445E-05
    3.5420255406E-05    3.4742832405E-05    3.4078349796E-05    3.3426560724E-05
    3.2787223036E-05    3.2160099194E-05    3.1544956182E-05    3.0941565424E-05
    3.0349702699E-05    2.9769148056E-05    2.9199685736E-05    2.8641104089E-05
    2.8093195499E-05    2.7555756304E-05    2.7028586723E-05    2.6511490782E-05
    2.6004276242E-05    2.5506754525E-05    2.5018740649E-05    2.4540053155E-05
    2.4070514042E-05    2.3609948704E-05    2.3158185860E-05    2.2715057494E-05
    2.2280398792E-05    2.1854048082E-05    2.1435846774E-05    2.1025639299E-05
    2.0623273056E-05    2.0228598350E-05    1.9841468342E-05    1.9461738992E-05
    1.9089269003E-05    1.8723919776E-05    1.8365555351E-05    1.8014042363E-05
    1.7669249987E-05    1.7331049895E-05    1.6999316204E-05    1.6673925433E-05
    1.6354756453E-05    1.6041690447E-05    1.5734610864E-05    1.5433403374E-05
    1.5137955829E-05    1.4848158218E-05    1.4563902630E-05    1.4285083212E-05
    1.4011596128E-05    1.3743339525E-05    1.3480213491E-05    1.3222120021E-05
    1.2968962978E-05    1.2720648061E-05    1.2477082766E-05    1.2238176355E-05
    1.2003839820E-05    1.1773985853E-05    1.1548528809E-05    1.1327384680E-05
    1.1110471058E-05    1.0897707110E-05    1.0689013544E-05    1.0484312580E-05
    1.0283527925E-05    1.0086584740E-05    9.8934096149E-06    9.7039305393E-06
    9.5180768786E-06    9.3357793455E-06    9.1569699754E-06    8.9815821008E-06
    8.8095503266E-06    8.6408105060E-06    8.4752997166E-06    8.3129562373E-06
    8.1537195248E-06    7.9975301918E-06    7.8443299847E-06    7.6940617621E-06
    7.5466694734E-06    7.4020981379E-06    7.2602938251E-06    7.1212036338E-06
    6.9847756730E-06    6.8509590425E-06    6.7197038140E-06    6.5909610128E-06
    6.4646825991E-06    6.3408214507E-06    6.2193313451E-06    6.1001669426E-06
    5.9832837697E-06    5.8686382017E-06    5.7561874476E-06    5.6458895334E-06
    5.5377032870E-06    5.4315883224E-06    5.3275050255E-06    5.2254145384E-06
    5.1252787459E-06    5.0270602605E-06    4.9307224093E-06    4.8362292198E-06
    4.7435454068E-06    4.6526363590E-06    4.5634681268E-06    4.4760074089E-06
    4.3902215403E-06    4.3060784803E-06    4.2235468002E-06    4.1425956721E-06
    4.0631948569E-06    3.9853146936E-06    3.9089260878E-06    3.8340005012E-06
    3.7605099410E-06    3.6884269491E-06    3.6177245924E-06    3.5483764524E-06
    3.4803566158E-06    3.4136396642E-06    3.3482006653E-06    3.2840151632E-06
    3.2210591698E-06    3.1593091551E-06    3.0987420392E-06    3.0393351833E-06
    2.9810663813E-06    2.9239138518E-06    2.8678562296E-06    2.8128725582E-06
    2.7589422817E-06    2.7060452369E-06    2.6541616466E-06    2.6032721115E-06
    2.5533576031E-06    2.5043994571E-06    2.4563793657E-06    2.4092793715E-06
    2.3630818603E-06    2.3177695548E-06    2.2733255082E-06    2.2297330976E-06
    2.1869760181E-06    2.1450382768E-06    2.1039041864E-06    2.0635583597E-06
    2.0239857039E-06    1.9851714149E-06    1.9471009717E-06    1.9097601309E-06
    1.8731349219E-06    1.8372116409E-06    1.8019768468E-06    1.7674173551E-06
    1.7335202338E-06    1.7002727983E-06    1.6676626064E-06    1.6356774544E-06
    1.6043053717E-06    1.5735346169E-06    1.5433536731E-06    1.5137512440E-06
    1.4847162492E-06    1.4562378205E-06    1.4283052974E-06    1.4009082238E-06
    1.3740363433E-06    1.3476795960E-06    1.3218281143E-06    1.2964722197E-06
    1.2716024187E-06    1.2472093996E-06    1.2232840289E-06    1.1998173478E-06
    1.1768005691E-06    1.1542250737E-06    1.1320824076E-06    1.1103642783E-06
    1.0890625524E-06    1.0681692520E-06    1.0476765518E-06    1.0275767765E-06
    1.0078623977E-06    9.8852603095E-07    9.6956043330E-07    9.5095850043E-07
    9.3271326401E-07    9.1481788912E-07    8.9726567171E-07    8.8005003606E-07
    8.6316453235E-07    8.4660283425E-07    8.3035873657E-07    8.1442615291E-07
    7.9879911343E-07    7.8347176258E-07    7.6843835693E-07    7.5369326304E-07
    7.3923095535E-07    7.2504601409E-07    7.1113312330E-07    6.9748706878E-07
    6.8410273624E-07    6.7097510929E-07    6.5809926763E-07    6.4547038518E-07
    6.3308372829E-07    6.2093465398E-07    6.0901860818E-07    5.9733112407E-07
    5.8586782036E-07    5.7462439967E-07    5.6359664697E-07    5.5278042793E-07
    5.4217168744E-07    5.3176644805E-07    5.2156080850E-07    5.1155094227E-07
    5.0173309614E-07    4.9210358878E-07    4.8265880941E-07    4.7339521639E-07
    4.6430933594E-07    4.5539776084E-07    4.4665714914E-07    4.3808422293E-07
    4.2967576708E-07    4.2142862808E-07    4.1333971281E-07    4.0540598746E-07
    3.9762447633E-07    3.8999226071E-07    3.8250647785E-07    3.7516431984E-07
    3.6796303258E-07    3.6089991474E-07    3.5397231676E-07    3.4717763985E-07
    3.4051333501E-07    3.3397690210E-07    3.2756588890E-07    3.2127789017E-07
    3.1511054677E-07    3.0906154477E-07    3.0312861458E-07    2.9730953013E-07
    2.9160210799E-07    2.8600420660E-07    2.8051372543E-07    2.7512860420E-07
    2.6984682215E-07    2.6466639722E-07    2.5958538538E-07    2.5460187982E-07
    2.4971401030E-07    2.4491994244E-07    2.4021787700E-07    2.3560604926E-07
    2.3108272829E-07    2.2664621638E-07    2.2229484833E-07    2.1802699089E-07
    2.1384104211E-07    2.0973543075E-07    2.0570861569E-07    2.0175908535E-07
    1.9788535716E-07    1.9408597693E-07    1.9035951838E-07    1.8670458257E-07
    1.8311979738E-07    1.7960381699E-07    1.7615532139E-07    1.7277301589E-07
    1.6945563060E-07    1.6620192001E-07    1.6301066247E-07    1.5988065976E-07
    1.5681073663E-07    1.5379974038E-07    1.5084654040E-07    1.4795002777E-07
    1.4510911484E-07    1.4232273479E-07    1.3958984129E-07    1.3690940806E-07
    1.3428042850E-07    1.3170191531E-07    1.2917290015E-07    1.2669243321E-07
    1.2425958294E-07    1.2187343561E-07    1.1953309506E-07    1.1723768228E-07
    1.1498633513E-07    1.1277820802E-07    1.1061247157E-07    1.0848831229E-07
    1.0640493232E-07    1.0436154908E-07    1.0235739502E-07    1.0039171730E-07
    9.8463777518E-08    9.6572851452E-08    9.4718228757E-08    9.2899212718E-08
    9.1115119980E-08    8.9365280304E-08    8.7649036306E-08    8.5965743211E-08
    8.4314768611E-08    8.2695492233E-08    8.1107305698E-08    7.9549612304E-08
    7.8021826793E-08    7.6523375138E-08    7.5053694319E-08    7.3612232119E-08
    7.2198446916E-08    7.0811807481E-08    6.9451792774E-08    6.8117891754E-08
    6.6809603182E-08    6.5526435435E-08    6.4267906325E-08    6.3033542914E-08
    6.1822881341E-08    6.0635466641E-08    5.9470852581E-08    5.8328601488E-08
    5.7208284086E-08    5.6109479339E-08    5.5031774289E-08    5.3974763902E-08
    5.2938050914E-08    5.1921245684E-08    5.0923966048E-08    4.9945837177E-08
    4.8986491434E-08    4.8045568236E-08    4.7122713920E-08    4.6217581607E-08
    4.5329831077E-08    4.4459128640E-08    4.3605147007E-08    4.2767565172E-08
    4.1946068288E-08    4.1140347550E-08    4.0350100077E-08    3.9575028807E-08
    3.8814842373E-08    3.8069255004E-08    3.7337986410E-08    3.6620761683E-08
    3.5917311186E-08    3.5227370464E-08    3.4550680135E-08    3.3886985792E-08
    3.3236037916E-08    3.2597591772E-08    3.1971407324E-08    3.1357249144E-08
    3.0754886324E-08    3.0164092384E-08    2.9584645196E-08    2.9016326891E-08
    2.8458923782E-08    2.7912226287E-08    2.7376028844E-08    2.6850129840E-08
    2.6334331527E-08    2.5828439957E-08    2.5332264902E-08    2.4845619787E-08
    2.4368321618E-08    2.3900190915E-08    2.3441051641E-08    2.2990731140E-08
    2.2549060069E-08    2.2115872335E-08    2.1691005037E-08    2.1274298398E-08
    2.0865595710E-08    2.0464743272E-08    2.0071590334E-08    1.9685989039E-08
    1.9307794370E-08    1.8936864093E-08    1.8573058707E-08    1.8216241386E-08
    1.7866277932E-08    1.7523036723E-08    1.7186388664E-08    1.6856207139E-08
    1.6532367962E-08    1.6214749332E-08    1.5903231787E-08    1.5597698157E-08
    1.5298033521E-08    1.5004125167E-08    1.4715862546E-08    1.4433137230E-08
    1.4155842875E-08    1.3883875177E-08    1.3617131835E-08    1.3355512513E-08
    1.3098918801E-08    1.2847254178E-08    1.2600423978E-08    1.2358335351E-08
    1.2120897230E-08    1.1888020296E-08    1.1659616947E-08    1.1435601261E-08
    1.1215888968E-08    1.1000397414E-08    1.0789045532E-08    1.0581753814E-08
    1.0378444275E-08    1.0179040433E-08    9.9834672682E-09    9.7916512064E-09
    9.6035200836E-09    9.4190031221E-09    9.2380309027E-09    9.0605353407E-09
    8.8864496580E-09    8.7157083588E-09    8.5482472051E-09    8.3840031924E-09
    8.2229145258E-09    8.0649205975E-09    7.9099619637E-09    7.7579803221E-09
    7.6089184897E-09    7.4627203820E-09    7.3193309910E-09    7.1786963651E-09
    7.0407635896E-09    6.9054807654E-09    6.7727969904E-09    6.6426623398E-09
    6.5150278476E-09    6.3898454881E-09    6.2670681577E-09    6.1466496582E-09
    6.0285446782E-09    5.9127087766E-09    5.7990983658E-09    5.6876706950E-09
    5.5783838346E-09    5.4711966603E-09    5.3660688381E-09    5.2629608081E-09
    5.1618337704E-09    5.0626496703E-09    4.9653711837E-09    4.8699617034E-09
    4.7763853255E-09    4.6846068359E-09    4.5945916966E-09    4.5063060329E-09
    4.4197166207E-09    4.3347908742E-09    4.2514968327E-09    4.1698031507E-09
    4.0896790840E-09    4.0110944789E-09    3.9340197612E-09    3.8584259242E-09
    3.7842845188E-09    3.7115676419E-09    3.6402479269E-09    3.5702985326E-09
    3.5016931334E-09    3.4344059093E-09    3.3684115363E-09    3.3036851766E-09
    3.2402024696E-09    3.1779395230E-09    3.1168729030E-09    3.0569796261E-09
    2.9982371504E-09    2.9406233667E-09    2.8841165905E-09    2.8286955538E-09
    2.7743393978E-09    2.7210276636E-09    2.6687402856E-09    2.6174575838E-09
    2.5671602559E-09    2.5178293703E-09    2.4694463595E-09    2.4219930125E-09
    2.3754514680E-09    2.3298042081E-09    2.2850340511E-09    2.2411241456E-09
    2.1980579634E-09    2.1558192943E-09    2.1143922396E-09    2.0737612057E-09
    2.0339108987E-09    1.9948263185E-09    1.9564927531E-09    1.9188957729E-09
    1.8820212258E-09    1.8458552316E-09    1.8103841767E-09    1.7755947089E-09
    1.7414737327E-09    1.7080084039E-09    1.6751861252E-09    1.6429945413E-09
    1.6114215343E-09    1.5804552191E-09    1.5500839389E-09    1.5202962609E-09
    1.4910809718E-09    1.4624270737E-09    1.4343237799E-09    1.4067605115E-09
    1.3797268923E-09    1.3532127456E-09    1.3272080901E-09    1.3017031366E-09
    1.2766882834E-09    1.2521541137E-09    1.2280913915E-09    1.2044910583E-09
    1.1813442297E-09    1.1586421916E-09    1.1363763979E-09    1.1145384661E-09
    1.0931201750E-09    1.0721134614E-09    1.0515104172E-09    1.0313032858E-09
    1.0114844600E-09    9.9204647854E-10    9.7298202353E-10    9.5428391762E-10
    9.3594512152E-10    9.1795873115E-10    9.0031797505E-10    8.8301621185E-10
    8.6604692778E-10    8.4940373421E-10    8.3308036521E-10    8.1707067526E-10
    8.0136863704E-10    7.8596833894E-10    7.7086398295E-10    7.5604988243E-10
    7.4152046001E-10    7.2727024547E-10    7.1329387362E-10    6.9958608253E-10
    6.8614171129E-10    6.7295569816E-10    6.6002307863E-10    6.4733898358E-10
    6.3489863744E-10    6.2269735633E-10    6.1073054648E-10    5.9899370239E-10
    5.8748240508E-10    5.7619232049E-10    5.6511919783E-10    5.5425886797E-10
   </PP_CHI.2>
   <PP_CHI.3
       type="real"
       size="1244"
       columns="4"
       index="3"
       occupation="10.000"
       pseudo_energy="   -0.2977112197E+00"
       label="4D"
       l="2" >
    9.9863541915E-13    2.6633493888E-06    2.1299199976E-05    7.1842097204E-05
    1.7015076966E-04    3.3197045759E-04    5.7289552520E-04    9.0833244998E-04
    1.3534632816E-03    1.9232096615E-03    2.6321974924E-03    3.4947223467E-03
    4.5247156980E-03    5.7357120615E-03    7.1408171226E-03    8.7526769340E-03
    1.0583448256E-02    1.2644770113E-02    1.4947736638E-02    1.7502871263E-02
    2.0320102333E-02    2.3408740185E-02    2.6777455756E-02    3.0434260776E-02
    3.4386489577E-02    3.8640782574E-02    4.3203071448E-02    4.8078566069E-02
    5.3271743182E-02    5.8786336884E-02    6.4625330909E-02    7.0790952738E-02
    7.7284669534E-02    8.4107185918E-02    9.1258443583E-02    9.8737622727E-02
    1.0654314532E-01    1.1467268016E-01    1.2312314972E-01    1.3189073878E-01
    1.4097090471E-01    1.5035838956E-01    1.6004723372E-01    1.7003079124E-01
    1.8030174670E-01    1.9085213360E-01    2.0167335422E-01    2.1275620088E-01
    2.2409087854E-01    2.3566702870E-01    2.4747375444E-01    2.5949964670E-01
    2.7173281154E-01    2.8416089839E-01    2.9677112930E-01    3.0955032885E-01
    3.2248495501E-01    3.3556113043E-01    3.4876467453E-01    3.6208113588E-01
    3.7549582512E-01    3.8899384813E-01    4.0256013940E-01    4.1617949560E-01
    4.2983660913E-01    4.4351610169E-01    4.5720255770E-01    4.7088055745E-01
    4.8453471006E-01    4.9814968601E-01    5.1171024916E-01    5.2520128832E-01
    5.3860784817E-01    5.5191515946E-01    5.6510866851E-01    5.7817406583E-01
    5.9109731386E-01    6.0386467381E-01    6.1646273137E-01    6.2887842149E-01
    6.4109905191E-01    6.5311232561E-01    6.6490636202E-01    6.7646971698E-01
    6.8779140136E-01    6.9886089848E-01    7.0966818007E-01    7.2020372087E-01
    7.3045851196E-01    7.4042407249E-01    7.5009246020E-01    7.5945628033E-01
    7.6850869326E-01    7.7724342063E-01    7.8565475009E-01    7.9373753865E-01
    8.0148721455E-01    8.0889977793E-01    8.1597179995E-01    8.2270042070E-01
    8.2908334582E-01    8.3511884175E-01    8.4080572985E-01    8.4614337927E-01
    8.5113169868E-01    8.5577112684E-01    8.6006262221E-01    8.6400765140E-01
    8.6760817678E-01    8.7086664306E-01    8.7378596305E-01    8.7636950266E-01
    8.7862106503E-01    8.8054487404E-01    8.8214555717E-01    8.8342812774E-01
    8.8439796667E-01    8.8506080371E-01    8.8542269834E-01    8.8549002027E-01
    8.8526942964E-01    8.8476785704E-01    8.8399248330E-01    8.8295071918E-01
    8.8165018503E-01    8.8009869037E-01    8.7830421360E-01    8.7627488173E-01
    8.7401895032E-01    8.7154478356E-01    8.6886083462E-01    8.6597562632E-01
    8.6289773205E-01    8.5963575714E-01    8.5619832058E-01    8.5259403726E-01
    8.4883150060E-01    8.4491926579E-01    8.4086583347E-01    8.3667963410E-01
    8.3236901283E-01    8.2794221505E-01    8.2340737255E-01    8.1877249034E-01
    8.1404543420E-01    8.0923391883E-01    8.0434549678E-01    7.9938754806E-01
    7.9436727048E-01    7.8929167068E-01    7.8416755595E-01    7.7900152669E-01
    7.7379996971E-01    7.6856905215E-01    7.6331471617E-01    7.5804267437E-01
    7.5275840585E-01    7.4746715304E-01    7.4217391916E-01    7.3688346638E-01
    7.3160031463E-01    7.2632874102E-01    7.2107277997E-01    7.1583622385E-01
    7.1062262426E-01    7.0543529387E-01    7.0027730882E-01    6.9515151162E-01
    6.9006051457E-01    6.8500670369E-01    6.7999224304E-01    6.7501907955E-01
    6.7008894821E-01    6.6520337769E-01    6.6036369625E-01    6.5557103807E-01
    6.5082634987E-01    6.4613039774E-01    6.4148377435E-01    6.3688690629E-01
    6.3234006171E-01    6.2784335808E-01    6.2339677010E-01    6.1900013784E-01
    6.1465317486E-01    6.1035547652E-01    6.0610652831E-01    6.0190571421E-01
    5.9775232507E-01    5.9364556702E-01    5.8958456979E-01    5.8556839504E-01
    5.8159604453E-01    5.7766646834E-01    5.7377857280E-01    5.6993122843E-01
    5.6612327766E-01    5.6235354239E-01    5.5862083137E-01    5.5492394736E-01
    5.5126169410E-01    5.4763288299E-01    5.4403633956E-01    5.4047090967E-01
    5.3693546540E-01    5.3342891068E-01    5.2995018660E-01    5.2649827637E-01
    5.2307221002E-01    5.1967106873E-01    5.1629398876E-01    5.1294016509E-01
    5.0960885468E-01    5.0629937933E-01    5.0301112820E-01    4.9974355994E-01
    4.9649620444E-01    4.9326866422E-01    4.9006061528E-01    4.8687180782E-01
    4.8370206621E-01    4.8055128860E-01    4.7741943394E-01    4.7430649398E-01
    4.7121244965E-01    4.6813727656E-01    4.6508094764E-01    4.6204343132E-01
    4.5902469218E-01    4.5602469105E-01    4.5304338527E-01    4.5008072881E-01
    4.4713667243E-01    4.4421116389E-01    4.4130414805E-01    4.3841556703E-01
    4.3554536037E-01    4.3269346517E-01    4.2985981619E-01    4.2704434599E-01
    4.2424698505E-01    4.2146766191E-01    4.1870630324E-01    4.1596283396E-01
    4.1323717738E-01    4.1052925525E-01    4.0783898786E-01    4.0516629417E-01
    4.0251109186E-01    3.9987329741E-01    3.9725282623E-01    3.9464959266E-01
    3.9206351012E-01    3.8949449114E-01    3.8694244742E-01    3.8440728992E-01
    3.8188892892E-01    3.7938727405E-01    3.7690223440E-01    3.7443371852E-01
    3.7198163450E-01    3.6954589003E-01    3.6712639241E-01    3.6472304866E-01
    3.6233576548E-01    3.5996444936E-01    3.5760900660E-01    3.5526934334E-01
    3.5294536559E-01    3.5063697930E-01    3.4834409035E-01    3.4606660461E-01
    3.4380442796E-01    3.4155746632E-01    3.3932562568E-01    3.3710881213E-01
    3.3490693186E-01    3.3271989123E-01    3.3054759674E-01    3.2838995509E-01
    3.2624687319E-01    3.2411825818E-01    3.2200401742E-01    3.1990405857E-01
    3.1781828952E-01    3.1574661851E-01    3.1368895403E-01    3.1164520495E-01
    3.0961528042E-01    3.0759908998E-01    3.0559654351E-01    3.0360755125E-01
    3.0163202385E-01    2.9966987231E-01    2.9772100806E-01    2.9578534293E-01
    2.9386278914E-01    2.9195325935E-01    2.9005666666E-01    2.8817292459E-01
    2.8630194708E-01    2.8444364856E-01    2.8259794386E-01    2.8076474829E-01
    2.7894397762E-01    2.7713554808E-01    2.7533937634E-01    2.7355537957E-01
    2.7178347539E-01    2.7002358190E-01    2.6827561767E-01    2.6653950174E-01
    2.6481515363E-01    2.6310249335E-01    2.6140144136E-01    2.5971191863E-01
    2.5803384658E-01    2.5636714714E-01    2.5471174269E-01    2.5306755611E-01
    2.5143451074E-01    2.4981253042E-01    2.4820153944E-01    2.4660146259E-01
    2.4501222512E-01    2.4343375277E-01    2.4186597173E-01    2.4030880867E-01
    2.3876219074E-01    2.3722604555E-01    2.3570030116E-01    2.3418488613E-01
    2.3267972945E-01    2.3118476059E-01    2.2969990945E-01    2.2822510643E-01
    2.2676028234E-01    2.2530536847E-01    2.2386029654E-01    2.2242499874E-01
    2.2099940769E-01    2.1958345644E-01    2.1817707849E-01    2.1678020780E-01
    2.1539277872E-01    2.1401472607E-01    2.1264598508E-01    2.1128649141E-01
    2.0993618114E-01    2.0859499078E-01    2.0726285727E-01    2.0593971793E-01
    2.0462551052E-01    2.0332017322E-01    2.0202364459E-01    2.0073586362E-01
    1.9945676970E-01    1.9818630259E-01    1.9692440250E-01    1.9567101000E-01
    1.9442606605E-01    1.9318951203E-01    1.9196128968E-01    1.9074134113E-01
    1.8952960891E-01    1.8832603592E-01    1.8713056543E-01    1.8594314108E-01
    1.8476370692E-01    1.8359220733E-01    1.8242858709E-01    1.8127279131E-01
    1.8012476549E-01    1.7898445550E-01    1.7785180754E-01    1.7672676819E-01
    1.7560928437E-01    1.7449930336E-01    1.7339677278E-01    1.7230164063E-01
    1.7121385521E-01    1.7013336520E-01    1.6906011959E-01    1.6799406775E-01
    1.6693515935E-01    1.6588334441E-01    1.6483857329E-01    1.6380079667E-01
    1.6276996556E-01    1.6174603131E-01    1.6072894558E-01    1.5971866037E-01
    1.5871512797E-01    1.5771830104E-01    1.5672813251E-01    1.5574457565E-01
    1.5476758404E-01    1.5379711157E-01    1.5283311245E-01    1.5187554118E-01
    1.5092435260E-01    1.4997950181E-01    1.4904094424E-01    1.4810863564E-01
    1.4718253202E-01    1.4626258972E-01    1.4534876535E-01    1.4444101584E-01
    1.4353929841E-01    1.4264357055E-01    1.4175379007E-01    1.4086991505E-01
    1.3999190385E-01    1.3911971515E-01    1.3825330787E-01    1.3739264124E-01
    1.3653767477E-01    1.3568836823E-01    1.3484468169E-01    1.3400657549E-01
    1.3317401024E-01    1.3234694682E-01    1.3152534639E-01    1.3070917037E-01
    1.2989838046E-01    1.2909293863E-01    1.2829280709E-01    1.2749794836E-01
    1.2670832516E-01    1.2592390054E-01    1.2514463775E-01    1.2437050034E-01
    1.2360145210E-01    1.2283745707E-01    1.2207847955E-01    1.2132448411E-01
    1.2057543553E-01    1.1983129889E-01    1.1909203948E-01    1.1835762286E-01
    1.1762801481E-01    1.1690318138E-01    1.1618308885E-01    1.1546770375E-01
    1.1475699284E-01    1.1405092313E-01    1.1334946185E-01    1.1265257648E-01
    1.1196023473E-01    1.1127240455E-01    1.1058905411E-01    1.0991015181E-01
    1.0923566630E-01    1.0856556644E-01    1.0789982131E-01    1.0723840023E-01
    1.0658127273E-01    1.0592840858E-01    1.0527977776E-01    1.0463535047E-01
    1.0399509713E-01    1.0335898836E-01    1.0272699503E-01    1.0209908820E-01
    1.0147523915E-01    1.0085541936E-01    1.0023960054E-01    9.9627754593E-02
    9.9019853639E-02    9.8415870000E-02    9.7815776203E-02    9.7219544979E-02
    9.6627149263E-02    9.6038562188E-02    9.5453757090E-02    9.4872707500E-02
    9.4295387149E-02    9.3721769962E-02    9.3151830059E-02    9.2585541755E-02
    9.2022879553E-02    9.1463818151E-02    9.0908332433E-02    9.0356397473E-02
    8.9807988532E-02    8.9263081055E-02    8.8721650673E-02    8.8183673198E-02
    8.7649124627E-02    8.7117981134E-02    8.6590219074E-02    8.6065814981E-02
    8.5544745563E-02    8.5026987707E-02    8.4512518472E-02    8.4001315090E-02
    8.3493354966E-02    8.2988615675E-02    8.2487074962E-02    8.1988710740E-02
    8.1493501088E-02    8.1001424251E-02    8.0512458641E-02    8.0026582831E-02
    7.9543775555E-02    7.9064015713E-02    7.8587282359E-02    7.8113554709E-02
    7.7642812136E-02    7.7175034170E-02    7.6710200494E-02    7.6248290946E-02
    7.5789285519E-02    7.5333164354E-02    7.4879907746E-02    7.4429496136E-02
    7.3981910117E-02    7.3537130426E-02    7.3095137949E-02    7.2655913713E-02
    7.2219438893E-02    7.1785694803E-02    7.1354662903E-02    7.0926324789E-02
    7.0500662199E-02    7.0077657010E-02    6.9657291233E-02    6.9239547019E-02
    6.8824406651E-02    6.8411852549E-02    6.8001867264E-02    6.7594433479E-02
    6.7189534010E-02    6.6787151800E-02    6.6387269924E-02    6.5989871581E-02
    6.5594940101E-02    6.5202458936E-02    6.4812411667E-02    6.4424781995E-02
    6.4039553746E-02    6.3656710867E-02    6.3276237426E-02    6.2898117612E-02
    6.2522335730E-02    6.2148876207E-02    6.1777723583E-02    6.1408862518E-02
    6.1042277783E-02    6.0677954267E-02    6.0315876970E-02    5.9956031004E-02
    5.9598401595E-02    5.9242974076E-02    5.8889733892E-02    5.8538666596E-02
    5.8189757849E-02    5.7842993419E-02    5.7498359179E-02    5.7155841109E-02
    5.6815425291E-02    5.6477097912E-02    5.6140845261E-02    5.5806653729E-02
    5.5474509808E-02    5.5144400090E-02    5.4816311266E-02    5.4490230124E-02
    5.4166143553E-02    5.3844038535E-02    5.3523902151E-02    5.3205721575E-02
    5.2889484076E-02    5.2575177017E-02    5.2262787854E-02    5.1952304133E-02
    5.1643713494E-02    5.1337003666E-02    5.1032162468E-02    5.0729177808E-02
    5.0428037681E-02    5.0128730172E-02    4.9831243451E-02    4.9535565774E-02
    4.9241685482E-02    4.8949591003E-02    4.8659270847E-02    4.8370713606E-02
    4.8083907956E-02    4.7798842656E-02    4.7515506544E-02    4.7233888538E-02
    4.6953977639E-02    4.6675762924E-02    4.6399233549E-02    4.6124378749E-02
    4.5851187835E-02    4.5579650194E-02    4.5309755291E-02    4.5041492664E-02
    4.4774851927E-02    4.4509822767E-02    4.4246394944E-02    4.3984558293E-02
    4.3724302718E-02    4.3465618196E-02    4.3208494776E-02    4.2952922576E-02
    4.2698891783E-02    4.2446392655E-02    4.2195415518E-02    4.1945950766E-02
    4.1697988858E-02    4.1451520325E-02    4.1206535759E-02    4.0963025822E-02
    4.0720981239E-02    4.0480392800E-02    4.0241251359E-02    4.0003547834E-02
    3.9767273206E-02    3.9532418520E-02    3.9298974880E-02    3.9066933455E-02
    3.8836285472E-02    3.8607022221E-02    3.8379135051E-02    3.8152615369E-02
    3.7927454645E-02    3.7703644404E-02    3.7481176231E-02    3.7260041769E-02
    3.7040232715E-02    3.6821740827E-02    3.6604557916E-02    3.6388675852E-02
    3.6174086556E-02    3.5960782009E-02    3.5748754242E-02    3.5537995342E-02
    3.5328497451E-02    3.5120252762E-02    3.4913253520E-02    3.4707492026E-02
    3.4502960629E-02    3.4299651732E-02    3.4097557788E-02    3.3896671301E-02
    3.3696984824E-02    3.3498490963E-02    3.3301182370E-02    3.3105051748E-02
    3.2910091849E-02    3.2716295471E-02    3.2523655463E-02    3.2332164720E-02
    3.2141816183E-02    3.1952602842E-02    3.1764517732E-02    3.1577553935E-02
    3.1391704579E-02    3.1206962835E-02    3.1023321922E-02    3.0840775102E-02
    3.0659315682E-02    3.0478937012E-02    3.0299632487E-02    3.0121395545E-02
    2.9944219665E-02    2.9768098372E-02    2.9593025231E-02    2.9418993849E-02
    2.9245997876E-02    2.9074031002E-02    2.8903086960E-02    2.8733159520E-02
    2.8564242497E-02    2.8396329743E-02    2.8229415150E-02    2.8063492652E-02
    2.7898556220E-02    2.7734599863E-02    2.7571617632E-02    2.7409603613E-02
    2.7248551932E-02    2.7088456752E-02    2.6929312274E-02    2.6771112736E-02
    2.6613852413E-02    2.6457525617E-02    2.6302126694E-02    2.6147650030E-02
    2.5994090045E-02    2.5841441193E-02    2.5689697967E-02    2.5538854891E-02
    2.5388906528E-02    2.5239847471E-02    2.5091672352E-02    2.4944375833E-02
    2.4797952613E-02    2.4652397422E-02    2.4507705026E-02    2.4363870222E-02
    2.4220887840E-02    2.4078752744E-02    2.3937459830E-02    2.3797004025E-02
    2.3657380288E-02    2.3518583612E-02    2.3380609019E-02    2.3243451564E-02
    2.3107106331E-02    2.2971568436E-02    2.2836833027E-02    2.2702895280E-02
    2.2569750402E-02    2.2437393631E-02    2.2305820234E-02    2.2175025506E-02
    2.2045004774E-02    2.1915753393E-02    2.1787266747E-02    2.1659540248E-02
    2.1532569337E-02    2.1406349485E-02    2.1280876188E-02    2.1156144972E-02
    2.1032151390E-02    2.0908891024E-02    2.0786359481E-02    2.0664552398E-02
    2.0543465436E-02    2.0423094286E-02    2.0303434662E-02    2.0184482307E-02
    2.0066232990E-02    1.9948682506E-02    1.9831826675E-02    1.9715661344E-02
    1.9600182385E-02    1.9485385696E-02    1.9371267198E-02    1.9257822839E-02
    1.9145048593E-02    1.9032940457E-02    1.8921494451E-02    1.8810706624E-02
    1.8700573045E-02    1.8591089808E-02    1.8482253033E-02    1.8374058861E-02
    1.8266503459E-02    1.8159583016E-02    1.8053293744E-02    1.7947631879E-02
    1.7842593680E-02    1.7738175428E-02    1.7634373428E-02    1.7531184007E-02
    1.7428603512E-02    1.7326628317E-02    1.7225254814E-02    1.7124479419E-02
    1.7024298568E-02    1.6924708722E-02    1.6825706360E-02    1.6727287984E-02
    1.6629450117E-02    1.6532189304E-02    1.6435502109E-02    1.6339385118E-02
    1.6243834939E-02    1.6148848198E-02    1.6054421543E-02    1.5960551642E-02
    1.5867235183E-02    1.5774468874E-02    1.5682249444E-02    1.5590573641E-02
    1.5499438231E-02    1.5408840003E-02    1.5318775762E-02    1.5229242334E-02
    1.5140236565E-02    1.5051755318E-02    1.4963795477E-02    1.4876353943E-02
    1.4789427636E-02    1.4703013496E-02    1.4617108480E-02    1.4531709564E-02
    1.4446813742E-02    1.4362418026E-02    1.4278519446E-02    1.4195115050E-02
    1.4112201904E-02    1.4029777091E-02    1.3947837712E-02    1.3866380886E-02
    1.3785403748E-02    1.3704903451E-02    1.3624877166E-02    1.3545322078E-02
    1.3466235393E-02    1.3387614330E-02    1.3309456128E-02    1.3231758039E-02
    1.3154517336E-02    1.3077731303E-02    1.3001397245E-02    1.2925512481E-02
    1.2850074346E-02    1.2775080191E-02    1.2700527384E-02    1.2626413307E-02
    1.2552735359E-02    1.2479490954E-02    1.2406677523E-02    1.2334292509E-02
    1.2262333374E-02    1.2190797593E-02    1.2119682657E-02    1.2048986071E-02
    1.1978705356E-02    1.1908838047E-02    1.1839381695E-02    1.1770333864E-02
    1.1701692135E-02    1.1633454099E-02    1.1565617367E-02    1.1498179560E-02
    1.1431138315E-02    1.1364491284E-02    1.1298236130E-02    1.1232370532E-02
    1.1166892185E-02    1.1101798793E-02    1.1037088076E-02    1.0972757770E-02
    1.0908805621E-02    1.0845229389E-02    1.0782026849E-02    1.0719195789E-02
    1.0656734008E-02    1.0594639320E-02    1.0532909553E-02    1.0471542546E-02
    1.0410536151E-02    1.0349888234E-02    1.0289596672E-02    1.0229659358E-02
    1.0170074193E-02    1.0110839094E-02    1.0051951989E-02    9.9934108186E-03
    9.9352135356E-03    9.8773581050E-03    9.8198425039E-03    9.7626647217E-03
    9.7058227595E-03    9.6493146304E-03    9.5931383593E-03    9.5372919829E-03
    9.4817735495E-03    9.4265811192E-03    9.3717127635E-03    9.3171665654E-03
    9.2629406194E-03    9.2090330312E-03    9.1554419178E-03    9.1021654076E-03
    9.0492016398E-03    8.9965487650E-03    8.9442049446E-03    8.8921683510E-03
    8.8404371676E-03    8.7890095883E-03    8.7378838179E-03    8.6870580721E-03
    8.6365305769E-03    8.5862995689E-03    8.5363632953E-03    8.4867200138E-03
    8.4373679921E-03    8.3883055086E-03    8.3395308517E-03    8.2910423201E-03
    8.2428382224E-03    8.1949168776E-03    8.1472766145E-03    8.0999157717E-03
    8.0528326979E-03    8.0060257515E-03    7.9594933008E-03    7.9132337235E-03
    7.8672454072E-03    7.8215267490E-03    7.7760761556E-03    7.7308920431E-03
    7.6859728369E-03    7.6413169719E-03    7.5969228924E-03    7.5527890516E-03
    7.5089139122E-03    7.4652959459E-03    7.4219336336E-03    7.3788254651E-03
    7.3359699391E-03    7.2933655634E-03    7.2510108547E-03    7.2089043381E-03
    7.1670445481E-03    7.1254300273E-03    7.0840593273E-03    7.0429310083E-03
    7.0020436388E-03    6.9613957962E-03    6.9209860659E-03    6.8808130420E-03
    6.8408753268E-03    6.8011715311E-03    6.7617002738E-03    6.7224601819E-03
    6.6834498907E-03    6.6446680437E-03    6.6061132921E-03    6.5677842955E-03
    6.5296797212E-03    6.4917982446E-03    6.4541385488E-03    6.4166993248E-03
    6.3794792713E-03    6.3424770948E-03    6.3056915094E-03    6.2691212371E-03
    6.2327650071E-03    6.1966215563E-03    6.1606896292E-03    6.1249679776E-03
    6.0894553608E-03    6.0541505455E-03    6.0190523056E-03    5.9841594223E-03
    5.9494706841E-03    5.9149848867E-03    5.8807008329E-03    5.8466173326E-03
    5.8127332027E-03    5.7790472672E-03    5.7455583572E-03    5.7122653106E-03
    5.6791669720E-03    5.6462621933E-03    5.6135498328E-03    5.5810287559E-03
    5.5486978344E-03    5.5165559472E-03    5.4846019794E-03    5.4528348231E-03
    5.4212533767E-03    5.3898565453E-03    5.3586432405E-03    5.3276123802E-03
    5.2967628889E-03    5.2660936973E-03    5.2356037427E-03    5.2052919685E-03
    5.1751573243E-03    5.1451987662E-03    5.1154152563E-03    5.0858057629E-03
    5.0563692603E-03    5.0271047292E-03    4.9980111560E-03    4.9690875333E-03
    4.9403328597E-03    4.9117461396E-03    4.8833263834E-03    4.8550726073E-03
    4.8269838335E-03    4.7990590899E-03    4.7712974100E-03    4.7436978333E-03
    4.7162594048E-03    4.6889811753E-03    4.6618622012E-03    4.6349015443E-03
    4.6080982724E-03    4.5814514583E-03    4.5549601807E-03    4.5286235236E-03
    4.5024405764E-03    4.4764104340E-03    4.4505321967E-03    4.4248049698E-03
    4.3992278644E-03    4.3737999966E-03    4.3485204877E-03    4.3233884642E-03
    4.2984030580E-03    4.2735634060E-03    4.2488686501E-03    4.2243179375E-03
    4.1999104204E-03    4.1756452559E-03    4.1515216062E-03    4.1275386385E-03
    4.1036955249E-03    4.0799914424E-03    4.0564255727E-03    4.0329971028E-03
    4.0097052240E-03    3.9865491328E-03    3.9635280303E-03    3.9406411222E-03
    3.9178876192E-03    3.8952667364E-03    3.8727776938E-03    3.8504197158E-03
    3.8281920315E-03    3.8060938746E-03    3.7841244832E-03    3.7622831002E-03
    3.7405689726E-03    3.7189813522E-03    3.6975194951E-03    3.6761826618E-03
    3.6549701171E-03    3.6338811304E-03    3.6129149751E-03    3.5920709292E-03
    3.5713482748E-03    3.5507462984E-03    3.5302642905E-03    3.5099015460E-03
    3.4896573640E-03    3.4695310475E-03    3.4495219039E-03    3.4296292447E-03
    3.4098523852E-03    3.3901906450E-03    3.3706433477E-03    3.3512098208E-03
    3.3318893960E-03    3.3126814086E-03    3.2935851982E-03    3.2746001082E-03
    3.2557254857E-03    3.2369606819E-03    3.2183050518E-03    3.1997579541E-03
    3.1813187514E-03    3.1629868100E-03    3.1447615001E-03    3.1266421955E-03
    3.1086282738E-03    3.0907191160E-03    3.0729141072E-03    3.0552126359E-03
    3.0376140942E-03    3.0201178778E-03    3.0027233862E-03    2.9854300221E-03
    2.9682371920E-03    2.9511443058E-03    2.9341507769E-03    2.9172560223E-03
    2.9004594623E-03    2.8837605206E-03    2.8671586244E-03    2.8506532044E-03
    2.8342436944E-03    2.8179295318E-03    2.8017101571E-03    2.7855850144E-03
    2.7695535508E-03    2.7536152169E-03    2.7377694663E-03    2.7220157561E-03
    2.7063535465E-03    2.6907823008E-03    2.6753014857E-03    2.6599105707E-03
    2.6446090289E-03    2.6293963361E-03    2.6142719714E-03    2.5992354170E-03
    2.5842861581E-03    2.5694236829E-03    2.5546474828E-03    2.5399570521E-03
    2.5253518879E-03    2.5108314907E-03    2.4963953635E-03    2.4820430126E-03
    2.4677739471E-03    2.4535876788E-03    2.4394837227E-03    2.4254615965E-03
    2.4115208208E-03    2.3976609190E-03    2.3838814173E-03    2.3701818447E-03
    2.3565617331E-03    2.3430206171E-03    2.3295580340E-03    2.3161735239E-03
    2.3028666295E-03    2.2896368963E-03    2.2764838726E-03    2.2634071091E-03
    2.2504061594E-03    2.2374805797E-03    2.2246299286E-03    2.2118537675E-03
    2.1991516605E-03    2.1865231740E-03    2.1739678771E-03    2.1614853415E-03
    2.1490751414E-03    2.1367368535E-03    2.1244700569E-03    2.1122743333E-03
    2.1001492668E-03    2.0880944442E-03    2.0761094543E-03    2.0641938888E-03
    2.0523473414E-03    2.0405694085E-03    2.0288596887E-03    2.0172177830E-03
    2.0056432949E-03    1.9941358301E-03    1.9826949967E-03    1.9713204049E-03
    1.9600116676E-03    1.9487683996E-03    1.9375902182E-03    1.9264767429E-03
    1.9154275954E-03    1.9044423997E-03    1.8935207821E-03    1.8826623708E-03
    1.8718667964E-03    1.8611336919E-03    1.8504626920E-03    1.8398534339E-03
    1.8293055568E-03    1.8188187021E-03    1.8083925133E-03    1.7980266359E-03
    1.7877207176E-03    1.7774744081E-03    1.7672873593E-03    1.7571592251E-03
    1.7470896613E-03    1.7370783259E-03    1.7271248788E-03    1.7172289821E-03
    1.7073902996E-03    1.6976084973E-03    1.6878832432E-03    1.6782142070E-03
    1.6686010606E-03    1.6590434778E-03    1.6495411341E-03    1.6400937072E-03
    1.6307008767E-03    1.6213623237E-03    1.6120777316E-03    1.6028467856E-03
    1.5936691725E-03    1.5845445812E-03    1.5754727024E-03    1.5664532285E-03
    1.5574858538E-03    1.5485702744E-03    1.5397061881E-03    1.5308932947E-03
    1.5221312955E-03    1.5134198938E-03    1.5047587944E-03    1.4961477041E-03
    1.4875863312E-03    1.4790743858E-03    1.4706115799E-03    1.4621976268E-03
    1.4538322419E-03    1.4455151419E-03    1.4372460455E-03    1.4290246729E-03
    1.4208507458E-03    1.4127239879E-03    1.4046441242E-03    1.3966108814E-03
    1.3886239879E-03    1.3806831737E-03    1.3727881703E-03    1.3649387108E-03
    1.3571345299E-03    1.3493753638E-03    1.3416609504E-03    1.3339910289E-03
    1.3263653403E-03    1.3187836270E-03    1.3112456328E-03    1.3037511032E-03
    1.2962997851E-03    1.2888914270E-03    1.2815257786E-03    1.2742025915E-03
    1.2669216183E-03    1.2596826133E-03    1.2524853324E-03    1.2453295326E-03
    1.2382149725E-03    1.2311414121E-03    1.2241086129E-03    1.2171163376E-03
    1.2101643505E-03    1.2032524172E-03    1.1963803046E-03    1.1895477811E-03
    1.1827546163E-03    1.1760005814E-03    1.1692854488E-03    1.1626089921E-03
    1.1559709866E-03    1.1493712084E-03    1.1428094354E-03    1.1362854466E-03
    1.1297990223E-03    1.1233499441E-03    1.1169379948E-03    1.1105629587E-03
    1.1042246211E-03    1.0979227688E-03    1.0916571896E-03    1.0854276728E-03
    1.0792340087E-03    1.0730759892E-03    1.0669534069E-03    1.0608660560E-03
   </PP_CHI.3>
 </PP_PSWFC>
 <PP_NLCC type="real"  size="1244" columns="4">
    1.1680325569E+01    1.1674369689E+01    1.1656519103E+01    1.1626824915E+01
    1.1585372038E+01    1.1532278818E+01    1.1467696508E+01    1.1391808589E+01
    1.1304829955E+01    1.1207005961E+01    1.1098611338E+01    1.0979948982E+01
    1.0851348630E+01    1.0713165415E+01    1.0565778334E+01    1.0409588610E+01
    1.0245017974E+01    1.0072506878E+01    9.8925126330E+00    9.7055075069E+00
    9.5119767664E+00    9.3124166945E+00    9.1073325832E+00    8.8972367162E+00
    8.6826463504E+00    8.4640817087E+00    8.2420639931E+00    8.0171134279E+00
    7.7897473444E+00    7.5604783142E+00    7.3298123420E+00    7.0982471250E+00
    6.8662703869E+00    6.6343582944E+00    6.4029739621E+00    6.1725660514E+00
    5.9435674705E+00    5.7163941772E+00    5.4914440913E+00    5.2690961169E+00
    5.0497092795E+00    4.8336219776E+00    4.6211513502E+00    4.4125927614E+00
    4.2082193997E+00    4.0082819923E+00    3.8130086321E+00    3.6226047145E+00
    3.4372529808E+00    3.2571136659E+00    3.0823247443E+00    2.9130022708E+00
    2.7492408111E+00    2.5911139553E+00    2.4386749107E+00    2.2919571664E+00
    2.1509752232E+00    2.0157253835E+00    1.8861865933E+00    1.7623213312E+00
    1.6440765357E+00    1.5313845654E+00    1.4241641854E+00    1.3223215730E+00
    1.2257513359E+00    1.1343375381E+00    1.0479547251E+00    9.6646894559E-01
    8.8973876178E-01    8.1761624392E-01    7.4994794486E-01    6.8657584916E-01
    6.2733829328E-01    5.7207085277E-01    5.2060719327E-01    4.7277988231E-01
    4.2842115933E-01    3.8736366180E-01    3.4944110565E-01    3.1448891860E-01
    2.8234482543E-01    2.5284938455E-01    2.2584647557E-01    2.0118373795E-01
    1.7871296110E-01    1.5829042657E-01    1.3977720338E-01    1.2303939757E-01
    1.0794835759E-01    9.4380837022E-02    8.2219116587E-02    7.1351087406E-02
    6.1670297675E-02    5.3075965008E-02    4.5472956808E-02    3.8771741066E-02
    3.2888310070E-02    2.7744079503E-02    2.3265765412E-02    1.9385241529E-02
    1.6039379374E-02    1.3169873532E-02    1.0723054420E-02    8.6496907833E-03
    6.9047840730E-03    5.4473567455E-03    4.2402364178E-03    3.2498376944E-03
    2.4459433527E-03    1.8014864456E-03    1.2923347475E-03    8.9707883523E-04
    5.9682495842E-04    3.7499372192E-04    2.1712546944E-04    1.1069312736E-04
    4.4923143401E-05    1.0625032738E-05    2.9929582772E-08    6.6384323442E-06
    2.5077928172E-05    5.0969486830E-05    8.0804325699E-05    1.1182976728E-04
    1.4194453748E-04    1.6960318841E-04    1.9372937195E-04    2.1363764130E-04
    2.2896341567E-04    2.3960070887E-04    2.4564719514E-04    2.4735616481E-04
    2.4509490782E-04    2.3930905488E-04    2.3049240266E-04    2.1916175171E-04
    2.0583629204E-04    1.9102108176E-04    1.7519417861E-04    1.5879700081E-04
    1.4222751392E-04    1.2583586169E-04    1.0992208301E-04    9.4735581221E-05
    8.0476038189E-05    6.7295491334E-05    5.5301318178E-05    4.4559899013E-05
    3.5100753858E-05    2.6920974792E-05    1.9989798604E-05    1.4253187652E-05
    9.6383082427E-06    6.0578160590E-06    3.4138767779E-06    1.6018671206E-06
    5.1371706224E-07    4.0867797302E-08    7.6832325613E-08    5.1935618946E-07
    1.2721850506E-06    2.2464534605E-06    3.3617154369E-06    4.5466424152E-06
    5.7394178683E-06    6.8878604964E-06    7.9493094774E-06    8.8903059529E-06
    9.6861048099E-06    1.0320050013E-05    1.0782845359E-05    1.1071750650E-05
    1.1189731044E-05    1.1144584802E-05    1.0948071896E-05    1.0615063107E-05
    1.0162726302E-05    9.6097637010E-06    8.9757110862E-06    8.2803072248E-06
    7.5429391826E-06    6.7821668698E-06    6.0153279861E-06    5.2582226185E-06
    4.5248750696E-06    3.8273690679E-06    3.1757513333E-06    2.5779975399E-06
    2.0400340240E-06    1.5658081116E-06    1.1573996765E-06    8.1516646552E-07
    5.3791582396E-07    3.2309569495E-07    1.6699814589E-07    6.4969148101E-08
    1.1618899535E-08    1.0276053598E-09    2.6942299305E-08    8.2960989372E-08
    1.6270108233E-07    2.5994977532E-07    3.6879473741E-07    4.8373405132E-07
    5.9976497154E-07    7.1245160325E-07    8.1797205265E-07    9.1314606315E-07
    9.9544446442E-07    1.0629820609E-06    1.1144958040E-06    1.1493102406E-06
    1.1672923360E-06    1.1687977976E-06    1.1546110148E-06    1.1258806618E-06
    1.0840529266E-06    1.0308041748E-06    9.6797470236E-07    8.9750503935E-07
    8.2137607359E-07    7.4155405740E-07    6.5994132387E-07    5.7833334653E-07
    4.9838255635E-07    4.2156915777E-07    3.4917895810E-07    2.8228809110E-07
    2.2175435439E-07    1.6821476161E-07    1.2208877776E-07    8.3586643290E-08
    5.2727215426E-08    2.9326223642E-08    1.3054546930E-08    3.5793764701E-09
   -5.5804111202E-11   -9.9035990440E-11    9.7003614281E-11   -1.2021343519E-11
   -8.0892500757E-13   -7.6506919813E-13    0.0000000000E+00    0.0000000000E+00
    0.0000000000E+00    0.0000000000E+00    0.0000000000E+00    0.0000000000E+00
    0.0000000000E+00    0.0000000000E+00    0.0000000000E+00    0.0000000000E+00
    0.0000000000E+00    0.0000000000E+00    0.0000000000E+00    0.0000000000E+00
    0.0000000000E+00    0.0000000000E+00    0.0000000000E+00    0.0000000000E+00
    0.0000000000E+00    0.0000000000E+00    0.0000000000E+00    0.0000000000E+00
    0.0000000000E+00    0.0000000000E+00    0.0000000000E+00    0.0000000000E+00
    0.0000000000E+00    0.0000000000E+00    0.0000000000E+00    0.0000000000E+00
    0.0000000000E+00    0.0000000000E+00    0.0000000000E+00    0.0000000000E+00
    0.0000000000E+00    0.0000000000E+00    0.0000000000E+00    0.0000000000E+00
    0.0000000000E+00    0.0000000000E+00    0.0000000000E+00    0.0000000000E+00
    0.0000000000E+00    0.0000000000E+00    0.0000000000E+00    0.0000000000E+00
    0.0000000000E+00    0.0000000000E+00    0.0000000000E+00    0.0000000000E+00
    0.0000000000E+00    0.0000000000E+00    0.0000000000E+00    0.0000000000E+00
    0.0000000000E+00    0.0000000000E+00    0.0000000000E+00    0.0000000000E+00
    0.0000000000E+00    0.0000000000E+00    0.0000000000E+00    0.0000000000E+00
    0.0000000000E+00    0.0000000000E+00    0.0000000000E+00    0.0000000000E+00
    0.0000000000E+00    0.0000000000E+00    0.0000000000E+00    0.0000000000E+00
    0.0000000000E+00    0.0000000000E+00    0.0000000000E+00    0.0000000000E+00
    0.0000000000E+00    0.0000000000E+00    0.0000000000E+00    0.0000000000E+00
    0.0000000000E+00    0.0000000000E+00    0.0000000000E+00    0.0000000000E+00
    0.0000000000E+00    0.0000000000E+00    0.0000000000E+00    0.0000000000E+00
    0.0000000000E+00    0.0000000000E+00    0.0000000000E+00    0.0000000000E+00
    0.0000000000E+00    0.0000000000E+00    0.0000000000E+00    0.0000000000E+00
    0.0000000000E+00    0.0000000000E+00    0.0000000000E+00    0.0000000000E+00
    0.0000000000E+00    0.0000000000E+00    0.0000000000E+00    0.0000000000E+00
    0.0000000000E+00    0.0000000000E+00    0.0000000000E+00    0.0000000000E+00
    0.0000000000E+00    0.0000000000E+00    0.0000000000E+00    0.0000000000E+00
    0.0000000000E+00    0.0000000000E+00    0.0000000000E+00    0.0000000000E+00
    0.0000000000E+00    0.0000000000E+00    0.0000000000E+00    0.0000000000E+00
    0.0000000000E+00    0.0000000000E+00    0.0000000000E+00    0.0000000000E+00
    0.0000000000E+00    0.0000000000E+00    0.0000000000E+00    0.0000000000E+00
    0.0000000000E+00    0.0000000000E+00    0.0000000000E+00    0.0000000000E+00
    0.0000000000E+00    0.0000000000E+00    0.0000000000E+00    0.0000000000E+00
    0.0000000000E+00    0.0000000000E+00    0.0000000000E+00    0.0000000000E+00
    0.0000000000E+00    0.0000000000E+00    0.0000000000E+00    0.0000000000E+00
    0.0000000000E+00    0.0000000000E+00    0.0000000000E+00    0.0000000000E+00
    0.0000000000E+00    0.0000000000E+00    0.0000000000E+00    0.0000000000E+00
    0.0000000000E+00    0.0000000000E+00    0.0000000000E+00    0.0000000000E+00
    0.0000000000E+00    0.0000000000E+00    0.0000000000E+00    0.0000000000E+00
    0.0000000000E+00    0.0000000000E+00    0.0000000000E+00    0.0000000000E+00
    0.0000000000E+00    0.0000000000E+00    0.0000000000E+00    0.0000000000E+00
    0.0000000000E+00    0.0000000000E+00    0.0000000000E+00    0.0000000000E+00
    0.0000000000E+00    0.0000000000E+00    0.0000000000E+00    0.0000000000E+00
    0.0000000000E+00    0.0000000000E+00    0.0000000000E+00    0.0000000000E+00
    0.0000000000E+00    0.0000000000E+00    0.0000000000E+00    0.0000000000E+00
    0.0000000000E+00    0.0000000000E+00    0.0000000000E+00    0.0000000000E+00
    0.0000000000E+00    0.0000000000E+00    0.0000000000E+00    0.0000000000E+00
    0.0000000000E+00    0.0000000000E+00    0.0000000000E+00    0.0000000000E+00
    0.0000000000E+00    0.0000000000E+00    0.0000000000E+00    0.0000000000E+00
    0.0000000000E+00    0.0000000000E+00    0.0000000000E+00    0.0000000000E+00
    0.0000000000E+00    0.0000000000E+00    0.0000000000E+00    0.0000000000E+00
    0.0000000000E+00    0.0000000000E+00    0.0000000000E+00    0.0000000000E+00
    0.0000000000E+00    0.0000000000E+00    0.0000000000E+00    0.0000000000E+00
    0.0000000000E+00    0.0000000000E+00    0.0000000000E+00    0.0000000000E+00
    0.0000000000E+00    0.0000000000E+00    0.0000000000E+00    0.0000000000E+00
    0.0000000000E+00    0.0000000000E+00    0.0000000000E+00    0.0000000000E+00
    0.0000000000E+00    0.0000000000E+00    0.0000000000E+00    0.0000000000E+00
    0.0000000000E+00    0.0000000000E+00    0.0000000000E+00    0.0000000000E+00
    0.0000000000E+00    0.0000000000E+00    0.0000000000E+00    0.0000000000E+00
    0.0000000000E+00    0.0000000000E+00    0.0000000000E+00    0.0000000000E+00
    0.0000000000E+00    0.0000000000E+00    0.0000000000E+00    0.0000000000E+00
    0.0000000000E+00    0.0000000000E+00    0.0000000000E+00    0.0000000000E+00
    0.0000000000E+00    0.0000000000E+00    0.0000000000E+00    0.0000000000E+00
    0.0000000000E+00    0.0000000000E+00    0.0000000000E+00    0.0000000000E+00
    0.0000000000E+00    0.0000000000E+00    0.0000000000E+00    0.0000000000E+00
    0.0000000000E+00    0.0000000000E+00    0.0000000000E+00    0.0000000000E+00
    0.0000000000E+00    0.0000000000E+00    0.0000000000E+00    0.0000000000E+00
    0.0000000000E+00    0.0000000000E+00    0.0000000000E+00    0.0000000000E+00
    0.0000000000E+00    0.0000000000E+00    0.0000000000E+00    0.0000000000E+00
    0.0000000000E+00    0.0000000000E+00    0.0000000000E+00    0.0000000000E+00
    0.0000000000E+00    0.0000000000E+00    0.0000000000E+00    0.0000000000E+00
    0.0000000000E+00    0.0000000000E+00    0.0000000000E+00    0.0000000000E+00
    0.0000000000E+00    0.0000000000E+00    0.0000000000E+00    0.0000000000E+00
    0.0000000000E+00    0.0000000000E+00    0.0000000000E+00    0.0000000000E+00
    0.0000000000E+00    0.0000000000E+00    0.0000000000E+00    0.0000000000E+00
    0.0000000000E+00    0.0000000000E+00    0.0000000000E+00    0.0000000000E+00
    0.0000000000E+00    0.0000000000E+00    0.0000000000E+00    0.0000000000E+00
    0.0000000000E+00    0.0000000000E+00    0.0000000000E+00    0.0000000000E+00
    0.0000000000E+00    0.0000000000E+00    0.0000000000E+00    0.0000000000E+00
    0.0000000000E+00    0.0000000000E+00    0.0000000000E+00    0.0000000000E+00
    0.0000000000E+00    0.0000000000E+00    0.0000000000E+00    0.0000000000E+00
    0.0000000000E+00    0.0000000000E+00    0.0000000000E+00    0.0000000000E+00
    0.0000000000E+00    0.0000000000E+00    0.0000000000E+00    0.0000000000E+00
    0.0000000000E+00    0.0000000000E+00    0.0000000000E+00    0.0000000000E+00
    0.0000000000E+00    0.0000000000E+00    0.0000000000E+00    0.0000000000E+00
    0.0000000000E+00    0.0000000000E+00    0.0000000000E+00    0.0000000000E+00
    0.0000000000E+00    0.0000000000E+00    0.0000000000E+00    0.0000000000E+00
    0.0000000000E+00    0.0000000000E+00    0.0000000000E+00    0.0000000000E+00
    0.0000000000E+00    0.0000000000E+00    0.0000000000E+00    0.0000000000E+00
    0.0000000000E+00    0.0000000000E+00    0.0000000000E+00    0.0000000000E+00
    0.0000000000E+00    0.0000000000E+00    0.0000000000E+00    0.0000000000E+00
    0.0000000000E+00    0.0000000000E+00    0.0000000000E+00    0.0000000000E+00
    0.0000000000E+00    0.0000000000E+00    0.0000000000E+00    0.0000000000E+00
    0.0000000000E+00    0.0000000000E+00    0.0000000000E+00    0.0000000000E+00
    0.0000000000E+00    0.0000000000E+00    0.0000000000E+00    0.0000000000E+00
    0.0000000000E+00    0.0000000000E+00    0.0000000000E+00    0.0000000000E+00
    0.0000000000E+00    0.0000000000E+00    0.0000000000E+00    0.0000000000E+00
    0.0000000000E+00    0.0000000000E+00    0.0000000000E+00    0.0000000000E+00
    0.0000000000E+00    0.0000000000E+00    0.0000000000E+00    0.0000000000E+00
    0.0000000000E+00    0.0000000000E+00    0.0000000000E+00    0.0000000000E+00
    0.0000000000E+00    0.0000000000E+00    0.0000000000E+00    0.0000000000E+00
    0.0000000000E+00    0.0000000000E+00    0.0000000000E+00    0.0000000000E+00
    0.0000000000E+00    0.0000000000E+00    0.0000000000E+00    0.0000000000E+00
    0.0000000000E+00    0.0000000000E+00    0.0000000000E+00    0.0000000000E+00
    0.0000000000E+00    0.0000000000E+00    0.0000000000E+00    0.0000000000E+00
    0.0000000000E+00    0.0000000000E+00    0.0000000000E+00    0.0000000000E+00
    0.0000000000E+00    0.0000000000E+00    0.0000000000E+00    0.0000000000E+00
    0.0000000000E+00    0.0000000000E+00    0.0000000000E+00    0.0000000000E+00
    0.0000000000E+00    0.0000000000E+00    0.0000000000E+00    0.0000000000E+00
    0.0000000000E+00    0.0000000000E+00    0.0000000000E+00    0.0000000000E+00
    0.0000000000E+00    0.0000000000E+00    0.0000000000E+00    0.0000000000E+00
    0.0000000000E+00    0.0000000000E+00    0.0000000000E+00    0.0000000000E+00
    0.0000000000E+00    0.0000000000E+00    0.0000000000E+00    0.0000000000E+00
    0.0000000000E+00    0.0000000000E+00    0.0000000000E+00    0.0000000000E+00
    0.0000000000E+00    0.0000000000E+00    0.0000000000E+00    0.0000000000E+00
    0.0000000000E+00    0.0000000000E+00    0.0000000000E+00    0.0000000000E+00
    0.0000000000E+00    0.0000000000E+00    0.0000000000E+00    0.0000000000E+00
    0.0000000000E+00    0.0000000000E+00    0.0000000000E+00    0.0000000000E+00
    0.0000000000E+00    0.0000000000E+00    0.0000000000E+00    0.0000000000E+00
    0.0000000000E+00    0.0000000000E+00    0.0000000000E+00    0.0000000000E+00
    0.0000000000E+00    0.0000000000E+00    0.0000000000E+00    0.0000000000E+00
    0.0000000000E+00    0.0000000000E+00    0.0000000000E+00    0.0000000000E+00
    0.0000000000E+00    0.0000000000E+00    0.0000000000E+00    0.0000000000E+00
    0.0000000000E+00    0.0000000000E+00    0.0000000000E+00    0.0000000000E+00
    0.0000000000E+00    0.0000000000E+00    0.0000000000E+00    0.0000000000E+00
    0.0000000000E+00    0.0000000000E+00    0.0000000000E+00    0.0000000000E+00
    0.0000000000E+00    0.0000000000E+00    0.0000000000E+00    0.0000000000E+00
    0.0000000000E+00    0.0000000000E+00    0.0000000000E+00    0.0000000000E+00
    0.0000000000E+00    0.0000000000E+00    0.0000000000E+00    0.0000000000E+00
    0.0000000000E+00    0.0000000000E+00    0.0000000000E+00    0.0000000000E+00
    0.0000000000E+00    0.0000000000E+00    0.0000000000E+00    0.0000000000E+00
    0.0000000000E+00    0.0000000000E+00    0.0000000000E+00    0.0000000000E+00
    0.0000000000E+00    0.0000000000E+00    0.0000000000E+00    0.0000000000E+00
    0.0000000000E+00    0.0000000000E+00    0.0000000000E+00    0.0000000000E+00
    0.0000000000E+00    0.0000000000E+00    0.0000000000E+00    0.0000000000E+00
    0.0000000000E+00    0.0000000000E+00    0.0000000000E+00    0.0000000000E+00
    0.0000000000E+00    0.0000000000E+00    0.0000000000E+00    0.0000000000E+00
    0.0000000000E+00    0.0000000000E+00    0.0000000000E+00    0.0000000000E+00
    0.0000000000E+00    0.0000000000E+00    0.0000000000E+00    0.0000000000E+00
    0.0000000000E+00    0.0000000000E+00    0.0000000000E+00    0.0000000000E+00
    0.0000000000E+00    0.0000000000E+00    0.0000000000E+00    0.0000000000E+00
    0.0000000000E+00    0.0000000000E+00    0.0000000000E+00    0.0000000000E+00
    0.0000000000E+00    0.0000000000E+00    0.0000000000E+00    0.0000000000E+00
    0.0000000000E+00    0.0000000000E+00    0.0000000000E+00    0.0000000000E+00
    0.0000000000E+00    0.0000000000E+00    0.0000000000E+00    0.0000000000E+00
    0.0000000000E+00    0.0000000000E+00    0.0000000000E+00    0.0000000000E+00
    0.0000000000E+00    0.0000000000E+00    0.0000000000E+00    0.0000000000E+00
    0.0000000000E+00    0.0000000000E+00    0.0000000000E+00    0.0000000000E+00
    0.0000000000E+00    0.0000000000E+00    0.0000000000E+00    0.0000000000E+00
    0.0000000000E+00    0.0000000000E+00    0.0000000000E+00    0.0000000000E+00
    0.0000000000E+00    0.0000000000E+00    0.0000000000E+00    0.0000000000E+00
    0.0000000000E+00    0.0000000000E+00    0.0000000000E+00    0.0000000000E+00
    0.0000000000E+00    0.0000000000E+00    0.0000000000E+00    0.0000000000E+00
    0.0000000000E+00    0.0000000000E+00    0.0000000000E+00    0.0000000000E+00
    0.0000000000E+00    0.0000000000E+00    0.0000000000E+00    0.0000000000E+00
    0.0000000000E+00    0.0000000000E+00    0.0000000000E+00    0.0000000000E+00
    0.0000000000E+00    0.0000000000E+00    0.0000000000E+00    0.0000000000E+00
    0.0000000000E+00    0.0000000000E+00    0.0000000000E+00    0.0000000000E+00
    0.0000000000E+00    0.0000000000E+00    0.0000000000E+00    0.0000000000E+00
    0.0000000000E+00    0.0000000000E+00    0.0000000000E+00    0.0000000000E+00
    0.0000000000E+00    0.0000000000E+00    0.0000000000E+00    0.0000000000E+00
    0.0000000000E+00    0.0000000000E+00    0.0000000000E+00    0.0000000000E+00
    0.0000000000E+00    0.0000000000E+00    0.0000000000E+00    0.0000000000E+00
    0.0000000000E+00    0.0000000000E+00    0.0000000000E+00    0.0000000000E+00
    0.0000000000E+00    0.0000000000E+00    0.0000000000E+00    0.0000000000E+00
    0.0000000000E+00    0.0000000000E+00    0.0000000000E+00    0.0000000000E+00
    0.0000000000E+00    0.0000000000E+00    0.0000000000E+00    0.0000000000E+00
    0.0000000000E+00    0.0000000000E+00    0.0000000000E+00    0.0000000000E+00
    0.0000000000E+00    0.0000000000E+00    0.0000000000E+00    0.0000000000E+00
    0.0000000000E+00    0.0000000000E+00    0.0000000000E+00    0.0000000000E+00
    0.0000000000E+00    0.0000000000E+00    0.0000000000E+00    0.0000000000E+00
    0.0000000000E+00    0.0000000000E+00    0.0000000000E+00    0.0000000000E+00
    0.0000000000E+00    0.0000000000E+00    0.0000000000E+00    0.0000000000E+00
    0.0000000000E+00    0.0000000000E+00    0.0000000000E+00    0.0000000000E+00
    0.0000000000E+00    0.0000000000E+00    0.0000000000E+00    0.0000000000E+00
    0.0000000000E+00    0.0000000000E+00    0.0000000000E+00    0.0000000000E+00
    0.0000000000E+00    0.0000000000E+00    0.0000000000E+00    0.0000000000E+00
    0.0000000000E+00    0.0000000000E+00    0.0000000000E+00    0.0000000000E+00
    0.0000000000E+00    0.0000000000E+00    0.0000000000E+00    0.0000000000E+00
    0.0000000000E+00    0.0000000000E+00    0.0000000000E+00    0.0000000000E+00
    0.0000000000E+00    0.0000000000E+00    0.0000000000E+00    0.0000000000E+00
    0.0000000000E+00    0.0000000000E+00    0.0000000000E+00    0.0000000000E+00
    0.0000000000E+00    0.0000000000E+00    0.0000000000E+00    0.0000000000E+00
    0.0000000000E+00    0.0000000000E+00    0.0000000000E+00    0.0000000000E+00
    0.0000000000E+00    0.0000000000E+00    0.0000000000E+00    0.0000000000E+00
    0.0000000000E+00    0.0000000000E+00    0.0000000000E+00    0.0000000000E+00
    0.0000000000E+00    0.0000000000E+00    0.0000000000E+00    0.0000000000E+00
    0.0000000000E+00    0.0000000000E+00    0.0000000000E+00    0.0000000000E+00
    0.0000000000E+00    0.0000000000E+00    0.0000000000E+00    0.0000000000E+00
    0.0000000000E+00    0.0000000000E+00    0.0000000000E+00    0.0000000000E+00
    0.0000000000E+00    0.0000000000E+00    0.0000000000E+00    0.0000000000E+00
    0.0000000000E+00    0.0000000000E+00    0.0000000000E+00    0.0000000000E+00
    0.0000000000E+00    0.0000000000E+00    0.0000000000E+00    0.0000000000E+00
    0.0000000000E+00    0.0000000000E+00    0.0000000000E+00    0.0000000000E+00
    0.0000000000E+00    0.0000000000E+00    0.0000000000E+00    0.0000000000E+00
    0.0000000000E+00    0.0000000000E+00    0.0000000000E+00    0.0000000000E+00
    0.0000000000E+00    0.0000000000E+00    0.0000000000E+00    0.0000000000E+00
    0.0000000000E+00    0.0000000000E+00    0.0000000000E+00    0.0000000000E+00
    0.0000000000E+00    0.0000000000E+00    0.0000000000E+00    0.0000000000E+00
    0.0000000000E+00    0.0000000000E+00    0.0000000000E+00    0.0000000000E+00
    0.0000000000E+00    0.0000000000E+00    0.0000000000E+00    0.0000000000E+00
    0.0000000000E+00    0.0000000000E+00    0.0000000000E+00    0.0000000000E+00
    0.0000000000E+00    0.0000000000E+00    0.0000000000E+00    0.0000000000E+00
    0.0000000000E+00    0.0000000000E+00    0.0000000000E+00    0.0000000000E+00
    0.0000000000E+00    0.0000000000E+00    0.0000000000E+00    0.0000000000E+00
    0.0000000000E+00    0.0000000000E+00    0.0000000000E+00    0.0000000000E+00
    0.0000000000E+00    0.0000000000E+00    0.0000000000E+00    0.0000000000E+00
    0.0000000000E+00    0.0000000000E+00    0.0000000000E+00    0.0000000000E+00
    0.0000000000E+00    0.0000000000E+00    0.0000000000E+00    0.0000000000E+00
    0.0000000000E+00    0.0000000000E+00    0.0000000000E+00    0.0000000000E+00
    0.0000000000E+00    0.0000000000E+00    0.0000000000E+00    0.0000000000E+00
    0.0000000000E+00    0.0000000000E+00    0.0000000000E+00    0.0000000000E+00
    0.0000000000E+00    0.0000000000E+00    0.0000000000E+00    0.0000000000E+00
    0.0000000000E+00    0.0000000000E+00    0.0000000000E+00    0.0000000000E+00
    0.0000000000E+00    0.0000000000E+00    0.0000000000E+00    0.0000000000E+00
    0.0000000000E+00    0.0000000000E+00    0.0000000000E+00    0.0000000000E+00
    0.0000000000E+00    0.0000000000E+00    0.0000000000E+00    0.0000000000E+00
    0.0000000000E+00    0.0000000000E+00    0.0000000000E+00    0.0000000000E+00
    0.0000000000E+00    0.0000000000E+00    0.0000000000E+00    0.0000000000E+00
    0.0000000000E+00    0.0000000000E+00    0.0000000000E+00    0.0000000000E+00
    0.0000000000E+00    0.0000000000E+00    0.0000000000E+00    0.0000000000E+00
    0.0000000000E+00    0.0000000000E+00    0.0000000000E+00    0.0000000000E+00
    0.0000000000E+00    0.0000000000E+00    0.0000000000E+00    0.0000000000E+00
    0.0000000000E+00    0.0000000000E+00    0.0000000000E+00    0.0000000000E+00
    0.0000000000E+00    0.0000000000E+00    0.0000000000E+00    0.0000000000E+00
    0.0000000000E+00    0.0000000000E+00    0.0000000000E+00    0.0000000000E+00
    0.0000000000E+00    0.0000000000E+00    0.0000000000E+00    0.0000000000E+00
    0.0000000000E+00    0.0000000000E+00    0.0000000000E+00    0.0000000000E+00
    0.0000000000E+00    0.0000000000E+00    0.0000000000E+00    0.0000000000E+00
    0.0000000000E+00    0.0000000000E+00    0.0000000000E+00    0.0000000000E+00
    0.0000000000E+00    0.0000000000E+00    0.0000000000E+00    0.0000000000E+00
    0.0000000000E+00    0.0000000000E+00    0.0000000000E+00    0.0000000000E+00
    0.0000000000E+00    0.0000000000E+00    0.0000000000E+00    0.0000000000E+00
    0.0000000000E+00    0.0000000000E+00    0.0000000000E+00    0.0000000000E+00
    0.0000000000E+00    0.0000000000E+00    0.0000000000E+00    0.0000000000E+00
    0.0000000000E+00    0.0000000000E+00    0.0000000000E+00    0.0000000000E+00
    0.0000000000E+00    0.0000000000E+00    0.0000000000E+00    0.0000000000E+00
    0.0000000000E+00    0.0000000000E+00    0.0000000000E+00    0.0000000000E+00
    0.0000000000E+00    0.0000000000E+00    0.0000000000E+00    0.0000000000E+00
    0.0000000000E+00    0.0000000000E+00    0.0000000000E+00    0.0000000000E+00
    0.0000000000E+00    0.0000000000E+00    0.0000000000E+00    0.0000000000E+00
    0.0000000000E+00    0.0000000000E+00    0.0000000000E+00    0.0000000000E+00
    0.0000000000E+00    0.0000000000E+00    0.0000000000E+00    0.0000000000E+00
    0.0000000000E+00    0.0000000000E+00    0.0000000000E+00    0.0000000000E+00
    0.0000000000E+00    0.0000000000E+00    0.0000000000E+00    0.0000000000E+00
    0.0000000000E+00    0.0000000000E+00    0.0000000000E+00    0.0000000000E+00
    0.0000000000E+00    0.0000000000E+00    0.0000000000E+00    0.0000000000E+00
    0.0000000000E+00    0.0000000000E+00    0.0000000000E+00    0.0000000000E+00
    0.0000000000E+00    0.0000000000E+00    0.0000000000E+00    0.0000000000E+00
    0.0000000000E+00    0.0000000000E+00    0.0000000000E+00    0.0000000000E+00
 </PP_NLCC>
 <PP_RHOATOM type="real"  size="1244" columns="4">
    0.0000000000E+00    9.0437989639E-04    3.6250604204E-03    8.1846233665E-03
    1.4620569521E-02    2.2985115921E-02    3.3344913140E-02    4.5780683731E-02
    6.0386783249E-02    7.7270685607E-02    9.6552394806E-02    1.1836378538E-01
    1.4284787418E-01    1.7015802640E-01    2.0045709904E-01    2.3391652520E-01
    2.7071534293E-01    3.1103917247E-01    3.5507914616E-01    4.0303079525E-01
    4.5509289820E-01    5.1146629525E-01    5.7235267418E-01    6.3795333222E-01
    7.0846791960E-01    7.8409316979E-01    8.6502162216E-01    9.5144034256E-01
    1.0435296474E+00    1.1414618374E+00    1.2453999457E+00    1.3554965080E+00
    1.4718923588E+00    1.5947154601E+00    1.7240797696E+00    1.8600841515E+00
    2.0028113388E+00    2.1523269495E+00    2.3086785648E+00    2.4718948725E+00
    2.6419848818E+00    2.8189372142E+00    3.0027194743E+00    3.1932777057E+00
    3.3905359356E+00    3.5943958113E+00    3.8047363325E+00    4.0214136811E+00
    4.2442611522E+00    4.4730891872E+00    4.7076855104E+00    4.9478153702E+00
    5.1932218851E+00    5.4436264943E+00    5.6987295116E+00    5.9582107822E+00
    6.2217304385E+00    6.4889297549E+00    6.7594320959E+00    7.0328439554E+00
    7.3087560822E+00    7.5867446871E+00    7.8663727255E+00    8.1471912517E+00
    8.4287408352E+00    8.7105530363E+00    8.9921519302E+00    9.2730556750E+00
    9.5527781138E+00    9.8308304052E+00    1.0106722671E+01    1.0379965658E+01
    1.0650072395E+01    1.0916559856E+01    1.1178950596E+01    1.1436774376E+01
    1.1689569748E+01    1.1936885608E+01    1.2178282705E+01    1.2413335089E+01
    1.2641631510E+01    1.2862776738E+01    1.3076392827E+01    1.3282120283E+01
    1.3479619167E+01    1.3668570096E+01    1.3848675161E+01    1.4019658750E+01
    1.4181268268E+01    1.4333274764E+01    1.4475473452E+01    1.4607684131E+01
    1.4729751504E+01    1.4841545389E+01    1.4942960836E+01    1.5033918132E+01
    1.5114362720E+01    1.5184265011E+01    1.5243620104E+01    1.5292447418E+01
    1.5330790237E+01    1.5358715163E+01    1.5376311501E+01    1.5383690566E+01
    1.5380984913E+01    1.5368347513E+01    1.5345950862E+01    1.5313986042E+01
    1.5272661731E+01    1.5222203169E+01    1.5162851089E+01    1.5094860619E+01
    1.5018500156E+01    1.4934050225E+01    1.4841802313E+01    1.4742057711E+01
    1.4635126343E+01    1.4521325596E+01    1.4400979164E+01    1.4274415901E+01
    1.4141968693E+01    1.4003973345E+01    1.3860767504E+01    1.3712689604E+01
    1.3560077845E+01    1.3403269210E+01    1.3242598522E+01    1.3078397540E+01
    1.2910994104E+01    1.2740711322E+01    1.2567866806E+01    1.2392771963E+01
    1.2215731328E+01    1.2037041958E+01    1.1856992871E+01    1.1675864541E+01
    1.1493928446E+01    1.1311446666E+01    1.1128671535E+01    1.0945845342E+01
    1.0763200084E+01    1.0580957267E+01    1.0399327750E+01    1.0218511645E+01
    1.0038698250E+01    9.8600660304E+00    9.6827826411E+00    9.5070049817E+00
    9.3328792917E+00    9.1605412785E+00    8.9901162751E+00    8.8217194286E+00
    8.6554559133E+00    8.4914211694E+00    8.3297011621E+00    8.1703726607E+00
    8.0135035343E+00    7.8591530622E+00    7.7073722566E+00    7.5582041958E+00
    7.4116843651E+00    7.2678410039E+00    7.1266954576E+00    6.9882625312E+00
    6.8525508439E+00    6.7195631829E+00    6.5892968548E+00    6.4617440330E+00
    6.3368921006E+00    6.2147239867E+00    6.0952184959E+00    5.9783506296E+00
    5.8640918982E+00    5.7524106241E+00    5.6432722345E+00    5.5366395430E+00
    5.4324730210E+00    5.3307310570E+00    5.2313702051E+00    5.1343454210E+00
    5.0396102872E+00    4.9471172261E+00    4.8568177014E+00    4.7686624083E+00
    4.6826014522E+00    4.5985845165E+00    4.5165610195E+00    4.4364802605E+00
    4.3582915561E+00    4.2819443662E+00    4.2073884111E+00    4.1345737728E+00
    4.0634509687E+00    3.9939709966E+00    3.9260854304E+00    3.8597465201E+00
    3.7949072757E+00    3.7315215483E+00    3.6695441071E+00    3.6089307153E+00
    3.5496382056E+00    3.4916245352E+00    3.4348488324E+00    3.3792714403E+00
    3.3248539530E+00    3.2715592479E+00    3.2193515121E+00    3.1681962640E+00
    3.1180603696E+00    3.0689120542E+00    3.0207209090E+00    2.9734578934E+00
    2.9270953324E+00    2.8816069095E+00    2.8369676556E+00    2.7931539339E+00
    2.7501434203E+00    2.7079150807E+00    2.6664491427E+00    2.6257270663E+00
    2.5857315087E+00    2.5464462844E+00    2.5078562071E+00    2.4699467950E+00
    2.4327038397E+00    2.3961134482E+00    2.3601620623E+00    2.3248364315E+00
    2.2901236105E+00    2.2560109530E+00    2.2224861050E+00    2.1895369983E+00
    2.1571518447E+00    2.1253191292E+00    2.0940276044E+00    2.0632662840E+00
    2.0330244372E+00    2.0032915823E+00    1.9740574816E+00    1.9453121353E+00
    1.9170457756E+00    1.8892488619E+00    1.8619120747E+00    1.8350263110E+00
    1.8085826783E+00    1.7825724902E+00    1.7569872607E+00    1.7318187002E+00
    1.7070587097E+00    1.6826993768E+00    1.6587329710E+00    1.6351519387E+00
    1.6119488996E+00    1.5891166417E+00    1.5666481175E+00    1.5445364396E+00
    1.5227748770E+00    1.5013568511E+00    1.4802759315E+00    1.4595258330E+00
    1.4391004111E+00    1.4189936591E+00    1.3991997045E+00    1.3797128052E+00
    1.3605273469E+00    1.3416378392E+00    1.3230389130E+00    1.3047253171E+00
    1.2866919153E+00    1.2689336838E+00    1.2514457078E+00    1.2342231792E+00
    1.2172613938E+00    1.2005557487E+00    1.1841017397E+00    1.1678949587E+00
    1.1519310918E+00    1.1362059162E+00    1.1207152985E+00    1.1054551923E+00
    1.0904216359E+00    1.0756107504E+00    1.0610187376E+00    1.0466418779E+00
    1.0324765282E+00    1.0185191207E+00    1.0047661600E+00    9.9121422246E-01
    9.7785995347E-01    9.6470006635E-01    9.5173134049E-01    9.3895061976E-01
    9.2635481097E-01    9.1394088235E-01    9.0170586204E-01    8.8964683669E-01
    8.7776095002E-01    8.6604540150E-01    8.5449744497E-01    8.4311438742E-01
    8.3189358767E-01    8.2083245517E-01    8.0992844882E-01    7.9917907583E-01
    7.8858189053E-01    7.7813449335E-01    7.6783452970E-01    7.5767968896E-01
    7.4766770346E-01    7.3779634752E-01    7.2806343643E-01    7.1846682559E-01
    7.0900440958E-01    6.9967412125E-01    6.9047393091E-01    6.8140184546E-01
    6.7245590757E-01    6.6363419490E-01    6.5493481937E-01    6.4635592632E-01
    6.3789569385E-01    6.2955233208E-01    6.2132408246E-01    6.1320921711E-01
    6.0520603811E-01    5.9731287693E-01    5.8952809375E-01    5.8185007689E-01
    5.7427724218E-01    5.6680803240E-01    5.5944091674E-01    5.5217439022E-01
    5.4500697315E-01    5.3793721065E-01    5.3096367209E-01    5.2408495064E-01
    5.1729966277E-01    5.1060644776E-01    5.0400396727E-01    4.9749090490E-01
    4.9106596570E-01    4.8472787580E-01    4.7847538198E-01    4.7230725126E-01
    4.6622227048E-01    4.6021924598E-01    4.5429700316E-01    4.4845438613E-01
    4.4269025737E-01    4.3700349738E-01    4.3139300431E-01    4.2585769365E-01
    4.2039649790E-01    4.1500836627E-01    4.0969226432E-01    4.0444717371E-01
    3.9927209189E-01    3.9416603178E-01    3.8912802153E-01    3.8415710423E-01
    3.7925233763E-01    3.7441279387E-01    3.6963755927E-01    3.6492573400E-01
    3.6027643192E-01    3.5568878028E-01    3.5116191949E-01    3.4669500292E-01
    3.4228719664E-01    3.3793767925E-01    3.3364564160E-01    3.2941028662E-01
    3.2523082911E-01    3.2110649553E-01    3.1703652379E-01    3.1302016311E-01
    3.0905667376E-01    3.0514532691E-01    3.0128540447E-01    2.9747619886E-01
    2.9371701288E-01    2.9000715952E-01    2.8634596181E-01    2.8273275262E-01
    2.7916687454E-01    2.7564767969E-01    2.7217452960E-01    2.6874679503E-01
    2.6536385583E-01    2.6202510081E-01    2.5872992757E-01    2.5547774237E-01
    2.5226796003E-01    2.4910000374E-01    2.4597330494E-01    2.4288730323E-01
    2.3984144620E-01    2.3683518934E-01    2.3386799586E-01    2.3093933665E-01
    2.2804869011E-01    2.2519554202E-01    2.2237938550E-01    2.1959972080E-01
    2.1685605529E-01    2.1414790326E-01    2.1147478588E-01    2.0883623108E-01
    2.0623177343E-01    2.0366095406E-01    2.0112332055E-01    1.9861842683E-01
    1.9614583311E-01    1.9370510575E-01    1.9129581720E-01    1.8891754589E-01
    1.8656987615E-01    1.8425239812E-01    1.8196470766E-01    1.7970640629E-01
    1.7747710105E-01    1.7527640448E-01    1.7310393453E-01    1.7095931443E-01
    1.6884217268E-01    1.6675214292E-01    1.6468886390E-01    1.6265197934E-01
    1.6064113796E-01    1.5865599330E-01    1.5669620372E-01    1.5476143229E-01
    1.5285134678E-01    1.5096561950E-01    1.4910392733E-01    1.4726595158E-01
    1.4545137798E-01    1.4365989659E-01    1.4189120172E-01    1.4014499192E-01
    1.3842096988E-01    1.3671884237E-01    1.3503832021E-01    1.3337911818E-01
    1.3174095499E-01    1.3012355320E-01    1.2852663919E-01    1.2694994309E-01
    1.2539319872E-01    1.2385614356E-01    1.2233851867E-01    1.2084006868E-01
    1.1936054169E-01    1.1789968925E-01    1.1645726632E-01    1.1503303119E-01
    1.1362674546E-01    1.1223817397E-01    1.1086708480E-01    1.0951324916E-01
    1.0817644138E-01    1.0685643890E-01    1.0555302214E-01    1.0426597455E-01
    1.0299508250E-01    1.0174013527E-01    1.0050092502E-01    9.9277246704E-02
    9.8068898088E-02    9.6875679665E-02    9.5697394642E-02    9.4533848890E-02
    9.3384850913E-02    9.2250211807E-02    9.1129745227E-02    9.0023267348E-02
    8.8930596832E-02    8.7851554793E-02    8.6785964760E-02    8.5733652648E-02
    8.4694446720E-02    8.3668177555E-02    8.2654678019E-02    8.1653783230E-02
    8.0665330526E-02    7.9689159437E-02    7.8725111650E-02    7.7773030985E-02
    7.6832763358E-02    7.5904156759E-02    7.4987061216E-02    7.4081328773E-02
    7.3186813458E-02    7.2303371255E-02    7.1430860082E-02    7.0569139756E-02
    6.9718071972E-02    6.8877520278E-02    6.8047350043E-02    6.7227428440E-02
    6.6417624412E-02    6.5617808655E-02    6.4827853589E-02    6.4047633337E-02
    6.3277023698E-02    6.2515902128E-02    6.1764147712E-02    6.1021641146E-02
    6.0288264712E-02    5.9563902258E-02    5.8848439173E-02    5.8141762370E-02
    5.7443760260E-02    5.6754322736E-02    5.6073341150E-02    5.5400708293E-02
    5.4736318375E-02    5.4080067005E-02    5.3431851175E-02    5.2791569235E-02
    5.2159120880E-02    5.1534407128E-02    5.0917330302E-02    5.0307794014E-02
    4.9705703146E-02    4.9110963831E-02    4.8523483438E-02    4.7943170555E-02
    4.7369934970E-02    4.6803687657E-02    4.6244340757E-02    4.5691807567E-02
    4.5146002517E-02    4.4606841159E-02    4.4074240153E-02    4.3548117248E-02
    4.3028391267E-02    4.2514982096E-02    4.2007810667E-02    4.1506798943E-02
    4.1011869907E-02    4.0522947544E-02    4.0039956830E-02    3.9562823717E-02
    3.9091475122E-02    3.8625838911E-02    3.8165843886E-02    3.7711419777E-02
    3.7262497222E-02    3.6819007762E-02    3.6380883822E-02    3.5948058705E-02
    3.5520466575E-02    3.5098042449E-02    3.4680722183E-02    3.4268442463E-02
    3.3861140789E-02    3.3458755472E-02    3.3061225615E-02    3.2668491106E-02
    3.2280492608E-02    3.1897171546E-02    3.1518470099E-02    3.1144331189E-02
    3.0774698470E-02    3.0409516322E-02    3.0048729834E-02    2.9692284802E-02
    2.9340127715E-02    2.8992205746E-02    2.8648466746E-02    2.8308859229E-02
    2.7973332371E-02    2.7641835993E-02    2.7314320559E-02    2.6990737162E-02
    2.6671037520E-02    2.6355173965E-02    2.6043099436E-02    2.5734767468E-02
    2.5430132190E-02    2.5129148311E-02    2.4831771117E-02    2.4537956458E-02
    2.4247660746E-02    2.3960840944E-02    2.3677454560E-02    2.3397459641E-02
    2.3120814761E-02    2.2847479020E-02    2.2577412035E-02    2.2310573930E-02
    2.2046925333E-02    2.1786427369E-02    2.1529041651E-02    2.1274730277E-02
    2.1023455820E-02    2.0775181324E-02    2.0529870298E-02    2.0287486709E-02
    2.0047994975E-02    1.9811359961E-02    1.9577546973E-02    1.9346521750E-02
    1.9118250460E-02    1.8892699696E-02    1.8669836467E-02    1.8449628194E-02
    1.8232042707E-02    1.8017048234E-02    1.7804613403E-02    1.7594707230E-02
    1.7387299118E-02    1.7182358852E-02    1.6979856592E-02    1.6779762868E-02
    1.6582048579E-02    1.6386684984E-02    1.6193643697E-02    1.6002896688E-02
    1.5814416271E-02    1.5628175106E-02    1.5444146189E-02    1.5262302853E-02
    1.5082618759E-02    1.4905067895E-02    1.4729624568E-02    1.4556263407E-02
    1.4384959350E-02    1.4215687645E-02    1.4048423848E-02    1.3883143814E-02
    1.3719823694E-02    1.3558439937E-02    1.3398969279E-02    1.3241388741E-02
    1.3085675630E-02    1.2931807530E-02    1.2779762300E-02    1.2629518071E-02
    1.2481053242E-02    1.2334346480E-02    1.2189376709E-02    1.2046123114E-02
    1.1904565134E-02    1.1764682460E-02    1.1626455033E-02    1.1489863036E-02
    1.1354886896E-02    1.1221507281E-02    1.1089705092E-02    1.0959461464E-02
    1.0830757765E-02    1.0703575586E-02    1.0577896744E-02    1.0453703280E-02
    1.0330977451E-02    1.0209701730E-02    1.0089858804E-02    9.9714315719E-03
    9.8544031386E-03    9.7387568153E-03    9.6244761157E-03    9.5115447540E-03
    9.3999466418E-03    9.2896658862E-03    9.1806867869E-03    9.0729938340E-03
    8.9665717058E-03    8.8614052660E-03    8.7574795617E-03    8.6547798211E-03
    8.5532914511E-03    8.4530000351E-03    8.3538913311E-03    8.2559512690E-03
    8.1591659489E-03    8.0635216387E-03    7.9690047721E-03    7.8756019467E-03
    7.7832999219E-03    7.6920856166E-03    7.6019461075E-03    7.5128686273E-03
    7.4248405624E-03    7.3378494510E-03    7.2518829818E-03    7.1669289913E-03
    7.0829754627E-03    7.0000105235E-03    6.9180224443E-03    6.8369996366E-03
    6.7569306510E-03    6.6778041761E-03    6.5996090360E-03    6.5223341892E-03
    6.4459687269E-03    6.3705018709E-03    6.2959229725E-03    6.2222215109E-03
    6.1493870911E-03    6.0774094431E-03    6.0062784198E-03    5.9359839957E-03
    5.8665162653E-03    5.7978654419E-03    5.7300218560E-03    5.6629759536E-03
    5.5967182953E-03    5.5312395544E-03    5.4665305159E-03    5.4025820749E-03
    5.3393852354E-03    5.2769311089E-03    5.2152109131E-03    5.1542159706E-03
    5.0939377077E-03    5.0343676530E-03    4.9754974361E-03    4.9173187869E-03
    4.8598235335E-03    4.8030036018E-03    4.7468510139E-03    4.6913578870E-03
    4.6365164323E-03    4.5823189539E-03    4.5287578476E-03    4.4758255996E-03
    4.4235147858E-03    4.3718180706E-03    4.3207282054E-03    4.2702380283E-03
    4.2203404623E-03    4.1710285148E-03    4.1222952764E-03    4.0741339197E-03
    4.0265376989E-03    3.9794999479E-03    3.9330140803E-03    3.8870735877E-03
    3.8416720392E-03    3.7968030802E-03    3.7524604317E-03    3.7086378893E-03
    3.6653293222E-03    3.6225286724E-03    3.5802299539E-03    3.5384272517E-03
    3.4971147210E-03    3.4562865864E-03    3.4159371411E-03    3.3760607457E-03
    3.3366518281E-03    3.2977048820E-03    3.2592144664E-03    3.2211752051E-03
    3.1835817851E-03    3.1464289570E-03    3.1097115331E-03    3.0734243874E-03
    3.0375624547E-03    3.0021207296E-03    2.9670942661E-03    2.9324781769E-03
    2.8982676323E-03    2.8644578599E-03    2.8310441439E-03    2.7980218243E-03
    2.7653862960E-03    2.7331330088E-03    2.7012574660E-03    2.6697552243E-03
    2.6386218928E-03    2.6078531328E-03    2.5774446566E-03    2.5473922275E-03
    2.5176916585E-03    2.4883388126E-03    2.4593296013E-03    2.4306599847E-03
    2.4023259705E-03    2.3743236135E-03    2.3466490154E-03    2.3192983237E-03
    2.2922677315E-03    2.2655534769E-03    2.2391518425E-03    2.2130591545E-03
    2.1872717829E-03    2.1617861404E-03    2.1365986818E-03    2.1117059042E-03
    2.0871043457E-03    2.0627905855E-03    2.0387612430E-03    2.0150129776E-03
    1.9915424880E-03    1.9683465121E-03    1.9454218261E-03    1.9227652442E-03
    1.9003736183E-03    1.8782438374E-03    1.8563728271E-03    1.8347575495E-03
    1.8133950022E-03    1.7922822185E-03    1.7714162664E-03    1.7507942488E-03
    1.7304133024E-03    1.7102705980E-03    1.6903633395E-03    1.6706887638E-03
    1.6512441404E-03    1.6320267711E-03    1.6130339892E-03    1.5942631598E-03
    1.5757116786E-03    1.5573769724E-03    1.5392564981E-03    1.5213477426E-03
    1.5036482224E-03    1.4861554832E-03    1.4688670998E-03    1.4517806752E-03
    1.4348938411E-03    1.4182042566E-03    1.4017096087E-03    1.3854076115E-03
    1.3692960062E-03    1.3533725602E-03    1.3376350675E-03    1.3220813480E-03
    1.3067092473E-03    1.2915166362E-03    1.2765014107E-03    1.2616614915E-03
    1.2469948238E-03    1.2324993770E-03    1.2181731443E-03    1.2040141426E-03
    1.1900204120E-03    1.1761900159E-03    1.1625210403E-03    1.1490115937E-03
    1.1356598068E-03    1.1224638326E-03    1.1094218455E-03    1.0965320415E-03
    1.0837926378E-03    1.0712018725E-03    1.0587580045E-03    1.0464593132E-03
    1.0343040980E-03    1.0222906787E-03    1.0104173945E-03    9.9868260423E-04
    9.8708468607E-04    9.7562203720E-04    9.6429307366E-04    9.5309623012E-04
    9.4202995961E-04    9.3109273339E-04    9.2028304063E-04    9.0959938831E-04
    8.9904030091E-04    8.8860432027E-04    8.7829000536E-04    8.6809593206E-04
    8.5802069301E-04    8.4806289738E-04    8.3822117065E-04    8.2849415447E-04
    8.1888050646E-04    8.0937889996E-04    7.9998802395E-04    7.9070658275E-04
    7.8153329594E-04    7.7246689812E-04    7.6350613876E-04    7.5464978198E-04
    7.4589660646E-04    7.3724540518E-04    7.2869498533E-04    7.2024416806E-04
    7.1189178840E-04    7.0363669504E-04    6.9547775017E-04    6.8741382936E-04
    6.7944382138E-04    6.7156662801E-04    6.6378116396E-04    6.5608635666E-04
    6.4848114611E-04    6.4096448479E-04    6.3353533745E-04    6.2619268097E-04
    6.1893550426E-04    6.1176280810E-04    6.0467360498E-04    5.9766691897E-04
    5.9074178560E-04    5.8389725172E-04    5.7713237535E-04    5.7044622556E-04
    5.6383788236E-04    5.5730643652E-04    5.5085098950E-04    5.4447065329E-04
    5.3816455029E-04    5.3193181320E-04    5.2577158489E-04    5.1968301829E-04
    5.1366527624E-04    5.0771753141E-04    5.0183896617E-04    4.9602877249E-04
    4.9028615180E-04    4.8461031488E-04    4.7900048179E-04    4.7345588171E-04
    4.6797575288E-04    4.6255934245E-04    4.5720590640E-04    4.5191470943E-04
    4.4668502486E-04    4.4151613452E-04    4.3640732869E-04    4.3135790591E-04
    4.2636717299E-04    4.2143444485E-04    4.1655904442E-04    4.1174030258E-04
    4.0697755804E-04    4.0227015728E-04    3.9761745442E-04    3.9301881114E-04
    3.8847359661E-04    3.8398118738E-04    3.7954096732E-04    3.7515232751E-04
    3.7081466615E-04    3.6652738850E-04    3.6228990679E-04    3.5810164012E-04
    3.5396201441E-04    3.4987046230E-04    3.4582642305E-04    3.4182934251E-04
    3.3787867303E-04    3.3397387334E-04    3.3011440852E-04    3.2629974994E-04
    3.2252937511E-04    3.1880276770E-04    3.1511941739E-04    3.1147881987E-04
    3.0788047671E-04    3.0432389530E-04    3.0080858884E-04    2.9733407619E-04
    2.9389988185E-04    2.9050553589E-04    2.8715057389E-04    2.8383453683E-04
    2.8055697110E-04    2.7731742838E-04    2.7411546559E-04    2.7095064485E-04
    2.6782253340E-04    2.6473070352E-04    2.6167473252E-04    2.5865420264E-04
    2.5566870103E-04    2.5271781964E-04    2.4980115521E-04    2.4691830920E-04
    2.4406888770E-04    2.4125250145E-04    2.3846876572E-04    2.3571730028E-04
    2.3299772934E-04    2.3030968153E-04    2.2765278979E-04    2.2502669138E-04
    2.2243102778E-04    2.1986544466E-04    2.1732959186E-04    2.1482312329E-04
    2.1234569691E-04    2.0989697468E-04    2.0747662251E-04    2.0508431022E-04
    2.0271971147E-04    2.0038250377E-04    1.9807236836E-04    1.9578899024E-04
    1.9353205806E-04    1.9130126413E-04    1.8909630434E-04    1.8691687815E-04
    1.8476268851E-04    1.8263344187E-04    1.8052884808E-04    1.7844862039E-04
    1.7639247541E-04    1.7436013305E-04    1.7235131649E-04    1.7036575214E-04
    1.6840316963E-04    1.6646330171E-04    1.6454588429E-04    1.6265065632E-04
    1.6077735985E-04    1.5892573990E-04    1.5709554448E-04    1.5528652456E-04
    1.5349843398E-04    1.5173102949E-04    1.4998407067E-04    1.4825731989E-04
    1.4655054231E-04    1.4486350583E-04    1.4319598105E-04    1.4154774127E-04
    1.3991856240E-04    1.3830822299E-04    1.3671650418E-04    1.3514318964E-04
    1.3358806558E-04    1.3205092071E-04    1.3053154618E-04    1.2902973561E-04
    1.2754528501E-04    1.2607799276E-04    1.2462765961E-04    1.2319408863E-04
    1.2177708518E-04    1.2037645690E-04    1.1899201366E-04    1.1762356756E-04
    1.1627093289E-04    1.1493392610E-04    1.1361236578E-04    1.1230607264E-04
    1.1101486947E-04    1.0973858115E-04    1.0847703458E-04    1.0723005869E-04
    1.0599748439E-04    1.0477914457E-04    1.0357487407E-04    1.0238450965E-04
    1.0120788998E-04    1.0004485561E-04    9.8895248931E-05    9.7758914192E-05
    9.6635697446E-05    9.5525446544E-05    9.4428011107E-05    9.3343242508E-05
    9.2270993854E-05    9.1211119962E-05    9.0163477341E-05    8.9127924170E-05
    8.8104320281E-05    8.7092527138E-05    8.6092407820E-05    8.5103826999E-05
    8.4126650924E-05    8.3160747402E-05    8.2205985777E-05    8.1262236918E-05
    8.0329373194E-05    7.9407268461E-05    7.8495798046E-05    7.7594838725E-05
    7.6704268709E-05    7.5823967627E-05    7.4953816507E-05    7.4093697767E-05
    7.3243495187E-05    7.2403093905E-05    7.1572380392E-05    7.0751242443E-05
    6.9939569156E-05    6.9137250921E-05    6.8344179404E-05    6.7560247529E-05
    6.6785349469E-05    6.6019380624E-05    6.5262237616E-05    6.4513818264E-05
    6.3774021579E-05    6.3042747746E-05    6.2319898111E-05    6.1605375166E-05
    6.0899082539E-05    6.0200924977E-05    5.9510808335E-05    5.8828639562E-05
    5.8154326692E-05    5.7487778824E-05    5.6828906116E-05    5.6177619770E-05
    5.5533832021E-05    5.4897456123E-05    5.4268406338E-05    5.3646597926E-05
    5.3031947131E-05    5.2424371169E-05    5.1823788221E-05    5.1230117416E-05
    5.0643278824E-05    5.0063193443E-05    4.9489783190E-05    4.8922970888E-05
    4.8362680257E-05    4.7808835903E-05    4.7261363307E-05    4.6720188816E-05
    4.6185239635E-05    4.5656443809E-05    4.5133730225E-05    4.4617028590E-05
    4.4106269430E-05    4.3601384078E-05    4.3102304664E-05    4.2608964105E-05
    4.2121296098E-05    4.1639235109E-05    4.1162716364E-05    4.0691675842E-05
    4.0226050266E-05    3.9765777090E-05    3.9310794498E-05    3.8861041389E-05
    3.8416457371E-05    3.7976982753E-05    3.7542558537E-05    3.7113126409E-05
    3.6688628733E-05    3.6269008539E-05    3.5854209521E-05    3.5444176023E-05
    3.5038853036E-05    3.4638186190E-05    3.4242121745E-05    3.3850606583E-05
    3.3463588203E-05    3.3081014712E-05    3.2702834821E-05    3.2328997833E-05
    3.1959453640E-05    3.1594152715E-05    3.1233046104E-05    3.0876085423E-05
    3.0523222846E-05    3.0174411103E-05    2.9829603471E-05    2.9488753769E-05
    2.9151816352E-05    2.8818746102E-05    2.8489498426E-05    2.8164029246E-05
    2.7842294995E-05    2.7524252611E-05    2.7209859531E-05    2.6899073685E-05
    2.6591853491E-05    2.6288157847E-05    2.5987946128E-05    2.5691178181E-05
    2.5397814314E-05    2.5107815299E-05    2.4821142360E-05    2.4537757170E-05
    2.4257621847E-05    2.3980698946E-05    2.3706951457E-05    2.3436342797E-05
    2.3168836807E-05    2.2904397748E-05    2.2642990293E-05    2.2384579523E-05
    2.2129130927E-05    2.1876610388E-05    2.1626984189E-05    2.1380218999E-05
    2.1136281875E-05    2.0895140255E-05    2.0656761954E-05    2.0421115157E-05
    2.0188168419E-05    1.9957890659E-05    1.9730251155E-05    1.9505219540E-05
    1.9282765798E-05    1.9062860262E-05    1.8845473605E-05    1.8630576843E-05
    1.8418141322E-05    1.8208138725E-05    1.8000541058E-05    1.7795320652E-05
    1.7592450160E-05    1.7391902547E-05    1.7193651095E-05    1.6997669391E-05
    1.6803931329E-05    1.6612411105E-05    1.6423083213E-05    1.6235922441E-05
    1.6050903868E-05    1.5868002863E-05    1.5687195079E-05    1.5508456447E-05
    1.5331763181E-05    1.5157091767E-05    1.4984418962E-05    1.4813721793E-05
    1.4644977553E-05    1.4478163795E-05    1.4313258332E-05    1.4150239234E-05
    1.3989084824E-05    1.3829773675E-05    1.3672284608E-05    1.3516596686E-05
    1.3362689218E-05    1.3210541747E-05    1.3060134057E-05    1.2911446163E-05
    1.2764458308E-05    1.2619150969E-05    1.2475504843E-05    1.2333500852E-05
    1.2193120138E-05    1.2054344061E-05    1.1917154196E-05    1.1781532328E-05
    1.1647460456E-05    1.1514920785E-05    1.1383895725E-05    1.1254367888E-05
 </PP_RHOATOM>
</UPF>

END_PSP
