Begin PSP_UPF
<UPF version="2.0.1">
  <PP_INFO>

 This pseudopotential file has been produced using the code
 ONCVPSP  (Optimized Norm-Conservinng Vanderbilt PSeudopotential)
 scalar-relativistic version 4.0.1 06/04/2019 by D. R. Hamann
 The code is available through a link at URL www.mat-simresearch.com.
 Documentation with the package provides a full discription of the
 input data below.


 While it is not required under the terms of the GNU GPL, it is
 suggested that you cite D. R. Hamann, Phys. Rev. B 88, 085117 (2013)
 in any publication using these pseudopotentials.

    <PP_INPUTFILE>
# ATOM AND REFERENCE CONFIGURATION
# atsym  z   nc   nv     iexc    psfile
  Cr 24.00    3    4 -116133      upf
#
#   n    l    f        energy (Ha)
    1    0    2.00
    2    0    2.00
    2    1    6.00
    3    0    2.00
    3    1    6.00
    3    2    5.00
    4    0    1.00
#
# PSEUDOPOTENTIAL AND OPTIMIZATION
# lmax
    2
#
#   l,   rc,      ep,       ncon, nbas, qcut
    0   1.10000  -2.71914    4    8  10.80000
    1   1.10000  -1.67001    4    7  11.00000
    2   1.40000  -0.10706    4    8  11.00000
#
# LOCAL POTENTIAL
# lloc, lpopt,  rc(5),   dvloc0
    4    5   1.10000      0.00000
#
# VANDERBILT-KLEINMAN-BYLANDER PROJECTORs
# l, nproj, debl
    0    2   2.57187
    1    2   1.63368
    2    2   1.00000
#
# MODEL CORE CHARGE
# icmod, fcfact, rcfact
    3   4.50000   1.60000
#
# LOG DERIVATIVE ANALYSIS
# epsh1, epsh2, depsh
  -18.00   12.00    0.02
#
# OUTPUT GRID
# rlmax, drl
    6.00    0.01
#
# TEST CONFIGURATIONS
# ncnf
    0
# nvcnf
#   n    l    f
    </PP_INPUTFILE>
  </PP_INFO>
  <!--                               -->
  <!-- END OF HUMAN READABLE SECTION -->
  <!--                               -->
    <PP_HEADER
       generated="Generated using ONCVPSP code by D. R. Hamann"
       author="anonymous"
       date="251022"
       comment=""
       element="Cr"
       pseudo_type="NC"
       relativistic="scalar"
       is_ultrasoft="F"
       is_paw="F"
       is_coulomb="F"
       has_so="F"
       has_wfc="F"
       has_gipaw="F"
       core_correction="T"
       functional="PBESOL"
       z_valence="   14.00"
       total_psenergy="  -1.72987220961E+02"
       rho_cutoff="   1.63500000000E+01"
       l_max="2"
       l_local="-1"
       mesh_size="  1636"
       number_of_wfc="4"
       number_of_proj="6"/>
 <PP_MESH>
   <PP_R type="real"  size="1636" columns="8">
    0.0000    0.0100    0.0200    0.0300    0.0400    0.0500    0.0600    0.0700
    0.0800    0.0900    0.1000    0.1100    0.1200    0.1300    0.1400    0.1500
    0.1600    0.1700    0.1800    0.1900    0.2000    0.2100    0.2200    0.2300
    0.2400    0.2500    0.2600    0.2700    0.2800    0.2900    0.3000    0.3100
    0.3200    0.3300    0.3400    0.3500    0.3600    0.3700    0.3800    0.3900
    0.4000    0.4100    0.4200    0.4300    0.4400    0.4500    0.4600    0.4700
    0.4800    0.4900    0.5000    0.5100    0.5200    0.5300    0.5400    0.5500
    0.5600    0.5700    0.5800    0.5900    0.6000    0.6100    0.6200    0.6300
    0.6400    0.6500    0.6600    0.6700    0.6800    0.6900    0.7000    0.7100
    0.7200    0.7300    0.7400    0.7500    0.7600    0.7700    0.7800    0.7900
    0.8000    0.8100    0.8200    0.8300    0.8400    0.8500    0.8600    0.8700
    0.8800    0.8900    0.9000    0.9100    0.9200    0.9300    0.9400    0.9500
    0.9600    0.9700    0.9800    0.9900    1.0000    1.0100    1.0200    1.0300
    1.0400    1.0500    1.0600    1.0700    1.0800    1.0900    1.1000    1.1100
    1.1200    1.1300    1.1400    1.1500    1.1600    1.1700    1.1800    1.1900
    1.2000    1.2100    1.2200    1.2300    1.2400    1.2500    1.2600    1.2700
    1.2800    1.2900    1.3000    1.3100    1.3200    1.3300    1.3400    1.3500
    1.3600    1.3700    1.3800    1.3900    1.4000    1.4100    1.4200    1.4300
    1.4400    1.4500    1.4600    1.4700    1.4800    1.4900    1.5000    1.5100
    1.5200    1.5300    1.5400    1.5500    1.5600    1.5700    1.5800    1.5900
    1.6000    1.6100    1.6200    1.6300    1.6400    1.6500    1.6600    1.6700
    1.6800    1.6900    1.7000    1.7100    1.7200    1.7300    1.7400    1.7500
    1.7600    1.7700    1.7800    1.7900    1.8000    1.8100    1.8200    1.8300
    1.8400    1.8500    1.8600    1.8700    1.8800    1.8900    1.9000    1.9100
    1.9200    1.9300    1.9400    1.9500    1.9600    1.9700    1.9800    1.9900
    2.0000    2.0100    2.0200    2.0300    2.0400    2.0500    2.0600    2.0700
    2.0800    2.0900    2.1000    2.1100    2.1200    2.1300    2.1400    2.1500
    2.1600    2.1700    2.1800    2.1900    2.2000    2.2100    2.2200    2.2300
    2.2400    2.2500    2.2600    2.2700    2.2800    2.2900    2.3000    2.3100
    2.3200    2.3300    2.3400    2.3500    2.3600    2.3700    2.3800    2.3900
    2.4000    2.4100    2.4200    2.4300    2.4400    2.4500    2.4600    2.4700
    2.4800    2.4900    2.5000    2.5100    2.5200    2.5300    2.5400    2.5500
    2.5600    2.5700    2.5800    2.5900    2.6000    2.6100    2.6200    2.6300
    2.6400    2.6500    2.6600    2.6700    2.6800    2.6900    2.7000    2.7100
    2.7200    2.7300    2.7400    2.7500    2.7600    2.7700    2.7800    2.7900
    2.8000    2.8100    2.8200    2.8300    2.8400    2.8500    2.8600    2.8700
    2.8800    2.8900    2.9000    2.9100    2.9200    2.9300    2.9400    2.9500
    2.9600    2.9700    2.9800    2.9900    3.0000    3.0100    3.0200    3.0300
    3.0400    3.0500    3.0600    3.0700    3.0800    3.0900    3.1000    3.1100
    3.1200    3.1300    3.1400    3.1500    3.1600    3.1700    3.1800    3.1900
    3.2000    3.2100    3.2200    3.2300    3.2400    3.2500    3.2600    3.2700
    3.2800    3.2900    3.3000    3.3100    3.3200    3.3300    3.3400    3.3500
    3.3600    3.3700    3.3800    3.3900    3.4000    3.4100    3.4200    3.4300
    3.4400    3.4500    3.4600    3.4700    3.4800    3.4900    3.5000    3.5100
    3.5200    3.5300    3.5400    3.5500    3.5600    3.5700    3.5800    3.5900
    3.6000    3.6100    3.6200    3.6300    3.6400    3.6500    3.6600    3.6700
    3.6800    3.6900    3.7000    3.7100    3.7200    3.7300    3.7400    3.7500
    3.7600    3.7700    3.7800    3.7900    3.8000    3.8100    3.8200    3.8300
    3.8400    3.8500    3.8600    3.8700    3.8800    3.8900    3.9000    3.9100
    3.9200    3.9300    3.9400    3.9500    3.9600    3.9700    3.9800    3.9900
    4.0000    4.0100    4.0200    4.0300    4.0400    4.0500    4.0600    4.0700
    4.0800    4.0900    4.1000    4.1100    4.1200    4.1300    4.1400    4.1500
    4.1600    4.1700    4.1800    4.1900    4.2000    4.2100    4.2200    4.2300
    4.2400    4.2500    4.2600    4.2700    4.2800    4.2900    4.3000    4.3100
    4.3200    4.3300    4.3400    4.3500    4.3600    4.3700    4.3800    4.3900
    4.4000    4.4100    4.4200    4.4300    4.4400    4.4500    4.4600    4.4700
    4.4800    4.4900    4.5000    4.5100    4.5200    4.5300    4.5400    4.5500
    4.5600    4.5700    4.5800    4.5900    4.6000    4.6100    4.6200    4.6300
    4.6400    4.6500    4.6600    4.6700    4.6800    4.6900    4.7000    4.7100
    4.7200    4.7300    4.7400    4.7500    4.7600    4.7700    4.7800    4.7900
    4.8000    4.8100    4.8200    4.8300    4.8400    4.8500    4.8600    4.8700
    4.8800    4.8900    4.9000    4.9100    4.9200    4.9300    4.9400    4.9500
    4.9600    4.9700    4.9800    4.9900    5.0000    5.0100    5.0200    5.0300
    5.0400    5.0500    5.0600    5.0700    5.0800    5.0900    5.1000    5.1100
    5.1200    5.1300    5.1400    5.1500    5.1600    5.1700    5.1800    5.1900
    5.2000    5.2100    5.2200    5.2300    5.2400    5.2500    5.2600    5.2700
    5.2800    5.2900    5.3000    5.3100    5.3200    5.3300    5.3400    5.3500
    5.3600    5.3700    5.3800    5.3900    5.4000    5.4100    5.4200    5.4300
    5.4400    5.4500    5.4600    5.4700    5.4800    5.4900    5.5000    5.5100
    5.5200    5.5300    5.5400    5.5500    5.5600    5.5700    5.5800    5.5900
    5.6000    5.6100    5.6200    5.6300    5.6400    5.6500    5.6600    5.6700
    5.6800    5.6900    5.7000    5.7100    5.7200    5.7300    5.7400    5.7500
    5.7600    5.7700    5.7800    5.7900    5.8000    5.8100    5.8200    5.8300
    5.8400    5.8500    5.8600    5.8700    5.8800    5.8900    5.9000    5.9100
    5.9200    5.9300    5.9400    5.9500    5.9600    5.9700    5.9800    5.9900
    6.0000    6.0100    6.0200    6.0300    6.0400    6.0500    6.0600    6.0700
    6.0800    6.0900    6.1000    6.1100    6.1200    6.1300    6.1400    6.1500
    6.1600    6.1700    6.1800    6.1900    6.2000    6.2100    6.2200    6.2300
    6.2400    6.2500    6.2600    6.2700    6.2800    6.2900    6.3000    6.3100
    6.3200    6.3300    6.3400    6.3500    6.3600    6.3700    6.3800    6.3900
    6.4000    6.4100    6.4200    6.4300    6.4400    6.4500    6.4600    6.4700
    6.4800    6.4900    6.5000    6.5100    6.5200    6.5300    6.5400    6.5500
    6.5600    6.5700    6.5800    6.5900    6.6000    6.6100    6.6200    6.6300
    6.6400    6.6500    6.6600    6.6700    6.6800    6.6900    6.7000    6.7100
    6.7200    6.7300    6.7400    6.7500    6.7600    6.7700    6.7800    6.7900
    6.8000    6.8100    6.8200    6.8300    6.8400    6.8500    6.8600    6.8700
    6.8800    6.8900    6.9000    6.9100    6.9200    6.9300    6.9400    6.9500
    6.9600    6.9700    6.9800    6.9900    7.0000    7.0100    7.0200    7.0300
    7.0400    7.0500    7.0600    7.0700    7.0800    7.0900    7.1000    7.1100
    7.1200    7.1300    7.1400    7.1500    7.1600    7.1700    7.1800    7.1900
    7.2000    7.2100    7.2200    7.2300    7.2400    7.2500    7.2600    7.2700
    7.2800    7.2900    7.3000    7.3100    7.3200    7.3300    7.3400    7.3500
    7.3600    7.3700    7.3800    7.3900    7.4000    7.4100    7.4200    7.4300
    7.4400    7.4500    7.4600    7.4700    7.4800    7.4900    7.5000    7.5100
    7.5200    7.5300    7.5400    7.5500    7.5600    7.5700    7.5800    7.5900
    7.6000    7.6100    7.6200    7.6300    7.6400    7.6500    7.6600    7.6700
    7.6800    7.6900    7.7000    7.7100    7.7200    7.7300    7.7400    7.7500
    7.7600    7.7700    7.7800    7.7900    7.8000    7.8100    7.8200    7.8300
    7.8400    7.8500    7.8600    7.8700    7.8800    7.8900    7.9000    7.9100
    7.9200    7.9300    7.9400    7.9500    7.9600    7.9700    7.9800    7.9900
    8.0000    8.0100    8.0200    8.0300    8.0400    8.0500    8.0600    8.0700
    8.0800    8.0900    8.1000    8.1100    8.1200    8.1300    8.1400    8.1500
    8.1600    8.1700    8.1800    8.1900    8.2000    8.2100    8.2200    8.2300
    8.2400    8.2500    8.2600    8.2700    8.2800    8.2900    8.3000    8.3100
    8.3200    8.3300    8.3400    8.3500    8.3600    8.3700    8.3800    8.3900
    8.4000    8.4100    8.4200    8.4300    8.4400    8.4500    8.4600    8.4700
    8.4800    8.4900    8.5000    8.5100    8.5200    8.5300    8.5400    8.5500
    8.5600    8.5700    8.5800    8.5900    8.6000    8.6100    8.6200    8.6300
    8.6400    8.6500    8.6600    8.6700    8.6800    8.6900    8.7000    8.7100
    8.7200    8.7300    8.7400    8.7500    8.7600    8.7700    8.7800    8.7900
    8.8000    8.8100    8.8200    8.8300    8.8400    8.8500    8.8600    8.8700
    8.8800    8.8900    8.9000    8.9100    8.9200    8.9300    8.9400    8.9500
    8.9600    8.9700    8.9800    8.9900    9.0000    9.0100    9.0200    9.0300
    9.0400    9.0500    9.0600    9.0700    9.0800    9.0900    9.1000    9.1100
    9.1200    9.1300    9.1400    9.1500    9.1600    9.1700    9.1800    9.1900
    9.2000    9.2100    9.2200    9.2300    9.2400    9.2500    9.2600    9.2700
    9.2800    9.2900    9.3000    9.3100    9.3200    9.3300    9.3400    9.3500
    9.3600    9.3700    9.3800    9.3900    9.4000    9.4100    9.4200    9.4300
    9.4400    9.4500    9.4600    9.4700    9.4800    9.4900    9.5000    9.5100
    9.5200    9.5300    9.5400    9.5500    9.5600    9.5700    9.5800    9.5900
    9.6000    9.6100    9.6200    9.6300    9.6400    9.6500    9.6600    9.6700
    9.6800    9.6900    9.7000    9.7100    9.7200    9.7300    9.7400    9.7500
    9.7600    9.7700    9.7800    9.7900    9.8000    9.8100    9.8200    9.8300
    9.8400    9.8500    9.8600    9.8700    9.8800    9.8900    9.9000    9.9100
    9.9200    9.9300    9.9400    9.9500    9.9600    9.9700    9.9800    9.9900
   10.0000   10.0100   10.0200   10.0300   10.0400   10.0500   10.0600   10.0700
   10.0800   10.0900   10.1000   10.1100   10.1200   10.1300   10.1400   10.1500
   10.1600   10.1700   10.1800   10.1900   10.2000   10.2100   10.2200   10.2300
   10.2400   10.2500   10.2600   10.2700   10.2800   10.2900   10.3000   10.3100
   10.3200   10.3300   10.3400   10.3500   10.3600   10.3700   10.3800   10.3900
   10.4000   10.4100   10.4200   10.4300   10.4400   10.4500   10.4600   10.4700
   10.4800   10.4900   10.5000   10.5100   10.5200   10.5300   10.5400   10.5500
   10.5600   10.5700   10.5800   10.5900   10.6000   10.6100   10.6200   10.6300
   10.6400   10.6500   10.6600   10.6700   10.6800   10.6900   10.7000   10.7100
   10.7200   10.7300   10.7400   10.7500   10.7600   10.7700   10.7800   10.7900
   10.8000   10.8100   10.8200   10.8300   10.8400   10.8500   10.8600   10.8700
   10.8800   10.8900   10.9000   10.9100   10.9200   10.9300   10.9400   10.9500
   10.9600   10.9700   10.9800   10.9900   11.0000   11.0100   11.0200   11.0300
   11.0400   11.0500   11.0600   11.0700   11.0800   11.0900   11.1000   11.1100
   11.1200   11.1300   11.1400   11.1500   11.1600   11.1700   11.1800   11.1900
   11.2000   11.2100   11.2200   11.2300   11.2400   11.2500   11.2600   11.2700
   11.2800   11.2900   11.3000   11.3100   11.3200   11.3300   11.3400   11.3500
   11.3600   11.3700   11.3800   11.3900   11.4000   11.4100   11.4200   11.4300
   11.4400   11.4500   11.4600   11.4700   11.4800   11.4900   11.5000   11.5100
   11.5200   11.5300   11.5400   11.5500   11.5600   11.5700   11.5800   11.5900
   11.6000   11.6100   11.6200   11.6300   11.6400   11.6500   11.6600   11.6700
   11.6800   11.6900   11.7000   11.7100   11.7200   11.7300   11.7400   11.7500
   11.7600   11.7700   11.7800   11.7900   11.8000   11.8100   11.8200   11.8300
   11.8400   11.8500   11.8600   11.8700   11.8800   11.8900   11.9000   11.9100
   11.9200   11.9300   11.9400   11.9500   11.9600   11.9700   11.9800   11.9900
   12.0000   12.0100   12.0200   12.0300   12.0400   12.0500   12.0600   12.0700
   12.0800   12.0900   12.1000   12.1100   12.1200   12.1300   12.1400   12.1500
   12.1600   12.1700   12.1800   12.1900   12.2000   12.2100   12.2200   12.2300
   12.2400   12.2500   12.2600   12.2700   12.2800   12.2900   12.3000   12.3100
   12.3200   12.3300   12.3400   12.3500   12.3600   12.3700   12.3800   12.3900
   12.4000   12.4100   12.4200   12.4300   12.4400   12.4500   12.4600   12.4700
   12.4800   12.4900   12.5000   12.5100   12.5200   12.5300   12.5400   12.5500
   12.5600   12.5700   12.5800   12.5900   12.6000   12.6100   12.6200   12.6300
   12.6400   12.6500   12.6600   12.6700   12.6800   12.6900   12.7000   12.7100
   12.7200   12.7300   12.7400   12.7500   12.7600   12.7700   12.7800   12.7900
   12.8000   12.8100   12.8200   12.8300   12.8400   12.8500   12.8600   12.8700
   12.8800   12.8900   12.9000   12.9100   12.9200   12.9300   12.9400   12.9500
   12.9600   12.9700   12.9800   12.9900   13.0000   13.0100   13.0200   13.0300
   13.0400   13.0500   13.0600   13.0700   13.0800   13.0900   13.1000   13.1100
   13.1200   13.1300   13.1400   13.1500   13.1600   13.1700   13.1800   13.1900
   13.2000   13.2100   13.2200   13.2300   13.2400   13.2500   13.2600   13.2700
   13.2800   13.2900   13.3000   13.3100   13.3200   13.3300   13.3400   13.3500
   13.3600   13.3700   13.3800   13.3900   13.4000   13.4100   13.4200   13.4300
   13.4400   13.4500   13.4600   13.4700   13.4800   13.4900   13.5000   13.5100
   13.5200   13.5300   13.5400   13.5500   13.5600   13.5700   13.5800   13.5900
   13.6000   13.6100   13.6200   13.6300   13.6400   13.6500   13.6600   13.6700
   13.6800   13.6900   13.7000   13.7100   13.7200   13.7300   13.7400   13.7500
   13.7600   13.7700   13.7800   13.7900   13.8000   13.8100   13.8200   13.8300
   13.8400   13.8500   13.8600   13.8700   13.8800   13.8900   13.9000   13.9100
   13.9200   13.9300   13.9400   13.9500   13.9600   13.9700   13.9800   13.9900
   14.0000   14.0100   14.0200   14.0300   14.0400   14.0500   14.0600   14.0700
   14.0800   14.0900   14.1000   14.1100   14.1200   14.1300   14.1400   14.1500
   14.1600   14.1700   14.1800   14.1900   14.2000   14.2100   14.2200   14.2300
   14.2400   14.2500   14.2600   14.2700   14.2800   14.2900   14.3000   14.3100
   14.3200   14.3300   14.3400   14.3500   14.3600   14.3700   14.3800   14.3900
   14.4000   14.4100   14.4200   14.4300   14.4400   14.4500   14.4600   14.4700
   14.4800   14.4900   14.5000   14.5100   14.5200   14.5300   14.5400   14.5500
   14.5600   14.5700   14.5800   14.5900   14.6000   14.6100   14.6200   14.6300
   14.6400   14.6500   14.6600   14.6700   14.6800   14.6900   14.7000   14.7100
   14.7200   14.7300   14.7400   14.7500   14.7600   14.7700   14.7800   14.7900
   14.8000   14.8100   14.8200   14.8300   14.8400   14.8500   14.8600   14.8700
   14.8800   14.8900   14.9000   14.9100   14.9200   14.9300   14.9400   14.9500
   14.9600   14.9700   14.9800   14.9900   15.0000   15.0100   15.0200   15.0300
   15.0400   15.0500   15.0600   15.0700   15.0800   15.0900   15.1000   15.1100
   15.1200   15.1300   15.1400   15.1500   15.1600   15.1700   15.1800   15.1900
   15.2000   15.2100   15.2200   15.2300   15.2400   15.2500   15.2600   15.2700
   15.2800   15.2900   15.3000   15.3100   15.3200   15.3300   15.3400   15.3500
   15.3600   15.3700   15.3800   15.3900   15.4000   15.4100   15.4200   15.4300
   15.4400   15.4500   15.4600   15.4700   15.4800   15.4900   15.5000   15.5100
   15.5200   15.5300   15.5400   15.5500   15.5600   15.5700   15.5800   15.5900
   15.6000   15.6100   15.6200   15.6300   15.6400   15.6500   15.6600   15.6700
   15.6800   15.6900   15.7000   15.7100   15.7200   15.7300   15.7400   15.7500
   15.7600   15.7700   15.7800   15.7900   15.8000   15.8100   15.8200   15.8300
   15.8400   15.8500   15.8600   15.8700   15.8800   15.8900   15.9000   15.9100
   15.9200   15.9300   15.9400   15.9500   15.9600   15.9700   15.9800   15.9900
   16.0000   16.0100   16.0200   16.0300   16.0400   16.0500   16.0600   16.0700
   16.0800   16.0900   16.1000   16.1100   16.1200   16.1300   16.1400   16.1500
   16.1600   16.1700   16.1800   16.1900   16.2000   16.2100   16.2200   16.2300
   16.2400   16.2500   16.2600   16.2700   16.2800   16.2900   16.3000   16.3100
   16.3200   16.3300   16.3400   16.3500
   </PP_R>
   <PP_RAB type="real"  size="1636" columns="8">
    0.0100    0.0100    0.0100    0.0100    0.0100    0.0100    0.0100    0.0100
    0.0100    0.0100    0.0100    0.0100    0.0100    0.0100    0.0100    0.0100
    0.0100    0.0100    0.0100    0.0100    0.0100    0.0100    0.0100    0.0100
    0.0100    0.0100    0.0100    0.0100    0.0100    0.0100    0.0100    0.0100
    0.0100    0.0100    0.0100    0.0100    0.0100    0.0100    0.0100    0.0100
    0.0100    0.0100    0.0100    0.0100    0.0100    0.0100    0.0100    0.0100
    0.0100    0.0100    0.0100    0.0100    0.0100    0.0100    0.0100    0.0100
    0.0100    0.0100    0.0100    0.0100    0.0100    0.0100    0.0100    0.0100
    0.0100    0.0100    0.0100    0.0100    0.0100    0.0100    0.0100    0.0100
    0.0100    0.0100    0.0100    0.0100    0.0100    0.0100    0.0100    0.0100
    0.0100    0.0100    0.0100    0.0100    0.0100    0.0100    0.0100    0.0100
    0.0100    0.0100    0.0100    0.0100    0.0100    0.0100    0.0100    0.0100
    0.0100    0.0100    0.0100    0.0100    0.0100    0.0100    0.0100    0.0100
    0.0100    0.0100    0.0100    0.0100    0.0100    0.0100    0.0100    0.0100
    0.0100    0.0100    0.0100    0.0100    0.0100    0.0100    0.0100    0.0100
    0.0100    0.0100    0.0100    0.0100    0.0100    0.0100    0.0100    0.0100
    0.0100    0.0100    0.0100    0.0100    0.0100    0.0100    0.0100    0.0100
    0.0100    0.0100    0.0100    0.0100    0.0100    0.0100    0.0100    0.0100
    0.0100    0.0100    0.0100    0.0100    0.0100    0.0100    0.0100    0.0100
    0.0100    0.0100    0.0100    0.0100    0.0100    0.0100    0.0100    0.0100
    0.0100    0.0100    0.0100    0.0100    0.0100    0.0100    0.0100    0.0100
    0.0100    0.0100    0.0100    0.0100    0.0100    0.0100    0.0100    0.0100
    0.0100    0.0100    0.0100    0.0100    0.0100    0.0100    0.0100    0.0100
    0.0100    0.0100    0.0100    0.0100    0.0100    0.0100    0.0100    0.0100
    0.0100    0.0100    0.0100    0.0100    0.0100    0.0100    0.0100    0.0100
    0.0100    0.0100    0.0100    0.0100    0.0100    0.0100    0.0100    0.0100
    0.0100    0.0100    0.0100    0.0100    0.0100    0.0100    0.0100    0.0100
    0.0100    0.0100    0.0100    0.0100    0.0100    0.0100    0.0100    0.0100
    0.0100    0.0100    0.0100    0.0100    0.0100    0.0100    0.0100    0.0100
    0.0100    0.0100    0.0100    0.0100    0.0100    0.0100    0.0100    0.0100
    0.0100    0.0100    0.0100    0.0100    0.0100    0.0100    0.0100    0.0100
    0.0100    0.0100    0.0100    0.0100    0.0100    0.0100    0.0100    0.0100
    0.0100    0.0100    0.0100    0.0100    0.0100    0.0100    0.0100    0.0100
    0.0100    0.0100    0.0100    0.0100    0.0100    0.0100    0.0100    0.0100
    0.0100    0.0100    0.0100    0.0100    0.0100    0.0100    0.0100    0.0100
    0.0100    0.0100    0.0100    0.0100    0.0100    0.0100    0.0100    0.0100
    0.0100    0.0100    0.0100    0.0100    0.0100    0.0100    0.0100    0.0100
    0.0100    0.0100    0.0100    0.0100    0.0100    0.0100    0.0100    0.0100
    0.0100    0.0100    0.0100    0.0100    0.0100    0.0100    0.0100    0.0100
    0.0100    0.0100    0.0100    0.0100    0.0100    0.0100    0.0100    0.0100
    0.0100    0.0100    0.0100    0.0100    0.0100    0.0100    0.0100    0.0100
    0.0100    0.0100    0.0100    0.0100    0.0100    0.0100    0.0100    0.0100
    0.0100    0.0100    0.0100    0.0100    0.0100    0.0100    0.0100    0.0100
    0.0100    0.0100    0.0100    0.0100    0.0100    0.0100    0.0100    0.0100
    0.0100    0.0100    0.0100    0.0100    0.0100    0.0100    0.0100    0.0100
    0.0100    0.0100    0.0100    0.0100    0.0100    0.0100    0.0100    0.0100
    0.0100    0.0100    0.0100    0.0100    0.0100    0.0100    0.0100    0.0100
    0.0100    0.0100    0.0100    0.0100    0.0100    0.0100    0.0100    0.0100
    0.0100    0.0100    0.0100    0.0100    0.0100    0.0100    0.0100    0.0100
    0.0100    0.0100    0.0100    0.0100    0.0100    0.0100    0.0100    0.0100
    0.0100    0.0100    0.0100    0.0100    0.0100    0.0100    0.0100    0.0100
    0.0100    0.0100    0.0100    0.0100    0.0100    0.0100    0.0100    0.0100
    0.0100    0.0100    0.0100    0.0100    0.0100    0.0100    0.0100    0.0100
    0.0100    0.0100    0.0100    0.0100    0.0100    0.0100    0.0100    0.0100
    0.0100    0.0100    0.0100    0.0100    0.0100    0.0100    0.0100    0.0100
    0.0100    0.0100    0.0100    0.0100    0.0100    0.0100    0.0100    0.0100
    0.0100    0.0100    0.0100    0.0100    0.0100    0.0100    0.0100    0.0100
    0.0100    0.0100    0.0100    0.0100    0.0100    0.0100    0.0100    0.0100
    0.0100    0.0100    0.0100    0.0100    0.0100    0.0100    0.0100    0.0100
    0.0100    0.0100    0.0100    0.0100    0.0100    0.0100    0.0100    0.0100
    0.0100    0.0100    0.0100    0.0100    0.0100    0.0100    0.0100    0.0100
    0.0100    0.0100    0.0100    0.0100    0.0100    0.0100    0.0100    0.0100
    0.0100    0.0100    0.0100    0.0100    0.0100    0.0100    0.0100    0.0100
    0.0100    0.0100    0.0100    0.0100    0.0100    0.0100    0.0100    0.0100
    0.0100    0.0100    0.0100    0.0100    0.0100    0.0100    0.0100    0.0100
    0.0100    0.0100    0.0100    0.0100    0.0100    0.0100    0.0100    0.0100
    0.0100    0.0100    0.0100    0.0100    0.0100    0.0100    0.0100    0.0100
    0.0100    0.0100    0.0100    0.0100    0.0100    0.0100    0.0100    0.0100
    0.0100    0.0100    0.0100    0.0100    0.0100    0.0100    0.0100    0.0100
    0.0100    0.0100    0.0100    0.0100    0.0100    0.0100    0.0100    0.0100
    0.0100    0.0100    0.0100    0.0100    0.0100    0.0100    0.0100    0.0100
    0.0100    0.0100    0.0100    0.0100    0.0100    0.0100    0.0100    0.0100
    0.0100    0.0100    0.0100    0.0100    0.0100    0.0100    0.0100    0.0100
    0.0100    0.0100    0.0100    0.0100    0.0100    0.0100    0.0100    0.0100
    0.0100    0.0100    0.0100    0.0100    0.0100    0.0100    0.0100    0.0100
    0.0100    0.0100    0.0100    0.0100    0.0100    0.0100    0.0100    0.0100
    0.0100    0.0100    0.0100    0.0100    0.0100    0.0100    0.0100    0.0100
    0.0100    0.0100    0.0100    0.0100    0.0100    0.0100    0.0100    0.0100
    0.0100    0.0100    0.0100    0.0100    0.0100    0.0100    0.0100    0.0100
    0.0100    0.0100    0.0100    0.0100    0.0100    0.0100    0.0100    0.0100
    0.0100    0.0100    0.0100    0.0100    0.0100    0.0100    0.0100    0.0100
    0.0100    0.0100    0.0100    0.0100    0.0100    0.0100    0.0100    0.0100
    0.0100    0.0100    0.0100    0.0100    0.0100    0.0100    0.0100    0.0100
    0.0100    0.0100    0.0100    0.0100    0.0100    0.0100    0.0100    0.0100
    0.0100    0.0100    0.0100    0.0100    0.0100    0.0100    0.0100    0.0100
    0.0100    0.0100    0.0100    0.0100    0.0100    0.0100    0.0100    0.0100
    0.0100    0.0100    0.0100    0.0100    0.0100    0.0100    0.0100    0.0100
    0.0100    0.0100    0.0100    0.0100    0.0100    0.0100    0.0100    0.0100
    0.0100    0.0100    0.0100    0.0100    0.0100    0.0100    0.0100    0.0100
    0.0100    0.0100    0.0100    0.0100    0.0100    0.0100    0.0100    0.0100
    0.0100    0.0100    0.0100    0.0100    0.0100    0.0100    0.0100    0.0100
    0.0100    0.0100    0.0100    0.0100    0.0100    0.0100    0.0100    0.0100
    0.0100    0.0100    0.0100    0.0100    0.0100    0.0100    0.0100    0.0100
    0.0100    0.0100    0.0100    0.0100    0.0100    0.0100    0.0100    0.0100
    0.0100    0.0100    0.0100    0.0100    0.0100    0.0100    0.0100    0.0100
    0.0100    0.0100    0.0100    0.0100    0.0100    0.0100    0.0100    0.0100
    0.0100    0.0100    0.0100    0.0100    0.0100    0.0100    0.0100    0.0100
    0.0100    0.0100    0.0100    0.0100    0.0100    0.0100    0.0100    0.0100
    0.0100    0.0100    0.0100    0.0100    0.0100    0.0100    0.0100    0.0100
    0.0100    0.0100    0.0100    0.0100    0.0100    0.0100    0.0100    0.0100
    0.0100    0.0100    0.0100    0.0100    0.0100    0.0100    0.0100    0.0100
    0.0100    0.0100    0.0100    0.0100    0.0100    0.0100    0.0100    0.0100
    0.0100    0.0100    0.0100    0.0100    0.0100    0.0100    0.0100    0.0100
    0.0100    0.0100    0.0100    0.0100    0.0100    0.0100    0.0100    0.0100
    0.0100    0.0100    0.0100    0.0100    0.0100    0.0100    0.0100    0.0100
    0.0100    0.0100    0.0100    0.0100    0.0100    0.0100    0.0100    0.0100
    0.0100    0.0100    0.0100    0.0100    0.0100    0.0100    0.0100    0.0100
    0.0100    0.0100    0.0100    0.0100    0.0100    0.0100    0.0100    0.0100
    0.0100    0.0100    0.0100    0.0100    0.0100    0.0100    0.0100    0.0100
    0.0100    0.0100    0.0100    0.0100    0.0100    0.0100    0.0100    0.0100
    0.0100    0.0100    0.0100    0.0100    0.0100    0.0100    0.0100    0.0100
    0.0100    0.0100    0.0100    0.0100    0.0100    0.0100    0.0100    0.0100
    0.0100    0.0100    0.0100    0.0100    0.0100    0.0100    0.0100    0.0100
    0.0100    0.0100    0.0100    0.0100    0.0100    0.0100    0.0100    0.0100
    0.0100    0.0100    0.0100    0.0100    0.0100    0.0100    0.0100    0.0100
    0.0100    0.0100    0.0100    0.0100    0.0100    0.0100    0.0100    0.0100
    0.0100    0.0100    0.0100    0.0100    0.0100    0.0100    0.0100    0.0100
    0.0100    0.0100    0.0100    0.0100    0.0100    0.0100    0.0100    0.0100
    0.0100    0.0100    0.0100    0.0100    0.0100    0.0100    0.0100    0.0100
    0.0100    0.0100    0.0100    0.0100    0.0100    0.0100    0.0100    0.0100
    0.0100    0.0100    0.0100    0.0100    0.0100    0.0100    0.0100    0.0100
    0.0100    0.0100    0.0100    0.0100    0.0100    0.0100    0.0100    0.0100
    0.0100    0.0100    0.0100    0.0100    0.0100    0.0100    0.0100    0.0100
    0.0100    0.0100    0.0100    0.0100    0.0100    0.0100    0.0100    0.0100
    0.0100    0.0100    0.0100    0.0100    0.0100    0.0100    0.0100    0.0100
    0.0100    0.0100    0.0100    0.0100    0.0100    0.0100    0.0100    0.0100
    0.0100    0.0100    0.0100    0.0100    0.0100    0.0100    0.0100    0.0100
    0.0100    0.0100    0.0100    0.0100    0.0100    0.0100    0.0100    0.0100
    0.0100    0.0100    0.0100    0.0100    0.0100    0.0100    0.0100    0.0100
    0.0100    0.0100    0.0100    0.0100    0.0100    0.0100    0.0100    0.0100
    0.0100    0.0100    0.0100    0.0100    0.0100    0.0100    0.0100    0.0100
    0.0100    0.0100    0.0100    0.0100    0.0100    0.0100    0.0100    0.0100
    0.0100    0.0100    0.0100    0.0100    0.0100    0.0100    0.0100    0.0100
    0.0100    0.0100    0.0100    0.0100    0.0100    0.0100    0.0100    0.0100
    0.0100    0.0100    0.0100    0.0100    0.0100    0.0100    0.0100    0.0100
    0.0100    0.0100    0.0100    0.0100    0.0100    0.0100    0.0100    0.0100
    0.0100    0.0100    0.0100    0.0100    0.0100    0.0100    0.0100    0.0100
    0.0100    0.0100    0.0100    0.0100    0.0100    0.0100    0.0100    0.0100
    0.0100    0.0100    0.0100    0.0100    0.0100    0.0100    0.0100    0.0100
    0.0100    0.0100    0.0100    0.0100    0.0100    0.0100    0.0100    0.0100
    0.0100    0.0100    0.0100    0.0100    0.0100    0.0100    0.0100    0.0100
    0.0100    0.0100    0.0100    0.0100    0.0100    0.0100    0.0100    0.0100
    0.0100    0.0100    0.0100    0.0100    0.0100    0.0100    0.0100    0.0100
    0.0100    0.0100    0.0100    0.0100    0.0100    0.0100    0.0100    0.0100
    0.0100    0.0100    0.0100    0.0100    0.0100    0.0100    0.0100    0.0100
    0.0100    0.0100    0.0100    0.0100    0.0100    0.0100    0.0100    0.0100
    0.0100    0.0100    0.0100    0.0100    0.0100    0.0100    0.0100    0.0100
    0.0100    0.0100    0.0100    0.0100    0.0100    0.0100    0.0100    0.0100
    0.0100    0.0100    0.0100    0.0100    0.0100    0.0100    0.0100    0.0100
    0.0100    0.0100    0.0100    0.0100    0.0100    0.0100    0.0100    0.0100
    0.0100    0.0100    0.0100    0.0100    0.0100    0.0100    0.0100    0.0100
    0.0100    0.0100    0.0100    0.0100    0.0100    0.0100    0.0100    0.0100
    0.0100    0.0100    0.0100    0.0100    0.0100    0.0100    0.0100    0.0100
    0.0100    0.0100    0.0100    0.0100    0.0100    0.0100    0.0100    0.0100
    0.0100    0.0100    0.0100    0.0100    0.0100    0.0100    0.0100    0.0100
    0.0100    0.0100    0.0100    0.0100    0.0100    0.0100    0.0100    0.0100
    0.0100    0.0100    0.0100    0.0100    0.0100    0.0100    0.0100    0.0100
    0.0100    0.0100    0.0100    0.0100    0.0100    0.0100    0.0100    0.0100
    0.0100    0.0100    0.0100    0.0100    0.0100    0.0100    0.0100    0.0100
    0.0100    0.0100    0.0100    0.0100    0.0100    0.0100    0.0100    0.0100
    0.0100    0.0100    0.0100    0.0100    0.0100    0.0100    0.0100    0.0100
    0.0100    0.0100    0.0100    0.0100    0.0100    0.0100    0.0100    0.0100
    0.0100    0.0100    0.0100    0.0100    0.0100    0.0100    0.0100    0.0100
    0.0100    0.0100    0.0100    0.0100    0.0100    0.0100    0.0100    0.0100
    0.0100    0.0100    0.0100    0.0100    0.0100    0.0100    0.0100    0.0100
    0.0100    0.0100    0.0100    0.0100    0.0100    0.0100    0.0100    0.0100
    0.0100    0.0100    0.0100    0.0100    0.0100    0.0100    0.0100    0.0100
    0.0100    0.0100    0.0100    0.0100    0.0100    0.0100    0.0100    0.0100
    0.0100    0.0100    0.0100    0.0100    0.0100    0.0100    0.0100    0.0100
    0.0100    0.0100    0.0100    0.0100    0.0100    0.0100    0.0100    0.0100
    0.0100    0.0100    0.0100    0.0100    0.0100    0.0100    0.0100    0.0100
    0.0100    0.0100    0.0100    0.0100    0.0100    0.0100    0.0100    0.0100
    0.0100    0.0100    0.0100    0.0100    0.0100    0.0100    0.0100    0.0100
    0.0100    0.0100    0.0100    0.0100    0.0100    0.0100    0.0100    0.0100
    0.0100    0.0100    0.0100    0.0100    0.0100    0.0100    0.0100    0.0100
    0.0100    0.0100    0.0100    0.0100    0.0100    0.0100    0.0100    0.0100
    0.0100    0.0100    0.0100    0.0100    0.0100    0.0100    0.0100    0.0100
    0.0100    0.0100    0.0100    0.0100    0.0100    0.0100    0.0100    0.0100
    0.0100    0.0100    0.0100    0.0100    0.0100    0.0100    0.0100    0.0100
    0.0100    0.0100    0.0100    0.0100    0.0100    0.0100    0.0100    0.0100
    0.0100    0.0100    0.0100    0.0100    0.0100    0.0100    0.0100    0.0100
    0.0100    0.0100    0.0100    0.0100    0.0100    0.0100    0.0100    0.0100
    0.0100    0.0100    0.0100    0.0100    0.0100    0.0100    0.0100    0.0100
    0.0100    0.0100    0.0100    0.0100    0.0100    0.0100    0.0100    0.0100
    0.0100    0.0100    0.0100    0.0100    0.0100    0.0100    0.0100    0.0100
    0.0100    0.0100    0.0100    0.0100    0.0100    0.0100    0.0100    0.0100
    0.0100    0.0100    0.0100    0.0100    0.0100    0.0100    0.0100    0.0100
    0.0100    0.0100    0.0100    0.0100    0.0100    0.0100    0.0100    0.0100
    0.0100    0.0100    0.0100    0.0100    0.0100    0.0100    0.0100    0.0100
    0.0100    0.0100    0.0100    0.0100    0.0100    0.0100    0.0100    0.0100
    0.0100    0.0100    0.0100    0.0100    0.0100    0.0100    0.0100    0.0100
    0.0100    0.0100    0.0100    0.0100    0.0100    0.0100    0.0100    0.0100
    0.0100    0.0100    0.0100    0.0100    0.0100    0.0100    0.0100    0.0100
    0.0100    0.0100    0.0100    0.0100    0.0100    0.0100    0.0100    0.0100
    0.0100    0.0100    0.0100    0.0100    0.0100    0.0100    0.0100    0.0100
    0.0100    0.0100    0.0100    0.0100    0.0100    0.0100    0.0100    0.0100
    0.0100    0.0100    0.0100    0.0100    0.0100    0.0100    0.0100    0.0100
    0.0100    0.0100    0.0100    0.0100    0.0100    0.0100    0.0100    0.0100
    0.0100    0.0100    0.0100    0.0100    0.0100    0.0100    0.0100    0.0100
    0.0100    0.0100    0.0100    0.0100    0.0100    0.0100    0.0100    0.0100
    0.0100    0.0100    0.0100    0.0100    0.0100    0.0100    0.0100    0.0100
    0.0100    0.0100    0.0100    0.0100    0.0100    0.0100    0.0100    0.0100
    0.0100    0.0100    0.0100    0.0100    0.0100    0.0100    0.0100    0.0100
    0.0100    0.0100    0.0100    0.0100    0.0100    0.0100    0.0100    0.0100
    0.0100    0.0100    0.0100    0.0100
   </PP_RAB>
 </PP_MESH>
  <PP_LOCAL type="real"  size="1636" columns="4">
   -5.2146004549E+01   -5.2176205730E+01   -5.2167084937E+01   -5.2151839419E+01
   -5.2130488203E+01   -5.2103037205E+01   -5.2069490418E+01   -5.2029851288E+01
   -5.1984122848E+01   -5.1932307554E+01   -5.1874407039E+01   -5.1810421848E+01
   -5.1740351177E+01   -5.1664192647E+01   -5.1581942111E+01   -5.1493593517E+01
   -5.1399138835E+01   -5.1298568042E+01   -5.1191869182E+01   -5.1079028495E+01
   -5.0960030618E+01   -5.0834858859E+01   -5.0703495532E+01   -5.0565922362E+01
   -5.0422120946E+01   -5.0272073261E+01   -5.0115762224E+01   -4.9953172285E+01
   -4.9784290048E+01   -4.9609104913E+01   -4.9427609731E+01   -4.9239801461E+01
   -4.9045681811E+01   -4.8845257880E+01   -4.8638542760E+01   -4.8425556116E+01
   -4.8206324720E+01   -4.7980882948E+01   -4.7749273222E+01   -4.7511546396E+01
   -4.7267762093E+01   -4.7017988975E+01   -4.6762304962E+01   -4.6500797391E+01
   -4.6233563114E+01   -4.5960708551E+01   -4.5682349683E+01   -4.5398611999E+01
   -4.5109630400E+01   -4.4815549054E+01   -4.4516521218E+01   -4.4212709012E+01
   -4.3904283165E+01   -4.3591422723E+01   -4.3274314721E+01   -4.2953153828E+01
   -4.2628141954E+01   -4.2299487832E+01   -4.1967406569E+01   -4.1632119171E+01
   -4.1293852037E+01   -4.0952836440E+01   -4.0609307976E+01   -4.0263506002E+01
   -3.9915673058E+01   -3.9566054281E+01   -3.9214896806E+01   -3.8862449168E+01
   -3.8508960705E+01   -3.8154680963E+01   -3.7799859106E+01   -3.7444743344E+01
   -3.7089580365E+01   -3.6734614783E+01   -3.6380088611E+01   -3.6026240737E+01
   -3.5673306431E+01   -3.5321516861E+01   -3.4971098634E+01   -3.4622273349E+01
   -3.4275257172E+01   -3.3930260428E+01   -3.3587487200E+01   -3.3247134957E+01
   -3.2909394182E+01   -3.2574448021E+01   -3.2242471945E+01   -3.1913633414E+01
   -3.1588091562E+01   -3.1265996884E+01   -3.0947490935E+01   -3.0632706041E+01
   -3.0321765007E+01   -3.0014780846E+01   -2.9711856508E+01   -2.9413084617E+01
   -2.9118547212E+01   -2.8828315506E+01   -2.8542449637E+01   -2.8260998435E+01
   -2.7983999197E+01   -2.7711477457E+01   -2.7443446778E+01   -2.7179908535E+01
   -2.6920851726E+01   -2.6666252658E+01   -2.6416074581E+01   -2.6170268269E+01
   -2.5928771613E+01   -2.5691508764E+01   -2.5458391002E+01   -2.5229347695E+01
   -2.5004322491E+01   -2.4783218278E+01   -2.4565936851E+01   -2.4352384699E+01
   -2.4142470319E+01   -2.3936104932E+01   -2.3733202286E+01   -2.3533678612E+01
   -2.3337452583E+01   -2.3144445279E+01   -2.2954580161E+01   -2.2767783041E+01
   -2.2583982069E+01   -2.2403107698E+01   -2.2225092672E+01   -2.2049871987E+01
   -2.1877382863E+01   -2.1707564700E+01   -2.1540359033E+01   -2.1375709469E+01
   -2.1213561626E+01   -2.1053863052E+01   -2.0896563146E+01   -2.0741613074E+01
   -2.0588965618E+01   -2.0438575057E+01   -2.0290397109E+01   -2.0144388659E+01
   -2.0000509668E+01   -1.9858710245E+01   -1.9718915826E+01   -1.9581062641E+01
   -1.9445109999E+01   -1.9311019647E+01   -1.9178753682E+01   -1.9048275639E+01
   -1.8919550240E+01   -1.8792543334E+01   -1.8667221822E+01   -1.8543553589E+01
   -1.8421507434E+01   -1.8301053001E+01   -1.8182160722E+01   -1.8064801758E+01
   -1.7948947945E+01   -1.7834571747E+01   -1.7721646214E+01   -1.7610144946E+01
   -1.7500042058E+01   -1.7391312152E+01   -1.7283930302E+01   -1.7177872027E+01
   -1.7073113286E+01   -1.6969630466E+01   -1.6867400373E+01   -1.6766400237E+01
   -1.6666607706E+01   -1.6568000850E+01   -1.6470558168E+01   -1.6374258589E+01
   -1.6279081480E+01   -1.6185006650E+01   -1.6092014359E+01   -1.6000085320E+01
   -1.5909200706E+01   -1.5819342150E+01   -1.5730491748E+01   -1.5642632059E+01
   -1.5555746102E+01   -1.5469817352E+01   -1.5384829736E+01   -1.5300767620E+01
   -1.5217615803E+01   -1.5135359505E+01   -1.5053984349E+01   -1.4973476350E+01
   -1.4893821896E+01   -1.4815007728E+01   -1.4737020928E+01   -1.4659848890E+01
   -1.4583479309E+01   -1.4507900157E+01   -1.4433099664E+01   -1.4359066299E+01
   -1.4285788755E+01   -1.4213255930E+01   -1.4141456913E+01   -1.4070380970E+01
   -1.4000017533E+01   -1.3930356189E+01   -1.3861386673E+01   -1.3793098862E+01
   -1.3725482769E+01   -1.3658528543E+01   -1.3592226465E+01   -1.3526566951E+01
   -1.3461540555E+01   -1.3397137969E+01   -1.3333350027E+01   -1.3270167712E+01
   -1.3207582159E+01   -1.3145584661E+01   -1.3084166672E+01   -1.3023319813E+01
   -1.2963035875E+01   -1.2903306823E+01   -1.2844124794E+01   -1.2785482110E+01
   -1.2727371294E+01   -1.2669784804E+01   -1.2612715899E+01   -1.2556158228E+01
   -1.2500103973E+01   -1.2444539116E+01   -1.2389455639E+01   -1.2334855966E+01
   -1.2280746579E+01   -1.2227118846E+01   -1.2173959012E+01   -1.2121257207E+01
   -1.2069009581E+01   -1.2017210802E+01   -1.1965854653E+01   -1.1914935592E+01
   -1.1864448056E+01   -1.1814386583E+01   -1.1764745801E+01   -1.1715520431E+01
   -1.1666705278E+01   -1.1618295238E+01   -1.1570285286E+01   -1.1522670486E+01
   -1.1475445976E+01   -1.1428606980E+01   -1.1382148794E+01   -1.1336066794E+01
   -1.1290356429E+01   -1.1245013222E+01   -1.1200032766E+01   -1.1155410726E+01
   -1.1111142834E+01   -1.1067224892E+01   -1.1023652766E+01   -1.0980422387E+01
   -1.0937529751E+01   -1.0894970915E+01   -1.0852741997E+01   -1.0810839176E+01
   -1.0769258689E+01   -1.0727996832E+01   -1.0687049955E+01   -1.0646414466E+01
   -1.0606086826E+01   -1.0566063550E+01   -1.0526341205E+01   -1.0486916409E+01
   -1.0447785833E+01   -1.0408946195E+01   -1.0370394261E+01   -1.0332126848E+01
   -1.0294140816E+01   -1.0256433074E+01   -1.0219000574E+01   -1.0181840315E+01
   -1.0144949336E+01   -1.0108324721E+01   -1.0071963597E+01   -1.0035863128E+01
   -1.0000020524E+01   -9.9644330297E+00   -9.9290979323E+00   -9.8940125559E+00
   -9.8591742625E+00   -9.8245804513E+00   -9.7902285576E+00   -9.7561160527E+00
   -9.7222404429E+00   -9.6885992690E+00   -9.6551901057E+00   -9.6220105612E+00
   -9.5890582763E+00   -9.5563309241E+00   -9.5238262093E+00   -9.4915418678E+00
   -9.4594756660E+00   -9.4276254003E+00   -9.3959888971E+00   -9.3645640113E+00
   -9.3333486269E+00   -9.3023406557E+00   -9.2715380372E+00   -9.2409387384E+00
   -9.2105407526E+00   -9.1803420997E+00   -9.1503408255E+00   -9.1205350011E+00
   -9.0909227228E+00   -9.0615021114E+00   -9.0322713121E+00   -9.0032284939E+00
   -8.9743718491E+00   -8.9456995935E+00   -8.9172099653E+00   -8.8889012251E+00
   -8.8607716556E+00   -8.8328195612E+00   -8.8050432676E+00   -8.7774411214E+00
   -8.7500114901E+00   -8.7227527611E+00   -8.6956633424E+00   -8.6687416613E+00
   -8.6419861647E+00   -8.6153953186E+00   -8.5889676077E+00   -8.5627015354E+00
   -8.5365956232E+00   -8.5106484108E+00   -8.4848584553E+00   -8.4592243315E+00
   -8.4337446312E+00   -8.4084179631E+00   -8.3832429529E+00   -8.3582182422E+00
   -8.3333424892E+00   -8.3086143677E+00   -8.2840325675E+00   -8.2595957936E+00
   -8.2353027664E+00   -8.2111522212E+00   -8.1871429081E+00   -8.1632735920E+00
   -8.1395430518E+00   -8.1159500809E+00   -8.0924934863E+00   -8.0691720891E+00
   -8.0459847238E+00   -8.0229302381E+00   -8.0000074931E+00   -7.9772153629E+00
   -7.9545527341E+00   -7.9320185063E+00   -7.9096115913E+00   -7.8873309131E+00
   -7.8651754080E+00   -7.8431440241E+00   -7.8212357213E+00   -7.7994494710E+00
   -7.7777842560E+00   -7.7562390707E+00   -7.7348129202E+00   -7.7135048207E+00
   -7.6923137994E+00   -7.6712388938E+00   -7.6502791524E+00   -7.6294336335E+00
   -7.6087014062E+00   -7.5880815492E+00   -7.5675731515E+00   -7.5471753118E+00
   -7.5268871385E+00   -7.5067077495E+00   -7.4866362723E+00   -7.4666718435E+00
   -7.4468136090E+00   -7.4270607238E+00   -7.4074123518E+00   -7.3878676656E+00
   -7.3684258467E+00   -7.3490860852E+00   -7.3298475794E+00   -7.3107095363E+00
   -7.2916711711E+00   -7.2727317069E+00   -7.2538903752E+00   -7.2351464152E+00
   -7.2164990741E+00   -7.1979476066E+00   -7.1794912754E+00   -7.1611293504E+00
   -7.1428611091E+00   -7.1246858365E+00   -7.1066028247E+00   -7.0886113728E+00
   -7.0707107873E+00   -7.0529003815E+00   -7.0351794757E+00   -7.0175473970E+00
   -7.0000034791E+00   -6.9825470625E+00   -6.9651774941E+00   -6.9478941275E+00
   -6.9306963226E+00   -6.9135834456E+00   -6.8965548688E+00   -6.8796099710E+00
   -6.8627481368E+00   -6.8459687570E+00   -6.8292712283E+00   -6.8126549532E+00
   -6.7961193400E+00   -6.7796638028E+00   -6.7632877614E+00   -6.7469906411E+00
   -6.7307718727E+00   -6.7146308926E+00   -6.6985671424E+00   -6.6825800693E+00
   -6.6666691255E+00   -6.6508337685E+00   -6.6350734609E+00   -6.6193876705E+00
   -6.6037758703E+00   -6.5882375379E+00   -6.5727721560E+00   -6.5573792118E+00
   -6.5420581974E+00   -6.5268086098E+00   -6.5116299507E+00   -6.4965217265E+00
   -6.4814834483E+00   -6.4665146315E+00   -6.4516147958E+00   -6.4367834657E+00
   -6.4220201695E+00   -6.4073244403E+00   -6.3926958151E+00   -6.3781338356E+00
   -6.3636380472E+00   -6.3492079998E+00   -6.3348432470E+00   -6.3205433468E+00
   -6.3063078609E+00   -6.2921363550E+00   -6.2780283989E+00   -6.2639835660E+00
   -6.2500014335E+00   -6.2360815827E+00   -6.2222235982E+00   -6.2084270685E+00
   -6.1946915858E+00   -6.1810167457E+00   -6.1674021475E+00   -6.1538473941E+00
   -6.1403520917E+00   -6.1269158500E+00   -6.1135382822E+00   -6.1002190049E+00
   -6.0869576377E+00   -6.0737538039E+00   -6.0606071299E+00   -6.0475172453E+00
   -6.0344837830E+00   -6.0215063788E+00   -6.0085846721E+00   -5.9957183048E+00
   -5.9829069223E+00   -5.9701501729E+00   -5.9574477079E+00   -5.9447991814E+00
   -5.9322042507E+00   -5.9196625759E+00   -5.9071738198E+00   -5.8947376482E+00
   -5.8823537297E+00   -5.8700217358E+00   -5.8577413404E+00   -5.8455122204E+00
   -5.8333340554E+00   -5.8212065275E+00   -5.8091293217E+00   -5.7971021252E+00
   -5.7851246281E+00   -5.7731965231E+00   -5.7613175052E+00   -5.7494872720E+00
   -5.7377055237E+00   -5.7259719627E+00   -5.7142862941E+00   -5.7026482252E+00
   -5.6910574657E+00   -5.6795137279E+00   -5.6680167260E+00   -5.6565661770E+00
   -5.6451617998E+00   -5.6338033156E+00   -5.6224904481E+00   -5.6112229230E+00
   -5.6000004683E+00   -5.5888228139E+00   -5.5776896923E+00   -5.5666008378E+00
   -5.5555559869E+00   -5.5445548782E+00   -5.5335972523E+00   -5.5226828520E+00
   -5.5118114220E+00   -5.5009827090E+00   -5.4901964618E+00   -5.4794524309E+00
   -5.4687503692E+00   -5.4580900310E+00   -5.4474711730E+00   -5.4368935534E+00
   -5.4263569326E+00   -5.4158610725E+00   -5.4054057371E+00   -5.3949906923E+00
   -5.3846157055E+00   -5.3742805460E+00   -5.3639849850E+00   -5.3537287954E+00
   -5.3435117516E+00   -5.3333336301E+00   -5.3231942088E+00   -5.3130932675E+00
   -5.3030305874E+00   -5.2930059516E+00   -5.2830191448E+00   -5.2730699532E+00
   -5.2631581647E+00   -5.2532835688E+00   -5.2434459565E+00   -5.2336451204E+00
   -5.2238808548E+00   -5.2141529553E+00   -5.2044612190E+00   -5.1948054448E+00
   -5.1851854328E+00   -5.1756009848E+00   -5.1660519038E+00   -5.1565379944E+00
   -5.1470590628E+00   -5.1376149164E+00   -5.1282053639E+00   -5.1188302158E+00
   -5.1094892836E+00   -5.1001823804E+00   -5.0909093206E+00   -5.0816699199E+00
   -5.0724639953E+00   -5.0632913653E+00   -5.0541518495E+00   -5.0450452690E+00
   -5.0359714460E+00   -5.0269302042E+00   -5.0179213683E+00   -5.0089447644E+00
   -5.0000002199E+00   -4.9910875632E+00   -4.9822066243E+00   -4.9733572340E+00
   -4.9645392246E+00   -4.9557524295E+00   -4.9469966831E+00   -4.9382718212E+00
   -4.9295776807E+00   -4.9209140996E+00   -4.9122809171E+00   -4.9036779734E+00
   -4.8951051099E+00   -4.8865621692E+00   -4.8780489949E+00   -4.8695654316E+00
   -4.8611113252E+00   -4.8526865224E+00   -4.8442908712E+00   -4.8359242206E+00
   -4.8275864205E+00   -4.8192773219E+00   -4.8109967770E+00   -4.8027446387E+00
   -4.7945207612E+00   -4.7863249995E+00   -4.7781572096E+00   -4.7700172487E+00
   -4.7619049748E+00   -4.7538202467E+00   -4.7457629245E+00   -4.7377328690E+00
   -4.7297299421E+00   -4.7217540065E+00   -4.7138049259E+00   -4.7058825648E+00
   -4.6979867889E+00   -4.6901174644E+00   -4.6822744587E+00   -4.6744576400E+00
   -4.6666668774E+00   -4.6589020407E+00   -4.6511630008E+00   -4.6434496293E+00
   -4.6357617988E+00   -4.6280993825E+00   -4.6204622547E+00   -4.6128502904E+00
   -4.6052633655E+00   -4.5977013565E+00   -4.5901641409E+00   -4.5826515971E+00
   -4.5751636040E+00   -4.5677000415E+00   -4.5602607903E+00   -4.5528457317E+00
   -4.5454547479E+00   -4.5380877219E+00   -4.5307445374E+00   -4.5234250788E+00
   -4.5161292313E+00   -4.5088568808E+00   -4.5016079141E+00   -4.4943822185E+00
   -4.4871796821E+00   -4.4800001938E+00   -4.4728436431E+00   -4.4657099203E+00
   -4.4585989163E+00   -4.4515105228E+00   -4.4444446320E+00   -4.4374011371E+00
   -4.4303799316E+00   -4.4233809100E+00   -4.4164039673E+00   -4.4094489992E+00
   -4.4025159019E+00   -4.3956045726E+00   -4.3887149089E+00   -4.3818468090E+00
   -4.3750001718E+00   -4.3681748970E+00   -4.3613708846E+00   -4.3545880356E+00
   -4.3478262512E+00   -4.3410854336E+00   -4.3343654853E+00   -4.3276663096E+00
   -4.3209878103E+00   -4.3143298919E+00   -4.3076924593E+00   -4.3010754182E+00
   -4.2944786746E+00   -4.2879021355E+00   -4.2813457080E+00   -4.2748093002E+00
   -4.2682928203E+00   -4.2617961775E+00   -4.2553192812E+00   -4.2488620417E+00
   -4.2424243695E+00   -4.2360061758E+00   -4.2296073724E+00   -4.2232278715E+00
   -4.2168675859E+00   -4.2105264290E+00   -4.2042043145E+00   -4.1979011569E+00
   -4.1916168709E+00   -4.1853513720E+00   -4.1791045760E+00   -4.1728763994E+00
   -4.1666667589E+00   -4.1604755720E+00   -4.1543027565E+00   -4.1481482308E+00
   -4.1420119138E+00   -4.1358937246E+00   -4.1297935832E+00   -4.1237114097E+00
   -4.1176471250E+00   -4.1116006501E+00   -4.1055719068E+00   -4.0995608172E+00
   -4.0935673038E+00   -4.0875912897E+00   -4.0816326983E+00   -4.0756914536E+00
   -4.0697674799E+00   -4.0638607020E+00   -4.0579710452E+00   -4.0520984351E+00
   -4.0462427979E+00   -4.0404040600E+00   -4.0345821484E+00   -4.0287769905E+00
   -4.0229885140E+00   -4.0172166472E+00   -4.0114613186E+00   -4.0057224573E+00
   -3.9999999928E+00   -3.9942938548E+00   -3.9886039736E+00   -3.9829302797E+00
   -3.9772727043E+00   -3.9716311787E+00   -3.9660056348E+00   -3.9603960047E+00
   -3.9548022209E+00   -3.9492242165E+00   -3.9436619248E+00   -3.9381152794E+00
   -3.9325842145E+00   -3.9270686644E+00   -3.9215685641E+00   -3.9160838486E+00
   -3.9106144535E+00   -3.9051603148E+00   -3.8997213686E+00   -3.8942975516E+00
   -3.8888888007E+00   -3.8834950533E+00   -3.8781162470E+00   -3.8727523198E+00
   -3.8674032101E+00   -3.8620688566E+00   -3.8567491982E+00   -3.8514441743E+00
   -3.8461537246E+00   -3.8408777893E+00   -3.8356163085E+00   -3.8303692230E+00
   -3.8251364738E+00   -3.8199180022E+00   -3.8147137499E+00   -3.8095236587E+00
   -3.8043476711E+00   -3.7991857296E+00   -3.7940377771E+00   -3.7889037567E+00
   -3.7837836121E+00   -3.7786772871E+00   -3.7735847257E+00   -3.7685058724E+00
   -3.7634406720E+00   -3.7583890694E+00   -3.7533510099E+00   -3.7483264393E+00
   -3.7433153033E+00   -3.7383175482E+00   -3.7333331204E+00   -3.7283619668E+00
   -3.7234040343E+00   -3.7184592702E+00   -3.7135276223E+00   -3.7086090383E+00
   -3.7037034665E+00   -3.6988108552E+00   -3.6939311532E+00   -3.6890643094E+00
   -3.6842102731E+00   -3.6793689939E+00   -3.6745404214E+00   -3.6697245057E+00
   -3.6649211971E+00   -3.6601304462E+00   -3.6553522038E+00   -3.6505864209E+00
   -3.6458330490E+00   -3.6410920395E+00   -3.6363633444E+00   -3.6316469156E+00
   -3.6269427056E+00   -3.6222506669E+00   -3.6175707524E+00   -3.6129029150E+00
   -3.6082471082E+00   -3.6036032855E+00   -3.5989714006E+00   -3.5943514075E+00
   -3.5897432607E+00   -3.5851469145E+00   -3.5805623236E+00   -3.5759894431E+00
   -3.5714282281E+00   -3.5668786341E+00   -3.5623406166E+00   -3.5578141316E+00
   -3.5532991352E+00   -3.5487955836E+00   -3.5443034334E+00   -3.5398226414E+00
   -3.5353531646E+00   -3.5308949601E+00   -3.5264479853E+00   -3.5220121980E+00
   -3.5175875558E+00   -3.5131740169E+00   -3.5087715395E+00   -3.5043800821E+00
   -3.4999996033E+00   -3.4956300621E+00   -3.4912714175E+00   -3.4869236289E+00
   -3.4825866556E+00   -3.4782604575E+00   -3.4739449943E+00   -3.4696402263E+00
   -3.4653461136E+00   -3.4610626168E+00   -3.4567896966E+00   -3.4525273138E+00
   -3.4482754295E+00   -3.4440340049E+00   -3.4398030016E+00   -3.4355823811E+00
   -3.4313721053E+00   -3.4271721362E+00   -3.4229824359E+00   -3.4188029670E+00
   -3.4146336919E+00   -3.4104745734E+00   -3.4063255744E+00   -3.4021866581E+00
   -3.3980577877E+00   -3.3939389267E+00   -3.3898300388E+00   -3.3857310877E+00
   -3.3816420375E+00   -3.3775628523E+00   -3.3734934965E+00   -3.3694339346E+00
   -3.3653841313E+00   -3.3613440515E+00   -3.3573136601E+00   -3.3532929223E+00
   -3.3492818036E+00   -3.3452802694E+00   -3.3412882854E+00   -3.3373058175E+00
   -3.3333328317E+00   -3.3293692942E+00   -3.3254151712E+00   -3.3214704294E+00
   -3.3175350352E+00   -3.3136089557E+00   -3.3096921577E+00   -3.3057846084E+00
   -3.3018862749E+00   -3.2979971249E+00   -3.2941171258E+00   -3.2902462455E+00
   -3.2863844517E+00   -3.2825317126E+00   -3.2786879963E+00   -3.2748532711E+00
   -3.2710275057E+00   -3.2672106685E+00   -3.2634027284E+00   -3.2596036543E+00
   -3.2558134153E+00   -3.2520319806E+00   -3.2482593195E+00   -3.2444954016E+00
   -3.2407401965E+00   -3.2369936739E+00   -3.2332558039E+00   -3.2295265564E+00
   -3.2258059017E+00   -3.2220938100E+00   -3.2183902519E+00   -3.2146951980E+00
   -3.2110086191E+00   -3.2073304859E+00   -3.2036607695E+00   -3.1999994410E+00
   -3.1963464718E+00   -3.1927018332E+00   -3.1890654968E+00   -3.1854374341E+00
   -3.1818176171E+00   -3.1782060177E+00   -3.1746026078E+00   -3.1710073597E+00
   -3.1674202456E+00   -3.1638412381E+00   -3.1602703096E+00   -3.1567074328E+00
   -3.1531525805E+00   -3.1496057257E+00   -3.1460668413E+00   -3.1425359006E+00
   -3.1390128769E+00   -3.1354977434E+00   -3.1319904738E+00   -3.1284910417E+00
   -3.1249994208E+00   -3.1215155851E+00   -3.1180395085E+00   -3.1145711651E+00
   -3.1111105292E+00   -3.1076575751E+00   -3.1042122772E+00   -3.1007746100E+00
   -3.0973445484E+00   -3.0939220670E+00   -3.0905071408E+00   -3.0870997448E+00
   -3.0836998541E+00   -3.0803074439E+00   -3.0769224896E+00   -3.0735449665E+00
   -3.0701748504E+00   -3.0668121167E+00   -3.0634567414E+00   -3.0601087002E+00
   -3.0567679692E+00   -3.0534345245E+00   -3.0501083421E+00   -3.0467893985E+00
   -3.0434776700E+00   -3.0401731330E+00   -3.0368757643E+00   -3.0335855406E+00
   -3.0303024385E+00   -3.0270264350E+00   -3.0237575072E+00   -3.0204956321E+00
   -3.0172407869E+00   -3.0139929489E+00   -3.0107520955E+00   -3.0075182042E+00
   -3.0042912527E+00   -3.0010712185E+00   -2.9978580795E+00   -2.9946518135E+00
   -2.9914523985E+00   -2.9882598126E+00   -2.9850740340E+00   -2.9818950408E+00
   -2.9787228115E+00   -2.9755573244E+00   -2.9723985581E+00   -2.9692464912E+00
   -2.9661011025E+00   -2.9629623707E+00   -2.9598302747E+00   -2.9567047934E+00
   -2.9535859061E+00   -2.9504735917E+00   -2.9473678296E+00   -2.9442685991E+00
   -2.9411758796E+00   -2.9380896506E+00   -2.9350098917E+00   -2.9319365826E+00
   -2.9288697030E+00   -2.9258092327E+00   -2.9227551518E+00   -2.9197074402E+00
   -2.9166660780E+00   -2.9136310454E+00   -2.9106023226E+00   -2.9075798901E+00
   -2.9045637281E+00   -2.9015538173E+00   -2.8985501382E+00   -2.8955526715E+00
   -2.8925613979E+00   -2.8895762982E+00   -2.8865973534E+00   -2.8836245445E+00
   -2.8806578524E+00   -2.8776972584E+00   -2.8747427437E+00   -2.8717942895E+00
   -2.8688518772E+00   -2.8659154884E+00   -2.8629851044E+00   -2.8600607069E+00
   -2.8571422775E+00   -2.8542297981E+00   -2.8513232505E+00   -2.8484226164E+00
   -2.8455278780E+00   -2.8426390172E+00   -2.8397560162E+00   -2.8368788572E+00
   -2.8340075224E+00   -2.8311419941E+00   -2.8282822548E+00   -2.8254282869E+00
   -2.8225800730E+00   -2.8197375957E+00   -2.8169008376E+00   -2.8140697816E+00
   -2.8112444105E+00   -2.8084247071E+00   -2.8056106544E+00   -2.8028022355E+00
   -2.7999994335E+00   -2.7972022314E+00   -2.7944106126E+00   -2.7916245603E+00
   -2.7888440580E+00   -2.7860690890E+00   -2.7832996368E+00   -2.7805356851E+00
   -2.7777772174E+00   -2.7750242174E+00   -2.7722766689E+00   -2.7695345558E+00
   -2.7667978618E+00   -2.7640665710E+00   -2.7613406674E+00   -2.7586201350E+00
   -2.7559049580E+00   -2.7531951206E+00   -2.7504906070E+00   -2.7477914017E+00
   -2.7450974889E+00   -2.7424088531E+00   -2.7397254788E+00   -2.7370473506E+00
   -2.7343744532E+00   -2.7317067712E+00   -2.7290442893E+00   -2.7263869924E+00
   -2.7237348654E+00   -2.7210878931E+00   -2.7184460606E+00   -2.7158093529E+00
   -2.7131777551E+00   -2.7105512524E+00   -2.7079298299E+00   -2.7053134730E+00
   -2.7027021670E+00   -2.7000958973E+00   -2.6974946493E+00   -2.6948984085E+00
   -2.6923071605E+00   -2.6897208909E+00   -2.6871395853E+00   -2.6845632296E+00
   -2.6819918093E+00   -2.6794253105E+00   -2.6768637189E+00   -2.6743070205E+00
   -2.6717552014E+00   -2.6692082474E+00   -2.6666661449E+00   -2.6641288798E+00
   -2.6615964384E+00   -2.6590688070E+00   -2.6565459718E+00   -2.6540279193E+00
   -2.6515146359E+00   -2.6490061079E+00   -2.6465023220E+00   -2.6440032646E+00
   -2.6415089225E+00   -2.6390192822E+00   -2.6365343305E+00   -2.6340540542E+00
   -2.6315784401E+00   -2.6291074750E+00   -2.6266411459E+00   -2.6241794397E+00
   -2.6217223434E+00   -2.6192698442E+00   -2.6168219291E+00   -2.6143785852E+00
   -2.6119397998E+00   -2.6095055602E+00   -2.6070758536E+00   -2.6046506673E+00
   -2.6022299889E+00   -2.5998138057E+00   -2.5974021052E+00   -2.5949948750E+00
   -2.5925921026E+00   -2.5901937757E+00   -2.5877998819E+00   -2.5854104090E+00
   -2.5830253447E+00   -2.5806446768E+00   -2.5782683932E+00   -2.5758964818E+00
   -2.5735289306E+00   -2.5711657275E+00   -2.5688068605E+00   -2.5664523178E+00
   -2.5641020874E+00   -2.5617561575E+00   -2.5594145164E+00   -2.5570771522E+00
   -2.5547440533E+00   -2.5524152080E+00   -2.5500906047E+00   -2.5477702317E+00
   -2.5454540777E+00   -2.5431421310E+00   -2.5408343802E+00   -2.5385308139E+00
   -2.5362314208E+00   -2.5339361894E+00   -2.5316451086E+00   -2.5293581670E+00
   -2.5270753535E+00   -2.5247966569E+00   -2.5225220660E+00   -2.5202515698E+00
   -2.5179851573E+00   -2.5157228173E+00   -2.5134645390E+00   -2.5112103115E+00
   -2.5089601238E+00   -2.5067139650E+00   -2.5044718245E+00   -2.5022336913E+00
   -2.4999995548E+00   -2.4977694043E+00   -2.4955432291E+00   -2.4933210186E+00
   -2.4911027622E+00   -2.4888884494E+00   -2.4866780696E+00   -2.4844716124E+00
   -2.4822690674E+00   -2.4800704242E+00   -2.4778756723E+00   -2.4756848016E+00
   -2.4734978016E+00   -2.4713146622E+00   -2.4691353731E+00   -2.4669599242E+00
   -2.4647883053E+00   -2.4626205063E+00   -2.4604565172E+00   -2.4582963278E+00
   -2.4561399283E+00   -2.4539873086E+00   -2.4518384589E+00   -2.4496933691E+00
   -2.4475520295E+00   -2.4454144302E+00   -2.4432805615E+00   -2.4411504136E+00
   -2.4390239767E+00   -2.4369012412E+00   -2.4347821974E+00   -2.4326668357E+00
   -2.4305551465E+00   -2.4284471202E+00   -2.4263427474E+00   -2.4242420185E+00
   -2.4221449241E+00   -2.4200514548E+00   -2.4179616011E+00   -2.4158753537E+00
   -2.4137927033E+00   -2.4117136406E+00   -2.4096381563E+00   -2.4075662412E+00
   -2.4054978861E+00   -2.4034330818E+00   -2.4013718192E+00   -2.3993140892E+00
   -2.3972598827E+00   -2.3952091907E+00   -2.3931620041E+00   -2.3911183140E+00
   -2.3890781115E+00   -2.3870413875E+00   -2.3850081332E+00   -2.3829783399E+00
   -2.3809519985E+00   -2.3789291004E+00   -2.3769096367E+00   -2.3748935988E+00
   -2.3728809779E+00   -2.3708717653E+00   -2.3688659524E+00   -2.3668635305E+00
   -2.3648644911E+00   -2.3628688257E+00   -2.3608765256E+00   -2.3588875823E+00
   -2.3569019875E+00   -2.3549197326E+00   -2.3529408092E+00   -2.3509652090E+00
   -2.3489929235E+00   -2.3470239444E+00   -2.3450582635E+00   -2.3430958724E+00
   -2.3411367629E+00   -2.3391809268E+00   -2.3372283558E+00   -2.3352790419E+00
   -2.3333329768E+00   -2.3313901524E+00   -2.3294505607E+00   -2.3275141936E+00
   -2.3255810430E+00   -2.3236511010E+00   -2.3217243596E+00   -2.3198008107E+00
   -2.3178804466E+00   -2.3159632592E+00   -2.3140492407E+00   -2.3121383833E+00
   -2.3102306791E+00   -2.3083261204E+00   -2.3064246993E+00   -2.3045264081E+00
   -2.3026312391E+00   -2.3007391846E+00   -2.2988502370E+00   -2.2969643885E+00
   -2.2950816315E+00   -2.2932019585E+00   -2.2913253619E+00   -2.2894518342E+00
   -2.2875813677E+00   -2.2857139551E+00   -2.2838495889E+00   -2.2819882615E+00
   -2.2801299656E+00   -2.2782746938E+00   -2.2764224387E+00   -2.2745731929E+00
   -2.2727269492E+00   -2.2708837002E+00   -2.2690434386E+00   -2.2672061572E+00
   -2.2653718487E+00   -2.2635405060E+00   -2.2617121219E+00   -2.2598866891E+00
   -2.2580642006E+00   -2.2562446492E+00   -2.2544280278E+00   -2.2526143294E+00
   -2.2508035469E+00   -2.2489956733E+00   -2.2471907015E+00   -2.2453886247E+00
   -2.2435894358E+00   -2.2417931280E+00   -2.2399996942E+00   -2.2382091276E+00
   -2.2364214214E+00   -2.2346365686E+00   -2.2328545625E+00   -2.2310753962E+00
   -2.2292990630E+00   -2.2275255561E+00   -2.2257548688E+00   -2.2239869943E+00
   -2.2222219260E+00   -2.2204596571E+00   -2.2187001811E+00   -2.2169434912E+00
   -2.2151895809E+00   -2.2134384436E+00   -2.2116900727E+00   -2.2099444617E+00
   -2.2082016040E+00   -2.2064614931E+00   -2.2047241226E+00   -2.2029894859E+00
   -2.2012575766E+00   -2.1995283883E+00   -2.1978019146E+00   -2.1960781491E+00
   -2.1943570854E+00   -2.1926387172E+00   -2.1909230381E+00   -2.1892100419E+00
   -2.1874997223E+00   -2.1857920729E+00   -2.1840870876E+00   -2.1823847600E+00
   -2.1806850841E+00   -2.1789880536E+00   -2.1772936623E+00   -2.1756019041E+00
   -2.1739127729E+00   -2.1722262625E+00   -2.1705423668E+00   -2.1688610799E+00
   -2.1671823955E+00   -2.1655063077E+00   -2.1638328104E+00   -2.1621618977E+00
   -2.1604935636E+00   -2.1588278021E+00   -2.1571646072E+00   -2.1555039731E+00
   -2.1538458937E+00   -2.1521903633E+00   -2.1505373760E+00   -2.1488869259E+00
   -2.1472390071E+00   -2.1455936139E+00   -2.1439507404E+00   -2.1423103809E+00
   -2.1406725296E+00   -2.1390371807E+00   -2.1374043285E+00   -2.1357739674E+00
   -2.1341460915E+00   -2.1325206953E+00   -2.1308977730E+00   -2.1292773191E+00
   -2.1276593278E+00   -2.1260437937E+00   -2.1244307110E+00   -2.1228200743E+00
   -2.1212118779E+00   -2.1196061163E+00   -2.1180027840E+00   -2.1164018755E+00
   -2.1148033853E+00   -2.1132073079E+00   -2.1116136378E+00   -2.1100223697E+00
   -2.1084334981E+00   -2.1068470175E+00   -2.1052629226E+00   -2.1036812080E+00
   -2.1021018684E+00   -2.1005248984E+00   -2.0989502926E+00   -2.0973780458E+00
   -2.0958081527E+00   -2.0942406079E+00   -2.0926754063E+00   -2.0911125425E+00
   -2.0895520114E+00   -2.0879938076E+00   -2.0864379261E+00   -2.0848843616E+00
   -2.0833331090E+00   -2.0817841630E+00   -2.0802375186E+00   -2.0786931707E+00
   -2.0771511140E+00   -2.0756113436E+00   -2.0740738543E+00   -2.0725386410E+00
   -2.0710056988E+00   -2.0694750226E+00   -2.0679466073E+00   -2.0664204481E+00
   -2.0648965398E+00   -2.0633748775E+00   -2.0618554562E+00   -2.0603382711E+00
   -2.0588233172E+00   -2.0573105895E+00   -2.0558000831E+00   -2.0542917931E+00
   -2.0527857146E+00   -2.0512818428E+00   -2.0497801727E+00   -2.0482806995E+00
   -2.0467834183E+00   -2.0452883246E+00   -2.0437954135E+00   -2.0423046804E+00
   -2.0408161205E+00   -2.0393297292E+00   -2.0378455017E+00   -2.0363634335E+00
   -2.0348835200E+00   -2.0334057562E+00   -2.0319301374E+00   -2.0304566588E+00
   -2.0289853157E+00   -2.0275161033E+00   -2.0260490169E+00   -2.0245840519E+00
   -2.0231212039E+00   -2.0216604678E+00   -2.0202018390E+00   -2.0187453127E+00
   -2.0172908843E+00   -2.0158385493E+00   -2.0143883032E+00   -2.0129401415E+00
   -2.0114940581E+00   -2.0100500497E+00   -2.0086081132E+00   -2.0071682445E+00
   -2.0057304397E+00   -2.0042946948E+00   -2.0028610056E+00   -2.0014293680E+00
   -1.9999997793E+00   -1.9985722366E+00   -1.9971467315E+00   -1.9957232587E+00
   -1.9943018128E+00   -1.9928823886E+00   -1.9914649808E+00   -1.9900495843E+00
   -1.9886361938E+00   -1.9872248009E+00   -1.9858154045E+00   -1.9844080010E+00
   -1.9830025865E+00   -1.9815991574E+00   -1.9801977100E+00   -1.9787982411E+00
   -1.9774007474E+00   -1.9760052246E+00   -1.9746116698E+00   -1.9732200813E+00
   -1.9718304563E+00   -1.9704427920E+00   -1.9690570854E+00   -1.9676733332E+00
   -1.9662915322E+00   -1.9649116786E+00   -1.9635337774E+00   -1.9621578148E+00
   -1.9607837849E+00   -1.9594116820E+00   -1.9580415002E+00   -1.9566732337E+00
   -1.9553068766E+00   -1.9539424233E+00   -1.9525798638E+00   -1.9512191917E+00
   -1.9498604093E+00   -1.9485035133E+00   -1.9471485002E+00   -1.9457953672E+00
   -1.9444441111E+00   -1.9430947293E+00   -1.9417472188E+00   -1.9404015820E+00
   -1.9390578113E+00   -1.9377159018E+00   -1.9363758495E+00   -1.9350376506E+00
   -1.9337013010E+00   -1.9323667966E+00   -1.9310341335E+00   -1.9297033069E+00
   -1.9283743116E+00   -1.9270471454E+00   -1.9257218046E+00   -1.9243982854E+00
   -1.9230765840E+00   -1.9217566968E+00   -1.9204386201E+00   -1.9191223500E+00
   -1.9178078833E+00   -1.9164952162E+00   -1.9151843448E+00   -1.9138752654E+00
   -1.9125679744E+00   -1.9112624681E+00   -1.9099587429E+00   -1.9086567950E+00
   -1.9073566210E+00   -1.9060582170E+00   -1.9047615796E+00   -1.9034667052E+00
   -1.9021735900E+00   -1.9008822306E+00   -1.8995926234E+00   -1.8983047649E+00
   -1.8970186513E+00   -1.8957342793E+00   -1.8944516453E+00   -1.8931707458E+00
   -1.8918915772E+00   -1.8906141360E+00   -1.8893384188E+00   -1.8880644220E+00
   -1.8867921422E+00   -1.8855215759E+00   -1.8842527196E+00   -1.8829855700E+00
   -1.8817201235E+00   -1.8804563767E+00   -1.8791943262E+00   -1.8779339687E+00
   -1.8766753006E+00   -1.8754183186E+00   -1.8741630193E+00   -1.8729093993E+00
   -1.8716574553E+00   -1.8704071839E+00   -1.8691585817E+00   -1.8679116455E+00
   -1.8666663718E+00   -1.8654227574E+00   -1.8641807990E+00   -1.8629404931E+00
   -1.8617018366E+00   -1.8604648262E+00   -1.8592294586E+00   -1.8579957304E+00
   -1.8567636385E+00   -1.8555331796E+00   -1.8543043504E+00   -1.8530771477E+00
   -1.8518515684E+00   -1.8506276090E+00   -1.8494052666E+00   -1.8481845378E+00
   -1.8469654194E+00   -1.8457479083E+00   -1.8445320013E+00   -1.8433176953E+00
   -1.8421049870E+00   -1.8408938733E+00   -1.8396843511E+00   -1.8384764173E+00
   -1.8372700686E+00   -1.8360653021E+00   -1.8348621145E+00   -1.8336605029E+00
   -1.8324604640E+00   -1.8312619948E+00   -1.8300650922E+00   -1.8288697532E+00
   -1.8276759747E+00   -1.8264837536E+00   -1.8252930869E+00   -1.8241039716E+00
   -1.8229164046E+00   -1.8217303829E+00   -1.8205459035E+00   -1.8193629634E+00
   -1.8181815596E+00   -1.8170016890E+00   -1.8158233488E+00   -1.8146465359E+00
   -1.8134712473E+00   -1.8122974802E+00   -1.8111252315E+00   -1.8099544984E+00
   -1.8087852778E+00   -1.8076175669E+00   -1.8064513626E+00   -1.8052866622E+00
   -1.8041234627E+00   -1.8029617612E+00   -1.8018015548E+00   -1.8006428406E+00
   -1.7994856158E+00   -1.7983298775E+00   -1.7971756227E+00   -1.7960228488E+00
   -1.7948715527E+00   -1.7937217317E+00   -1.7925733830E+00   -1.7914265037E+00
   -1.7902810909E+00   -1.7891371420E+00   -1.7879946540E+00   -1.7868536242E+00
   -1.7857140499E+00   -1.7845759281E+00   -1.7834392561E+00   -1.7823040313E+00
   -1.7811702507E+00   -1.7800379117E+00   -1.7789070115E+00   -1.7777775473E+00
   -1.7766495165E+00   -1.7755229163E+00   -1.7743977439E+00   -1.7732739967E+00
   -1.7721516720E+00   -1.7710307671E+00   -1.7699112792E+00   -1.7687932057E+00
   -1.7676765439E+00   -1.7665612912E+00   -1.7654474448E+00   -1.7643350022E+00
   -1.7632239606E+00   -1.7621143174E+00   -1.7610060700E+00   -1.7598992157E+00
   -1.7587937520E+00   -1.7576896761E+00   -1.7565869856E+00   -1.7554856777E+00
   -1.7543857499E+00   -1.7532871996E+00   -1.7521900242E+00   -1.7510942211E+00
   -1.7499997878E+00   -1.7489067217E+00   -1.7478150202E+00   -1.7467246807E+00
   -1.7456357008E+00   -1.7445480779E+00   -1.7434618094E+00   -1.7423768928E+00
   -1.7412933257E+00   -1.7402111054E+00   -1.7391302295E+00   -1.7380506954E+00
   -1.7369725008E+00   -1.7358956430E+00   -1.7348201196E+00   -1.7337459281E+00
   -1.7326730661E+00   -1.7316015310E+00   -1.7305313205E+00   -1.7294624320E+00
   -1.7283948631E+00   -1.7273286114E+00   -1.7262636745E+00   -1.7252000498E+00
   -1.7241377351E+00   -1.7230767277E+00   -1.7220170255E+00   -1.7209586259E+00
   -1.7199015265E+00   -1.7188457250E+00   -1.7177912189E+00   -1.7167380059E+00
   -1.7156860837E+00   -1.7146354497E+00   -1.7135861017E+00   -1.7125380373E+00
  </PP_LOCAL>
 <PP_NONLOCAL>
   <PP_BETA.1
       type="real"
       size="1636"
       columns="4"
       index="1"
       angular_momentum="0"
       cutoff_radius_index=" 144"
       cutoff_radius="    1.4300000000E+00" >
    6.0656837331E-09    1.0644598362E-01    2.1253395345E-01    3.1790662971E-01
    4.2220823446E-01    5.2508532564E-01    6.2618772594E-01    7.2516957090E-01
    8.2169049422E-01    9.1541696112E-01    1.0060237530E+00    1.0931955982E+00
    1.1766289344E+00    1.2560337824E+00    1.3311356995E+00    1.4016777777E+00
    1.4674226449E+00    1.5281544213E+00    1.5836805846E+00    1.6338336934E+00
    1.6784729200E+00    1.7174853490E+00    1.7507869994E+00    1.7783235358E+00
    1.8000706439E+00    1.8160340495E+00    1.8262491761E+00    1.8307804416E+00
    1.8297202067E+00    1.8231873997E+00    1.8113258486E+00    1.7943023628E+00
    1.7723046125E+00    1.7455388610E+00    1.7142276073E+00    1.6786071994E+00
    1.6389254793E+00    1.5954395158E+00    1.5484134797E+00    1.4981167068E+00
    1.4448219889E+00    1.3888041201E+00    1.3303387179E+00    1.2697013245E+00
    1.2071667842E+00    1.1430088783E+00    1.0775001895E+00    1.0109121583E+00
    9.4351528082E-01    8.7557939565E-01    8.0737399866E-01    7.3916852268E-01
    6.7123251936E-01    6.0383568210E-01    5.3724765403E-01    4.7173757230E-01
    4.0757330919E-01    3.4502038244E-01    2.8434051999E-01    2.2578987864E-01
    1.6961693138E-01    1.1606005277E-01    6.5344847155E-02    1.7681277830E-02
   -2.6739332048E-02   -6.7747345534E-02   -1.0519781569E-01   -1.3897335242E-01
   -1.6898675543E-01   -1.9518331723E-01   -2.1754270443E-01   -2.3608033299E-01
   -2.5084816401E-01   -2.6193485977E-01   -2.6946525640E-01   -2.7359912717E-01
   -2.7452923081E-01   -2.7247865922E-01   -2.6769752085E-01   -2.6045901579E-01
   -2.5105497907E-01   -2.3979098599E-01   -2.2698112933E-01   -2.1294259070E-01
   -1.9799013790E-01   -1.8243068559E-01   -1.6655805825E-01   -1.5064809173E-01
   -1.3495420303E-01   -1.1970354687E-01   -1.0509386328E-01   -9.1291101847E-02
   -7.8427887517E-02   -6.6602869203E-02   -5.5880967245E-02   -4.6294509692E-02
   -3.7845221031E-02   -3.0507001264E-02   -2.4229408983E-02   -1.8941739944E-02
   -1.4557573403E-02   -1.0979642699E-02   -8.1048748000E-03   -5.8294334906E-03
   -4.0536271183E-03   -2.6885564500E-03   -1.6738192764E-03   -9.4106780904E-04
   -4.3543140277E-04   -1.2436938287E-04   -3.3165598850E-06   -6.0246535791E-07
    5.7027470592E-08    0.0000000000E+00    0.0000000000E+00    0.0000000000E+00
    0.0000000000E+00    0.0000000000E+00    0.0000000000E+00    0.0000000000E+00
    0.0000000000E+00    0.0000000000E+00    0.0000000000E+00    0.0000000000E+00
    0.0000000000E+00    0.0000000000E+00    0.0000000000E+00    0.0000000000E+00
    0.0000000000E+00    0.0000000000E+00    0.0000000000E+00    0.0000000000E+00
    0.0000000000E+00    0.0000000000E+00    0.0000000000E+00    0.0000000000E+00
    0.0000000000E+00    0.0000000000E+00    0.0000000000E+00    0.0000000000E+00
    0.0000000000E+00    0.0000000000E+00    0.0000000000E+00    0.0000000000E+00
 0. 0. 0. 0.
 0. 0. 0. 0.
 0. 0. 0. 0.
 0. 0. 0. 0.
 0. 0. 0. 0.
 0. 0. 0. 0.
 0. 0. 0. 0.
 0. 0. 0. 0.
 0. 0. 0. 0.
 0. 0. 0. 0.
 0. 0. 0. 0.
 0. 0. 0. 0.
 0. 0. 0. 0.
 0. 0. 0. 0.
 0. 0. 0. 0.
 0. 0. 0. 0.
 0. 0. 0. 0.
 0. 0. 0. 0.
 0. 0. 0. 0.
 0. 0. 0. 0.
 0. 0. 0. 0.
 0. 0. 0. 0.
 0. 0. 0. 0.
 0. 0. 0. 0.
 0. 0. 0. 0.
 0. 0. 0. 0.
 0. 0. 0. 0.
 0. 0. 0. 0.
 0. 0. 0. 0.
 0. 0. 0. 0.
 0. 0. 0. 0.
 0. 0. 0. 0.
 0. 0. 0. 0.
 0. 0. 0. 0.
 0. 0. 0. 0.
 0. 0. 0. 0.
 0. 0. 0. 0.
 0. 0. 0. 0.
 0. 0. 0. 0.
 0. 0. 0. 0.
 0. 0. 0. 0.
 0. 0. 0. 0.
 0. 0. 0. 0.
 0. 0. 0. 0.
 0. 0. 0. 0.
 0. 0. 0. 0.
 0. 0. 0. 0.
 0. 0. 0. 0.
 0. 0. 0. 0.
 0. 0. 0. 0.
 0. 0. 0. 0.
 0. 0. 0. 0.
 0. 0. 0. 0.
 0. 0. 0. 0.
 0. 0. 0. 0.
 0. 0. 0. 0.
 0. 0. 0. 0.
 0. 0. 0. 0.
 0. 0. 0. 0.
 0. 0. 0. 0.
 0. 0. 0. 0.
 0. 0. 0. 0.
 0. 0. 0. 0.
 0. 0. 0. 0.
 0. 0. 0. 0.
 0. 0. 0. 0.
 0. 0. 0. 0.
 0. 0. 0. 0.
 0. 0. 0. 0.
 0. 0. 0. 0.
 0. 0. 0. 0.
 0. 0. 0. 0.
 0. 0. 0. 0.
 0. 0. 0. 0.
 0. 0. 0. 0.
 0. 0. 0. 0.
 0. 0. 0. 0.
 0. 0. 0. 0.
 0. 0. 0. 0.
 0. 0. 0. 0.
 0. 0. 0. 0.
 0. 0. 0. 0.
 0. 0. 0. 0.
 0. 0. 0. 0.
 0. 0. 0. 0.
 0. 0. 0. 0.
 0. 0. 0. 0.
 0. 0. 0. 0.
 0. 0. 0. 0.
 0. 0. 0. 0.
 0. 0. 0. 0.
 0. 0. 0. 0.
 0. 0. 0. 0.
 0. 0. 0. 0.
 0. 0. 0. 0.
 0. 0. 0. 0.
 0. 0. 0. 0.
 0. 0. 0. 0.
 0. 0. 0. 0.
 0. 0. 0. 0.
 0. 0. 0. 0.
 0. 0. 0. 0.
 0. 0. 0. 0.
 0. 0. 0. 0.
 0. 0. 0. 0.
 0. 0. 0. 0.
 0. 0. 0. 0.
 0. 0. 0. 0.
 0. 0. 0. 0.
 0. 0. 0. 0.
 0. 0. 0. 0.
 0. 0. 0. 0.
 0. 0. 0. 0.
 0. 0. 0. 0.
 0. 0. 0. 0.
 0. 0. 0. 0.
 0. 0. 0. 0.
 0. 0. 0. 0.
 0. 0. 0. 0.
 0. 0. 0. 0.
 0. 0. 0. 0.
 0. 0. 0. 0.
 0. 0. 0. 0.
 0. 0. 0. 0.
 0. 0. 0. 0.
 0. 0. 0. 0.
 0. 0. 0. 0.
 0. 0. 0. 0.
 0. 0. 0. 0.
 0. 0. 0. 0.
 0. 0. 0. 0.
 0. 0. 0. 0.
 0. 0. 0. 0.
 0. 0. 0. 0.
 0. 0. 0. 0.
 0. 0. 0. 0.
 0. 0. 0. 0.
 0. 0. 0. 0.
 0. 0. 0. 0.
 0. 0. 0. 0.
 0. 0. 0. 0.
 0. 0. 0. 0.
 0. 0. 0. 0.
 0. 0. 0. 0.
 0. 0. 0. 0.
 0. 0. 0. 0.
 0. 0. 0. 0.
 0. 0. 0. 0.
 0. 0. 0. 0.
 0. 0. 0. 0.
 0. 0. 0. 0.
 0. 0. 0. 0.
 0. 0. 0. 0.
 0. 0. 0. 0.
 0. 0. 0. 0.
 0. 0. 0. 0.
 0. 0. 0. 0.
 0. 0. 0. 0.
 0. 0. 0. 0.
 0. 0. 0. 0.
 0. 0. 0. 0.
 0. 0. 0. 0.
 0. 0. 0. 0.
 0. 0. 0. 0.
 0. 0. 0. 0.
 0. 0. 0. 0.
 0. 0. 0. 0.
 0. 0. 0. 0.
 0. 0. 0. 0.
 0. 0. 0. 0.
 0. 0. 0. 0.
 0. 0. 0. 0.
 0. 0. 0. 0.
 0. 0. 0. 0.
 0. 0. 0. 0.
 0. 0. 0. 0.
 0. 0. 0. 0.
 0. 0. 0. 0.
 0. 0. 0. 0.
 0. 0. 0. 0.
 0. 0. 0. 0.
 0. 0. 0. 0.
 0. 0. 0. 0.
 0. 0. 0. 0.
 0. 0. 0. 0.
 0. 0. 0. 0.
 0. 0. 0. 0.
 0. 0. 0. 0.
 0. 0. 0. 0.
 0. 0. 0. 0.
 0. 0. 0. 0.
 0. 0. 0. 0.
 0. 0. 0. 0.
 0. 0. 0. 0.
 0. 0. 0. 0.
 0. 0. 0. 0.
 0. 0. 0. 0.
 0. 0. 0. 0.
 0. 0. 0. 0.
 0. 0. 0. 0.
 0. 0. 0. 0.
 0. 0. 0. 0.
 0. 0. 0. 0.
 0. 0. 0. 0.
 0. 0. 0. 0.
 0. 0. 0. 0.
 0. 0. 0. 0.
 0. 0. 0. 0.
 0. 0. 0. 0.
 0. 0. 0. 0.
 0. 0. 0. 0.
 0. 0. 0. 0.
 0. 0. 0. 0.
 0. 0. 0. 0.
 0. 0. 0. 0.
 0. 0. 0. 0.
 0. 0. 0. 0.
 0. 0. 0. 0.
 0. 0. 0. 0.
 0. 0. 0. 0.
 0. 0. 0. 0.
 0. 0. 0. 0.
 0. 0. 0. 0.
 0. 0. 0. 0.
 0. 0. 0. 0.
 0. 0. 0. 0.
 0. 0. 0. 0.
 0. 0. 0. 0.
 0. 0. 0. 0.
 0. 0. 0. 0.
 0. 0. 0. 0.
 0. 0. 0. 0.
 0. 0. 0. 0.
 0. 0. 0. 0.
 0. 0. 0. 0.
 0. 0. 0. 0.
 0. 0. 0. 0.
 0. 0. 0. 0.
 0. 0. 0. 0.
 0. 0. 0. 0.
 0. 0. 0. 0.
 0. 0. 0. 0.
 0. 0. 0. 0.
 0. 0. 0. 0.
 0. 0. 0. 0.
 0. 0. 0. 0.
 0. 0. 0. 0.
 0. 0. 0. 0.
 0. 0. 0. 0.
 0. 0. 0. 0.
 0. 0. 0. 0.
 0. 0. 0. 0.
 0. 0. 0. 0.
 0. 0. 0. 0.
 0. 0. 0. 0.
 0. 0. 0. 0.
 0. 0. 0. 0.
 0. 0. 0. 0.
 0. 0. 0. 0.
 0. 0. 0. 0.
 0. 0. 0. 0.
 0. 0. 0. 0.
 0. 0. 0. 0.
 0. 0. 0. 0.
 0. 0. 0. 0.
 0. 0. 0. 0.
 0. 0. 0. 0.
 0. 0. 0. 0.
 0. 0. 0. 0.
 0. 0. 0. 0.
 0. 0. 0. 0.
 0. 0. 0. 0.
 0. 0. 0. 0.
 0. 0. 0. 0.
 0. 0. 0. 0.
 0. 0. 0. 0.
 0. 0. 0. 0.
 0. 0. 0. 0.
 0. 0. 0. 0.
 0. 0. 0. 0.
 0. 0. 0. 0.
 0. 0. 0. 0.
 0. 0. 0. 0.
 0. 0. 0. 0.
 0. 0. 0. 0.
 0. 0. 0. 0.
 0. 0. 0. 0.
 0. 0. 0. 0.
 0. 0. 0. 0.
 0. 0. 0. 0.
 0. 0. 0. 0.
 0. 0. 0. 0.
 0. 0. 0. 0.
 0. 0. 0. 0.
 0. 0. 0. 0.
 0. 0. 0. 0.
 0. 0. 0. 0.
 0. 0. 0. 0.
 0. 0. 0. 0.
 0. 0. 0. 0.
 0. 0. 0. 0.
 0. 0. 0. 0.
 0. 0. 0. 0.
 0. 0. 0. 0.
 0. 0. 0. 0.
 0. 0. 0. 0.
 0. 0. 0. 0.
 0. 0. 0. 0.
 0. 0. 0. 0.
 0. 0. 0. 0.
 0. 0. 0. 0.
 0. 0. 0. 0.
 0. 0. 0. 0.
 0. 0. 0. 0.
 0. 0. 0. 0.
 0. 0. 0. 0.
 0. 0. 0. 0.
 0. 0. 0. 0.
 0. 0. 0. 0.
 0. 0. 0. 0.
 0. 0. 0. 0.
 0. 0. 0. 0.
 0. 0. 0. 0.
 0. 0. 0. 0.
 0. 0. 0. 0.
 0. 0. 0. 0.
 0. 0. 0. 0.
 0. 0. 0. 0.
 0. 0. 0. 0.
 0. 0. 0. 0.
 0. 0. 0. 0.
 0. 0. 0. 0.
 0. 0. 0. 0.
 0. 0. 0. 0.
 0. 0. 0. 0.
 0. 0. 0. 0.
 0. 0. 0. 0.
 0. 0. 0. 0.
 0. 0. 0. 0.
 0. 0. 0. 0.
 0. 0. 0. 0.
 0. 0. 0. 0.
 0. 0. 0. 0.
 0. 0. 0. 0.
 0. 0. 0. 0.
 0. 0. 0. 0.
 0. 0. 0. 0.
 0. 0. 0. 0.
 0. 0. 0. 0.
 0. 0. 0. 0.
 0. 0. 0. 0.
 0. 0. 0. 0.
 0. 0. 0. 0.
 0. 0. 0. 0.
 0. 0. 0. 0.
 0. 0. 0. 0.
 0. 0. 0. 0.
 0. 0. 0. 0.
 0. 0. 0. 0.
 0. 0. 0. 0.
 0. 0. 0. 0.
 0. 0. 0. 0.
 0. 0. 0. 0.
 0. 0. 0. 0.
 0. 0. 0. 0.
 0. 0. 0. 0.
 0. 0. 0. 0.
 0. 0. 0. 0.
 0. 0. 0. 0.
 0. 0. 0. 0.
 0. 0. 0. 0.
 0. 0. 0. 0.
 0. 0. 0. 0.
   </PP_BETA.1>
   <PP_BETA.2
       type="real"
       size="1636"
       columns="4"
       index="2"
       angular_momentum="0"
       cutoff_radius_index=" 144"
       cutoff_radius="    1.4300000000E+00" >
   -2.8473038372E-08   -5.6866064554E-02   -1.1332803020E-01   -1.6898109388E-01
   -2.2341920812E-01   -2.7623486074E-01   -3.2701931493E-01   -3.7536342788E-01
   -4.2085913742E-01   -4.6310167311E-01   -5.0169251106E-01   -5.3624305331E-01
   -5.6637897344E-01   -5.9174513228E-01   -6.1201093309E-01   -6.2687595502E-01
   -6.3607567969E-01   -6.3938710805E-01   -6.3663405547E-01   -6.2769191207E-01
   -6.1249166315E-01   -5.9102298122E-01   -5.6333622601E-01   -5.2954322117E-01
   -4.8981671531E-01   -4.4438847908E-01   -3.9354603722E-01   -3.3762808427E-01
   -2.7701868141E-01   -2.1214037948E-01   -1.4344645642E-01   -7.1412495422E-02
    3.4724398746E-03    8.0714754357E-02    1.5982510404E-01    2.4032671987E-01
    3.2176298937E-01    4.0370403309E-01    4.8575204264E-01    5.6754518777E-01
    6.4875994786E-01    7.2911177870E-01    8.0835408585E-01    8.8627553891E-01
    9.6269582539E-01    1.0374600050E+00    1.1104316842E+00    1.1814852821E+00
    1.2504977044E+00    1.3173397742E+00    1.3818677926E+00    1.4439156082E+00
    1.5032875742E+00    1.5597527499E+00    1.6130406735E+00    1.6628389863E+00
    1.7087931330E+00    1.7505082943E+00    1.7875536328E+00    1.8194688522E+00
    1.8457729837E+00    1.8659752322E+00    1.8795876271E+00    1.8861391510E+00
    1.8851909475E+00    1.8763521537E+00    1.8592958578E+00    1.8337746534E+00
    1.7996352509E+00    1.7568316089E+00    1.7054360760E+00    1.6456480704E+00
    1.5777998863E+00    1.5023592873E+00    1.4199286368E+00    1.3312404117E+00
    1.2371490546E+00    1.1386192299E+00    1.0367106647E+00    9.3255986359E-01
    8.2735909676E-01    7.2233315149E-01    6.1871442605E-01    5.1771700989E-01
    4.2051044535E-01    3.2819389553E-01    2.4177145132E-01    1.6212929621E-01
    9.0015411162E-02    2.6022442913E-02   -2.9425719256E-02   -7.6083211028E-02
   -1.1388697045E-01   -1.4295681667E-01   -1.6359075614E-01   -1.7625558228E-01
   -1.8157297494E-01   -1.8030144364E-01   -1.7331458752E-01   -1.6157626332E-01
   -1.4611335487E-01   -1.2798692134E-01   -1.0826256408E-01   -8.7980897473E-02
   -6.8128929123E-02   -4.9607798151E-02   -3.3167802787E-02   -1.9497719711E-02
   -9.1675914921E-03   -2.5861349757E-03   -6.5858708348E-05   -1.2203314093E-05
    1.1708844285E-06    0.0000000000E+00    0.0000000000E+00    0.0000000000E+00
    0.0000000000E+00    0.0000000000E+00    0.0000000000E+00    0.0000000000E+00
    0.0000000000E+00    0.0000000000E+00    0.0000000000E+00    0.0000000000E+00
    0.0000000000E+00    0.0000000000E+00    0.0000000000E+00    0.0000000000E+00
    0.0000000000E+00    0.0000000000E+00    0.0000000000E+00    0.0000000000E+00
    0.0000000000E+00    0.0000000000E+00    0.0000000000E+00    0.0000000000E+00
    0.0000000000E+00    0.0000000000E+00    0.0000000000E+00    0.0000000000E+00
    0.0000000000E+00    0.0000000000E+00    0.0000000000E+00    0.0000000000E+00
 0. 0. 0. 0.
 0. 0. 0. 0.
 0. 0. 0. 0.
 0. 0. 0. 0.
 0. 0. 0. 0.
 0. 0. 0. 0.
 0. 0. 0. 0.
 0. 0. 0. 0.
 0. 0. 0. 0.
 0. 0. 0. 0.
 0. 0. 0. 0.
 0. 0. 0. 0.
 0. 0. 0. 0.
 0. 0. 0. 0.
 0. 0. 0. 0.
 0. 0. 0. 0.
 0. 0. 0. 0.
 0. 0. 0. 0.
 0. 0. 0. 0.
 0. 0. 0. 0.
 0. 0. 0. 0.
 0. 0. 0. 0.
 0. 0. 0. 0.
 0. 0. 0. 0.
 0. 0. 0. 0.
 0. 0. 0. 0.
 0. 0. 0. 0.
 0. 0. 0. 0.
 0. 0. 0. 0.
 0. 0. 0. 0.
 0. 0. 0. 0.
 0. 0. 0. 0.
 0. 0. 0. 0.
 0. 0. 0. 0.
 0. 0. 0. 0.
 0. 0. 0. 0.
 0. 0. 0. 0.
 0. 0. 0. 0.
 0. 0. 0. 0.
 0. 0. 0. 0.
 0. 0. 0. 0.
 0. 0. 0. 0.
 0. 0. 0. 0.
 0. 0. 0. 0.
 0. 0. 0. 0.
 0. 0. 0. 0.
 0. 0. 0. 0.
 0. 0. 0. 0.
 0. 0. 0. 0.
 0. 0. 0. 0.
 0. 0. 0. 0.
 0. 0. 0. 0.
 0. 0. 0. 0.
 0. 0. 0. 0.
 0. 0. 0. 0.
 0. 0. 0. 0.
 0. 0. 0. 0.
 0. 0. 0. 0.
 0. 0. 0. 0.
 0. 0. 0. 0.
 0. 0. 0. 0.
 0. 0. 0. 0.
 0. 0. 0. 0.
 0. 0. 0. 0.
 0. 0. 0. 0.
 0. 0. 0. 0.
 0. 0. 0. 0.
 0. 0. 0. 0.
 0. 0. 0. 0.
 0. 0. 0. 0.
 0. 0. 0. 0.
 0. 0. 0. 0.
 0. 0. 0. 0.
 0. 0. 0. 0.
 0. 0. 0. 0.
 0. 0. 0. 0.
 0. 0. 0. 0.
 0. 0. 0. 0.
 0. 0. 0. 0.
 0. 0. 0. 0.
 0. 0. 0. 0.
 0. 0. 0. 0.
 0. 0. 0. 0.
 0. 0. 0. 0.
 0. 0. 0. 0.
 0. 0. 0. 0.
 0. 0. 0. 0.
 0. 0. 0. 0.
 0. 0. 0. 0.
 0. 0. 0. 0.
 0. 0. 0. 0.
 0. 0. 0. 0.
 0. 0. 0. 0.
 0. 0. 0. 0.
 0. 0. 0. 0.
 0. 0. 0. 0.
 0. 0. 0. 0.
 0. 0. 0. 0.
 0. 0. 0. 0.
 0. 0. 0. 0.
 0. 0. 0. 0.
 0. 0. 0. 0.
 0. 0. 0. 0.
 0. 0. 0. 0.
 0. 0. 0. 0.
 0. 0. 0. 0.
 0. 0. 0. 0.
 0. 0. 0. 0.
 0. 0. 0. 0.
 0. 0. 0. 0.
 0. 0. 0. 0.
 0. 0. 0. 0.
 0. 0. 0. 0.
 0. 0. 0. 0.
 0. 0. 0. 0.
 0. 0. 0. 0.
 0. 0. 0. 0.
 0. 0. 0. 0.
 0. 0. 0. 0.
 0. 0. 0. 0.
 0. 0. 0. 0.
 0. 0. 0. 0.
 0. 0. 0. 0.
 0. 0. 0. 0.
 0. 0. 0. 0.
 0. 0. 0. 0.
 0. 0. 0. 0.
 0. 0. 0. 0.
 0. 0. 0. 0.
 0. 0. 0. 0.
 0. 0. 0. 0.
 0. 0. 0. 0.
 0. 0. 0. 0.
 0. 0. 0. 0.
 0. 0. 0. 0.
 0. 0. 0. 0.
 0. 0. 0. 0.
 0. 0. 0. 0.
 0. 0. 0. 0.
 0. 0. 0. 0.
 0. 0. 0. 0.
 0. 0. 0. 0.
 0. 0. 0. 0.
 0. 0. 0. 0.
 0. 0. 0. 0.
 0. 0. 0. 0.
 0. 0. 0. 0.
 0. 0. 0. 0.
 0. 0. 0. 0.
 0. 0. 0. 0.
 0. 0. 0. 0.
 0. 0. 0. 0.
 0. 0. 0. 0.
 0. 0. 0. 0.
 0. 0. 0. 0.
 0. 0. 0. 0.
 0. 0. 0. 0.
 0. 0. 0. 0.
 0. 0. 0. 0.
 0. 0. 0. 0.
 0. 0. 0. 0.
 0. 0. 0. 0.
 0. 0. 0. 0.
 0. 0. 0. 0.
 0. 0. 0. 0.
 0. 0. 0. 0.
 0. 0. 0. 0.
 0. 0. 0. 0.
 0. 0. 0. 0.
 0. 0. 0. 0.
 0. 0. 0. 0.
 0. 0. 0. 0.
 0. 0. 0. 0.
 0. 0. 0. 0.
 0. 0. 0. 0.
 0. 0. 0. 0.
 0. 0. 0. 0.
 0. 0. 0. 0.
 0. 0. 0. 0.
 0. 0. 0. 0.
 0. 0. 0. 0.
 0. 0. 0. 0.
 0. 0. 0. 0.
 0. 0. 0. 0.
 0. 0. 0. 0.
 0. 0. 0. 0.
 0. 0. 0. 0.
 0. 0. 0. 0.
 0. 0. 0. 0.
 0. 0. 0. 0.
 0. 0. 0. 0.
 0. 0. 0. 0.
 0. 0. 0. 0.
 0. 0. 0. 0.
 0. 0. 0. 0.
 0. 0. 0. 0.
 0. 0. 0. 0.
 0. 0. 0. 0.
 0. 0. 0. 0.
 0. 0. 0. 0.
 0. 0. 0. 0.
 0. 0. 0. 0.
 0. 0. 0. 0.
 0. 0. 0. 0.
 0. 0. 0. 0.
 0. 0. 0. 0.
 0. 0. 0. 0.
 0. 0. 0. 0.
 0. 0. 0. 0.
 0. 0. 0. 0.
 0. 0. 0. 0.
 0. 0. 0. 0.
 0. 0. 0. 0.
 0. 0. 0. 0.
 0. 0. 0. 0.
 0. 0. 0. 0.
 0. 0. 0. 0.
 0. 0. 0. 0.
 0. 0. 0. 0.
 0. 0. 0. 0.
 0. 0. 0. 0.
 0. 0. 0. 0.
 0. 0. 0. 0.
 0. 0. 0. 0.
 0. 0. 0. 0.
 0. 0. 0. 0.
 0. 0. 0. 0.
 0. 0. 0. 0.
 0. 0. 0. 0.
 0. 0. 0. 0.
 0. 0. 0. 0.
 0. 0. 0. 0.
 0. 0. 0. 0.
 0. 0. 0. 0.
 0. 0. 0. 0.
 0. 0. 0. 0.
 0. 0. 0. 0.
 0. 0. 0. 0.
 0. 0. 0. 0.
 0. 0. 0. 0.
 0. 0. 0. 0.
 0. 0. 0. 0.
 0. 0. 0. 0.
 0. 0. 0. 0.
 0. 0. 0. 0.
 0. 0. 0. 0.
 0. 0. 0. 0.
 0. 0. 0. 0.
 0. 0. 0. 0.
 0. 0. 0. 0.
 0. 0. 0. 0.
 0. 0. 0. 0.
 0. 0. 0. 0.
 0. 0. 0. 0.
 0. 0. 0. 0.
 0. 0. 0. 0.
 0. 0. 0. 0.
 0. 0. 0. 0.
 0. 0. 0. 0.
 0. 0. 0. 0.
 0. 0. 0. 0.
 0. 0. 0. 0.
 0. 0. 0. 0.
 0. 0. 0. 0.
 0. 0. 0. 0.
 0. 0. 0. 0.
 0. 0. 0. 0.
 0. 0. 0. 0.
 0. 0. 0. 0.
 0. 0. 0. 0.
 0. 0. 0. 0.
 0. 0. 0. 0.
 0. 0. 0. 0.
 0. 0. 0. 0.
 0. 0. 0. 0.
 0. 0. 0. 0.
 0. 0. 0. 0.
 0. 0. 0. 0.
 0. 0. 0. 0.
 0. 0. 0. 0.
 0. 0. 0. 0.
 0. 0. 0. 0.
 0. 0. 0. 0.
 0. 0. 0. 0.
 0. 0. 0. 0.
 0. 0. 0. 0.
 0. 0. 0. 0.
 0. 0. 0. 0.
 0. 0. 0. 0.
 0. 0. 0. 0.
 0. 0. 0. 0.
 0. 0. 0. 0.
 0. 0. 0. 0.
 0. 0. 0. 0.
 0. 0. 0. 0.
 0. 0. 0. 0.
 0. 0. 0. 0.
 0. 0. 0. 0.
 0. 0. 0. 0.
 0. 0. 0. 0.
 0. 0. 0. 0.
 0. 0. 0. 0.
 0. 0. 0. 0.
 0. 0. 0. 0.
 0. 0. 0. 0.
 0. 0. 0. 0.
 0. 0. 0. 0.
 0. 0. 0. 0.
 0. 0. 0. 0.
 0. 0. 0. 0.
 0. 0. 0. 0.
 0. 0. 0. 0.
 0. 0. 0. 0.
 0. 0. 0. 0.
 0. 0. 0. 0.
 0. 0. 0. 0.
 0. 0. 0. 0.
 0. 0. 0. 0.
 0. 0. 0. 0.
 0. 0. 0. 0.
 0. 0. 0. 0.
 0. 0. 0. 0.
 0. 0. 0. 0.
 0. 0. 0. 0.
 0. 0. 0. 0.
 0. 0. 0. 0.
 0. 0. 0. 0.
 0. 0. 0. 0.
 0. 0. 0. 0.
 0. 0. 0. 0.
 0. 0. 0. 0.
 0. 0. 0. 0.
 0. 0. 0. 0.
 0. 0. 0. 0.
 0. 0. 0. 0.
 0. 0. 0. 0.
 0. 0. 0. 0.
 0. 0. 0. 0.
 0. 0. 0. 0.
 0. 0. 0. 0.
 0. 0. 0. 0.
 0. 0. 0. 0.
 0. 0. 0. 0.
 0. 0. 0. 0.
 0. 0. 0. 0.
 0. 0. 0. 0.
 0. 0. 0. 0.
 0. 0. 0. 0.
 0. 0. 0. 0.
 0. 0. 0. 0.
 0. 0. 0. 0.
 0. 0. 0. 0.
 0. 0. 0. 0.
 0. 0. 0. 0.
 0. 0. 0. 0.
 0. 0. 0. 0.
 0. 0. 0. 0.
 0. 0. 0. 0.
 0. 0. 0. 0.
 0. 0. 0. 0.
 0. 0. 0. 0.
 0. 0. 0. 0.
 0. 0. 0. 0.
 0. 0. 0. 0.
 0. 0. 0. 0.
 0. 0. 0. 0.
 0. 0. 0. 0.
 0. 0. 0. 0.
 0. 0. 0. 0.
 0. 0. 0. 0.
 0. 0. 0. 0.
 0. 0. 0. 0.
 0. 0. 0. 0.
   </PP_BETA.2>
   <PP_BETA.3
       type="real"
       size="1636"
       columns="4"
       index="3"
       angular_momentum="1"
       cutoff_radius_index=" 144"
       cutoff_radius="    1.4300000000E+00" >
    2.0842322423E-08    3.6701917762E-03    1.4646632728E-02    3.2827444800E-02
    5.8044567791E-02    9.0066316698E-02    1.2860086854E-01    1.7330058865E-01
    2.2376708572E-01    2.7955686715E-01    3.4018745336E-01    4.0514380004E-01
    4.7388487348E-01    5.4585022416E-01    6.2046640917E-01    6.9715312376E-01
    7.7532891617E-01    8.5441637808E-01    9.3384672385E-01    1.0130636953E+00
    1.0915267548E+00    1.1687135539E+00    1.2441216949E+00    1.3172698232E+00
    1.3876981168E+00    1.4549682580E+00    1.5186629916E+00    1.5783853881E+00
    1.6337579401E+00    1.6844216253E+00    1.7300350701E+00    1.7702739422E+00
    1.8048306910E+00    1.8334147398E+00    1.8557532156E+00    1.8715922768E+00
    1.8806990769E+00    1.8828643720E+00    1.8779057492E+00    1.8656714262E+00
    1.8460445403E+00    1.8189478176E+00    1.7843484901E+00    1.7422633031E+00
    1.6927634408E+00    1.6359791844E+00    1.5721041098E+00    1.5013986324E+00
    1.4241927109E+00    1.3408875349E+00    1.2519560373E+00    1.1579420997E+00
    1.0594583447E+00    9.5718244469E-01    8.5185191552E-01    7.4425740070E-01
    6.3523449751E-01    5.2565421656E-01    4.1641220924E-01    3.0841693733E-01
    2.0257699541E-01    9.9787829122E-02    9.1811908938E-04   -9.3203879445E-02
   -1.8180373793E-01   -2.6417368814E-01   -3.3968458214E-01   -4.0779668392E-01
   -4.6806901707E-01   -5.2016702024E-01   -5.6386829685E-01   -5.9906628651E-01
   -6.2577173267E-01   -6.4411187217E-01   -6.5432732701E-01   -6.5676673485E-01
   -6.5187921127E-01   -6.4020479197E-01   -6.2236305570E-01   -5.9904017658E-01
   -5.7097469699E-01   -5.3894234782E-01   -5.0374026995E-01   -4.6617100981E-01
   -4.2702667030E-01   -3.8707359787E-01   -3.4703797486E-01   -3.0759266558E-01
   -2.6934563373E-01   -2.3283020937E-01   -1.9849743626E-01   -1.6671067632E-01
   -1.3774258854E-01   -1.1177453619E-01   -8.8898411090E-02   -6.9120797338E-02
   -5.2369332789E-02   -3.8501064745E-02   -2.7312539758E-02   -1.8551316976E-02
   -1.1928551751E-02   -7.1322624939E-03   -3.8408698675E-03   -1.7365792460E-03
   -5.1823859072E-04    8.3064018472E-05    2.6592227377E-04    2.2423337041E-04
    1.1262656678E-04    2.7118934079E-05    3.7786000446E-07    8.8542967176E-08
   -1.0299818803E-08    0.0000000000E+00    0.0000000000E+00    0.0000000000E+00
    0.0000000000E+00    0.0000000000E+00    0.0000000000E+00    0.0000000000E+00
    0.0000000000E+00    0.0000000000E+00    0.0000000000E+00    0.0000000000E+00
    0.0000000000E+00    0.0000000000E+00    0.0000000000E+00    0.0000000000E+00
    0.0000000000E+00    0.0000000000E+00    0.0000000000E+00    0.0000000000E+00
    0.0000000000E+00    0.0000000000E+00    0.0000000000E+00    0.0000000000E+00
    0.0000000000E+00    0.0000000000E+00    0.0000000000E+00    0.0000000000E+00
    0.0000000000E+00    0.0000000000E+00    0.0000000000E+00    0.0000000000E+00
 0. 0. 0. 0.
 0. 0. 0. 0.
 0. 0. 0. 0.
 0. 0. 0. 0.
 0. 0. 0. 0.
 0. 0. 0. 0.
 0. 0. 0. 0.
 0. 0. 0. 0.
 0. 0. 0. 0.
 0. 0. 0. 0.
 0. 0. 0. 0.
 0. 0. 0. 0.
 0. 0. 0. 0.
 0. 0. 0. 0.
 0. 0. 0. 0.
 0. 0. 0. 0.
 0. 0. 0. 0.
 0. 0. 0. 0.
 0. 0. 0. 0.
 0. 0. 0. 0.
 0. 0. 0. 0.
 0. 0. 0. 0.
 0. 0. 0. 0.
 0. 0. 0. 0.
 0. 0. 0. 0.
 0. 0. 0. 0.
 0. 0. 0. 0.
 0. 0. 0. 0.
 0. 0. 0. 0.
 0. 0. 0. 0.
 0. 0. 0. 0.
 0. 0. 0. 0.
 0. 0. 0. 0.
 0. 0. 0. 0.
 0. 0. 0. 0.
 0. 0. 0. 0.
 0. 0. 0. 0.
 0. 0. 0. 0.
 0. 0. 0. 0.
 0. 0. 0. 0.
 0. 0. 0. 0.
 0. 0. 0. 0.
 0. 0. 0. 0.
 0. 0. 0. 0.
 0. 0. 0. 0.
 0. 0. 0. 0.
 0. 0. 0. 0.
 0. 0. 0. 0.
 0. 0. 0. 0.
 0. 0. 0. 0.
 0. 0. 0. 0.
 0. 0. 0. 0.
 0. 0. 0. 0.
 0. 0. 0. 0.
 0. 0. 0. 0.
 0. 0. 0. 0.
 0. 0. 0. 0.
 0. 0. 0. 0.
 0. 0. 0. 0.
 0. 0. 0. 0.
 0. 0. 0. 0.
 0. 0. 0. 0.
 0. 0. 0. 0.
 0. 0. 0. 0.
 0. 0. 0. 0.
 0. 0. 0. 0.
 0. 0. 0. 0.
 0. 0. 0. 0.
 0. 0. 0. 0.
 0. 0. 0. 0.
 0. 0. 0. 0.
 0. 0. 0. 0.
 0. 0. 0. 0.
 0. 0. 0. 0.
 0. 0. 0. 0.
 0. 0. 0. 0.
 0. 0. 0. 0.
 0. 0. 0. 0.
 0. 0. 0. 0.
 0. 0. 0. 0.
 0. 0. 0. 0.
 0. 0. 0. 0.
 0. 0. 0. 0.
 0. 0. 0. 0.
 0. 0. 0. 0.
 0. 0. 0. 0.
 0. 0. 0. 0.
 0. 0. 0. 0.
 0. 0. 0. 0.
 0. 0. 0. 0.
 0. 0. 0. 0.
 0. 0. 0. 0.
 0. 0. 0. 0.
 0. 0. 0. 0.
 0. 0. 0. 0.
 0. 0. 0. 0.
 0. 0. 0. 0.
 0. 0. 0. 0.
 0. 0. 0. 0.
 0. 0. 0. 0.
 0. 0. 0. 0.
 0. 0. 0. 0.
 0. 0. 0. 0.
 0. 0. 0. 0.
 0. 0. 0. 0.
 0. 0. 0. 0.
 0. 0. 0. 0.
 0. 0. 0. 0.
 0. 0. 0. 0.
 0. 0. 0. 0.
 0. 0. 0. 0.
 0. 0. 0. 0.
 0. 0. 0. 0.
 0. 0. 0. 0.
 0. 0. 0. 0.
 0. 0. 0. 0.
 0. 0. 0. 0.
 0. 0. 0. 0.
 0. 0. 0. 0.
 0. 0. 0. 0.
 0. 0. 0. 0.
 0. 0. 0. 0.
 0. 0. 0. 0.
 0. 0. 0. 0.
 0. 0. 0. 0.
 0. 0. 0. 0.
 0. 0. 0. 0.
 0. 0. 0. 0.
 0. 0. 0. 0.
 0. 0. 0. 0.
 0. 0. 0. 0.
 0. 0. 0. 0.
 0. 0. 0. 0.
 0. 0. 0. 0.
 0. 0. 0. 0.
 0. 0. 0. 0.
 0. 0. 0. 0.
 0. 0. 0. 0.
 0. 0. 0. 0.
 0. 0. 0. 0.
 0. 0. 0. 0.
 0. 0. 0. 0.
 0. 0. 0. 0.
 0. 0. 0. 0.
 0. 0. 0. 0.
 0. 0. 0. 0.
 0. 0. 0. 0.
 0. 0. 0. 0.
 0. 0. 0. 0.
 0. 0. 0. 0.
 0. 0. 0. 0.
 0. 0. 0. 0.
 0. 0. 0. 0.
 0. 0. 0. 0.
 0. 0. 0. 0.
 0. 0. 0. 0.
 0. 0. 0. 0.
 0. 0. 0. 0.
 0. 0. 0. 0.
 0. 0. 0. 0.
 0. 0. 0. 0.
 0. 0. 0. 0.
 0. 0. 0. 0.
 0. 0. 0. 0.
 0. 0. 0. 0.
 0. 0. 0. 0.
 0. 0. 0. 0.
 0. 0. 0. 0.
 0. 0. 0. 0.
 0. 0. 0. 0.
 0. 0. 0. 0.
 0. 0. 0. 0.
 0. 0. 0. 0.
 0. 0. 0. 0.
 0. 0. 0. 0.
 0. 0. 0. 0.
 0. 0. 0. 0.
 0. 0. 0. 0.
 0. 0. 0. 0.
 0. 0. 0. 0.
 0. 0. 0. 0.
 0. 0. 0. 0.
 0. 0. 0. 0.
 0. 0. 0. 0.
 0. 0. 0. 0.
 0. 0. 0. 0.
 0. 0. 0. 0.
 0. 0. 0. 0.
 0. 0. 0. 0.
 0. 0. 0. 0.
 0. 0. 0. 0.
 0. 0. 0. 0.
 0. 0. 0. 0.
 0. 0. 0. 0.
 0. 0. 0. 0.
 0. 0. 0. 0.
 0. 0. 0. 0.
 0. 0. 0. 0.
 0. 0. 0. 0.
 0. 0. 0. 0.
 0. 0. 0. 0.
 0. 0. 0. 0.
 0. 0. 0. 0.
 0. 0. 0. 0.
 0. 0. 0. 0.
 0. 0. 0. 0.
 0. 0. 0. 0.
 0. 0. 0. 0.
 0. 0. 0. 0.
 0. 0. 0. 0.
 0. 0. 0. 0.
 0. 0. 0. 0.
 0. 0. 0. 0.
 0. 0. 0. 0.
 0. 0. 0. 0.
 0. 0. 0. 0.
 0. 0. 0. 0.
 0. 0. 0. 0.
 0. 0. 0. 0.
 0. 0. 0. 0.
 0. 0. 0. 0.
 0. 0. 0. 0.
 0. 0. 0. 0.
 0. 0. 0. 0.
 0. 0. 0. 0.
 0. 0. 0. 0.
 0. 0. 0. 0.
 0. 0. 0. 0.
 0. 0. 0. 0.
 0. 0. 0. 0.
 0. 0. 0. 0.
 0. 0. 0. 0.
 0. 0. 0. 0.
 0. 0. 0. 0.
 0. 0. 0. 0.
 0. 0. 0. 0.
 0. 0. 0. 0.
 0. 0. 0. 0.
 0. 0. 0. 0.
 0. 0. 0. 0.
 0. 0. 0. 0.
 0. 0. 0. 0.
 0. 0. 0. 0.
 0. 0. 0. 0.
 0. 0. 0. 0.
 0. 0. 0. 0.
 0. 0. 0. 0.
 0. 0. 0. 0.
 0. 0. 0. 0.
 0. 0. 0. 0.
 0. 0. 0. 0.
 0. 0. 0. 0.
 0. 0. 0. 0.
 0. 0. 0. 0.
 0. 0. 0. 0.
 0. 0. 0. 0.
 0. 0. 0. 0.
 0. 0. 0. 0.
 0. 0. 0. 0.
 0. 0. 0. 0.
 0. 0. 0. 0.
 0. 0. 0. 0.
 0. 0. 0. 0.
 0. 0. 0. 0.
 0. 0. 0. 0.
 0. 0. 0. 0.
 0. 0. 0. 0.
 0. 0. 0. 0.
 0. 0. 0. 0.
 0. 0. 0. 0.
 0. 0. 0. 0.
 0. 0. 0. 0.
 0. 0. 0. 0.
 0. 0. 0. 0.
 0. 0. 0. 0.
 0. 0. 0. 0.
 0. 0. 0. 0.
 0. 0. 0. 0.
 0. 0. 0. 0.
 0. 0. 0. 0.
 0. 0. 0. 0.
 0. 0. 0. 0.
 0. 0. 0. 0.
 0. 0. 0. 0.
 0. 0. 0. 0.
 0. 0. 0. 0.
 0. 0. 0. 0.
 0. 0. 0. 0.
 0. 0. 0. 0.
 0. 0. 0. 0.
 0. 0. 0. 0.
 0. 0. 0. 0.
 0. 0. 0. 0.
 0. 0. 0. 0.
 0. 0. 0. 0.
 0. 0. 0. 0.
 0. 0. 0. 0.
 0. 0. 0. 0.
 0. 0. 0. 0.
 0. 0. 0. 0.
 0. 0. 0. 0.
 0. 0. 0. 0.
 0. 0. 0. 0.
 0. 0. 0. 0.
 0. 0. 0. 0.
 0. 0. 0. 0.
 0. 0. 0. 0.
 0. 0. 0. 0.
 0. 0. 0. 0.
 0. 0. 0. 0.
 0. 0. 0. 0.
 0. 0. 0. 0.
 0. 0. 0. 0.
 0. 0. 0. 0.
 0. 0. 0. 0.
 0. 0. 0. 0.
 0. 0. 0. 0.
 0. 0. 0. 0.
 0. 0. 0. 0.
 0. 0. 0. 0.
 0. 0. 0. 0.
 0. 0. 0. 0.
 0. 0. 0. 0.
 0. 0. 0. 0.
 0. 0. 0. 0.
 0. 0. 0. 0.
 0. 0. 0. 0.
 0. 0. 0. 0.
 0. 0. 0. 0.
 0. 0. 0. 0.
 0. 0. 0. 0.
 0. 0. 0. 0.
 0. 0. 0. 0.
 0. 0. 0. 0.
 0. 0. 0. 0.
 0. 0. 0. 0.
 0. 0. 0. 0.
 0. 0. 0. 0.
 0. 0. 0. 0.
 0. 0. 0. 0.
 0. 0. 0. 0.
 0. 0. 0. 0.
 0. 0. 0. 0.
 0. 0. 0. 0.
 0. 0. 0. 0.
 0. 0. 0. 0.
 0. 0. 0. 0.
 0. 0. 0. 0.
 0. 0. 0. 0.
 0. 0. 0. 0.
 0. 0. 0. 0.
 0. 0. 0. 0.
 0. 0. 0. 0.
 0. 0. 0. 0.
 0. 0. 0. 0.
 0. 0. 0. 0.
 0. 0. 0. 0.
 0. 0. 0. 0.
 0. 0. 0. 0.
 0. 0. 0. 0.
 0. 0. 0. 0.
 0. 0. 0. 0.
 0. 0. 0. 0.
 0. 0. 0. 0.
 0. 0. 0. 0.
 0. 0. 0. 0.
 0. 0. 0. 0.
 0. 0. 0. 0.
 0. 0. 0. 0.
 0. 0. 0. 0.
 0. 0. 0. 0.
 0. 0. 0. 0.
 0. 0. 0. 0.
   </PP_BETA.3>
   <PP_BETA.4
       type="real"
       size="1636"
       columns="4"
       index="4"
       angular_momentum="1"
       cutoff_radius_index=" 144"
       cutoff_radius="    1.4300000000E+00" >
   -5.6183813490E-08   -1.3523347268E-03   -5.3740265177E-03   -1.1960223633E-02
   -2.0939753217E-02   -3.2080359452E-02   -4.5095777819E-02   -5.9654396897E-02
   -7.5389203013E-02   -9.1908657257E-02   -1.0880812072E-01   -1.2568142339E-01
   -1.4213216592E-01   -1.5778435120E-01   -1.7229196545E-01   -1.8534716397E-01
   -1.9668676537E-01   -2.0609681749E-01   -2.1341506674E-01   -2.1853123814E-01
   -2.2138511331E-01   -2.2196247531E-01   -2.2028907002E-01   -2.1642281112E-01
   -2.1044452581E-01   -2.0244760103E-01   -1.9252693965E-01   -1.8076767437E-01
   -1.6723410933E-01   -1.5195936665E-01   -1.3493620576E-01   -1.1610945727E-01
   -9.5370471306E-02   -7.2553922956E-02   -4.7437246691E-02   -1.9742889153E-02
    1.0856522359E-02    4.4730096841E-02    8.2277785438E-02    1.2391688238E-01
    1.7006622712E-01    2.2112850769E-01    2.7747114988E-01    3.3940634927E-01
    4.0717086054E-01    4.8090619891E-01    5.6063992978E-01    6.4626872353E-01
    7.3754383258E-01    8.3405960672E-01    9.3524560089E-01    1.0403627489E+00
    1.1485039779E+00    1.2585995250E+00    1.3694270917E+00    1.4796268360E+00
    1.5877210639E+00    1.6921383397E+00    1.7912415961E+00    1.8833596945E+00
    1.9668217652E+00    2.0399935517E+00    2.1013148973E+00    2.1493374440E+00
    2.1827615752E+00    2.2004716151E+00    2.2015683089E+00    2.1853976470E+00
    2.1515751618E+00    2.1000049147E+00    2.0308925081E+00    1.9447515947E+00
    1.8424035066E+00    1.7249698025E+00    1.5938577035E+00    1.4507385771E+00
    1.2975198121E+00    1.1363106049E+00    9.6938235070E-01    7.9912448563E-01
    6.2799676280E-01    4.5847905763E-01    2.9301988247E-01    1.3398484694E-01
   -1.6393676503E-02   -1.5606443123E-01   -2.8320149221E-01   -3.9624368713E-01
   -4.9392819884E-01   -5.7531746097E-01   -6.3981862134E-01   -6.8719503143E-01
   -7.1756942201E-01   -7.3141863859E-01   -7.2956003054E-01   -7.1312980918E-01
   -6.8355390620E-01   -6.4251206899E-01   -5.9189611875E-01   -5.3376346452E-01
   -4.7028710719E-01   -4.0370347907E-01   -3.3625954143E-01   -2.7016060956E-01
   -2.0752027969E-01   -1.5031044581E-01   -1.0028288747E-01   -5.9011561622E-02
   -2.7859872774E-02   -7.9147458936E-03   -2.0394451480E-04   -3.7642902967E-05
    3.5971951110E-06    0.0000000000E+00    0.0000000000E+00    0.0000000000E+00
    0.0000000000E+00    0.0000000000E+00    0.0000000000E+00    0.0000000000E+00
    0.0000000000E+00    0.0000000000E+00    0.0000000000E+00    0.0000000000E+00
    0.0000000000E+00    0.0000000000E+00    0.0000000000E+00    0.0000000000E+00
    0.0000000000E+00    0.0000000000E+00    0.0000000000E+00    0.0000000000E+00
    0.0000000000E+00    0.0000000000E+00    0.0000000000E+00    0.0000000000E+00
    0.0000000000E+00    0.0000000000E+00    0.0000000000E+00    0.0000000000E+00
    0.0000000000E+00    0.0000000000E+00    0.0000000000E+00    0.0000000000E+00
 0. 0. 0. 0.
 0. 0. 0. 0.
 0. 0. 0. 0.
 0. 0. 0. 0.
 0. 0. 0. 0.
 0. 0. 0. 0.
 0. 0. 0. 0.
 0. 0. 0. 0.
 0. 0. 0. 0.
 0. 0. 0. 0.
 0. 0. 0. 0.
 0. 0. 0. 0.
 0. 0. 0. 0.
 0. 0. 0. 0.
 0. 0. 0. 0.
 0. 0. 0. 0.
 0. 0. 0. 0.
 0. 0. 0. 0.
 0. 0. 0. 0.
 0. 0. 0. 0.
 0. 0. 0. 0.
 0. 0. 0. 0.
 0. 0. 0. 0.
 0. 0. 0. 0.
 0. 0. 0. 0.
 0. 0. 0. 0.
 0. 0. 0. 0.
 0. 0. 0. 0.
 0. 0. 0. 0.
 0. 0. 0. 0.
 0. 0. 0. 0.
 0. 0. 0. 0.
 0. 0. 0. 0.
 0. 0. 0. 0.
 0. 0. 0. 0.
 0. 0. 0. 0.
 0. 0. 0. 0.
 0. 0. 0. 0.
 0. 0. 0. 0.
 0. 0. 0. 0.
 0. 0. 0. 0.
 0. 0. 0. 0.
 0. 0. 0. 0.
 0. 0. 0. 0.
 0. 0. 0. 0.
 0. 0. 0. 0.
 0. 0. 0. 0.
 0. 0. 0. 0.
 0. 0. 0. 0.
 0. 0. 0. 0.
 0. 0. 0. 0.
 0. 0. 0. 0.
 0. 0. 0. 0.
 0. 0. 0. 0.
 0. 0. 0. 0.
 0. 0. 0. 0.
 0. 0. 0. 0.
 0. 0. 0. 0.
 0. 0. 0. 0.
 0. 0. 0. 0.
 0. 0. 0. 0.
 0. 0. 0. 0.
 0. 0. 0. 0.
 0. 0. 0. 0.
 0. 0. 0. 0.
 0. 0. 0. 0.
 0. 0. 0. 0.
 0. 0. 0. 0.
 0. 0. 0. 0.
 0. 0. 0. 0.
 0. 0. 0. 0.
 0. 0. 0. 0.
 0. 0. 0. 0.
 0. 0. 0. 0.
 0. 0. 0. 0.
 0. 0. 0. 0.
 0. 0. 0. 0.
 0. 0. 0. 0.
 0. 0. 0. 0.
 0. 0. 0. 0.
 0. 0. 0. 0.
 0. 0. 0. 0.
 0. 0. 0. 0.
 0. 0. 0. 0.
 0. 0. 0. 0.
 0. 0. 0. 0.
 0. 0. 0. 0.
 0. 0. 0. 0.
 0. 0. 0. 0.
 0. 0. 0. 0.
 0. 0. 0. 0.
 0. 0. 0. 0.
 0. 0. 0. 0.
 0. 0. 0. 0.
 0. 0. 0. 0.
 0. 0. 0. 0.
 0. 0. 0. 0.
 0. 0. 0. 0.
 0. 0. 0. 0.
 0. 0. 0. 0.
 0. 0. 0. 0.
 0. 0. 0. 0.
 0. 0. 0. 0.
 0. 0. 0. 0.
 0. 0. 0. 0.
 0. 0. 0. 0.
 0. 0. 0. 0.
 0. 0. 0. 0.
 0. 0. 0. 0.
 0. 0. 0. 0.
 0. 0. 0. 0.
 0. 0. 0. 0.
 0. 0. 0. 0.
 0. 0. 0. 0.
 0. 0. 0. 0.
 0. 0. 0. 0.
 0. 0. 0. 0.
 0. 0. 0. 0.
 0. 0. 0. 0.
 0. 0. 0. 0.
 0. 0. 0. 0.
 0. 0. 0. 0.
 0. 0. 0. 0.
 0. 0. 0. 0.
 0. 0. 0. 0.
 0. 0. 0. 0.
 0. 0. 0. 0.
 0. 0. 0. 0.
 0. 0. 0. 0.
 0. 0. 0. 0.
 0. 0. 0. 0.
 0. 0. 0. 0.
 0. 0. 0. 0.
 0. 0. 0. 0.
 0. 0. 0. 0.
 0. 0. 0. 0.
 0. 0. 0. 0.
 0. 0. 0. 0.
 0. 0. 0. 0.
 0. 0. 0. 0.
 0. 0. 0. 0.
 0. 0. 0. 0.
 0. 0. 0. 0.
 0. 0. 0. 0.
 0. 0. 0. 0.
 0. 0. 0. 0.
 0. 0. 0. 0.
 0. 0. 0. 0.
 0. 0. 0. 0.
 0. 0. 0. 0.
 0. 0. 0. 0.
 0. 0. 0. 0.
 0. 0. 0. 0.
 0. 0. 0. 0.
 0. 0. 0. 0.
 0. 0. 0. 0.
 0. 0. 0. 0.
 0. 0. 0. 0.
 0. 0. 0. 0.
 0. 0. 0. 0.
 0. 0. 0. 0.
 0. 0. 0. 0.
 0. 0. 0. 0.
 0. 0. 0. 0.
 0. 0. 0. 0.
 0. 0. 0. 0.
 0. 0. 0. 0.
 0. 0. 0. 0.
 0. 0. 0. 0.
 0. 0. 0. 0.
 0. 0. 0. 0.
 0. 0. 0. 0.
 0. 0. 0. 0.
 0. 0. 0. 0.
 0. 0. 0. 0.
 0. 0. 0. 0.
 0. 0. 0. 0.
 0. 0. 0. 0.
 0. 0. 0. 0.
 0. 0. 0. 0.
 0. 0. 0. 0.
 0. 0. 0. 0.
 0. 0. 0. 0.
 0. 0. 0. 0.
 0. 0. 0. 0.
 0. 0. 0. 0.
 0. 0. 0. 0.
 0. 0. 0. 0.
 0. 0. 0. 0.
 0. 0. 0. 0.
 0. 0. 0. 0.
 0. 0. 0. 0.
 0. 0. 0. 0.
 0. 0. 0. 0.
 0. 0. 0. 0.
 0. 0. 0. 0.
 0. 0. 0. 0.
 0. 0. 0. 0.
 0. 0. 0. 0.
 0. 0. 0. 0.
 0. 0. 0. 0.
 0. 0. 0. 0.
 0. 0. 0. 0.
 0. 0. 0. 0.
 0. 0. 0. 0.
 0. 0. 0. 0.
 0. 0. 0. 0.
 0. 0. 0. 0.
 0. 0. 0. 0.
 0. 0. 0. 0.
 0. 0. 0. 0.
 0. 0. 0. 0.
 0. 0. 0. 0.
 0. 0. 0. 0.
 0. 0. 0. 0.
 0. 0. 0. 0.
 0. 0. 0. 0.
 0. 0. 0. 0.
 0. 0. 0. 0.
 0. 0. 0. 0.
 0. 0. 0. 0.
 0. 0. 0. 0.
 0. 0. 0. 0.
 0. 0. 0. 0.
 0. 0. 0. 0.
 0. 0. 0. 0.
 0. 0. 0. 0.
 0. 0. 0. 0.
 0. 0. 0. 0.
 0. 0. 0. 0.
 0. 0. 0. 0.
 0. 0. 0. 0.
 0. 0. 0. 0.
 0. 0. 0. 0.
 0. 0. 0. 0.
 0. 0. 0. 0.
 0. 0. 0. 0.
 0. 0. 0. 0.
 0. 0. 0. 0.
 0. 0. 0. 0.
 0. 0. 0. 0.
 0. 0. 0. 0.
 0. 0. 0. 0.
 0. 0. 0. 0.
 0. 0. 0. 0.
 0. 0. 0. 0.
 0. 0. 0. 0.
 0. 0. 0. 0.
 0. 0. 0. 0.
 0. 0. 0. 0.
 0. 0. 0. 0.
 0. 0. 0. 0.
 0. 0. 0. 0.
 0. 0. 0. 0.
 0. 0. 0. 0.
 0. 0. 0. 0.
 0. 0. 0. 0.
 0. 0. 0. 0.
 0. 0. 0. 0.
 0. 0. 0. 0.
 0. 0. 0. 0.
 0. 0. 0. 0.
 0. 0. 0. 0.
 0. 0. 0. 0.
 0. 0. 0. 0.
 0. 0. 0. 0.
 0. 0. 0. 0.
 0. 0. 0. 0.
 0. 0. 0. 0.
 0. 0. 0. 0.
 0. 0. 0. 0.
 0. 0. 0. 0.
 0. 0. 0. 0.
 0. 0. 0. 0.
 0. 0. 0. 0.
 0. 0. 0. 0.
 0. 0. 0. 0.
 0. 0. 0. 0.
 0. 0. 0. 0.
 0. 0. 0. 0.
 0. 0. 0. 0.
 0. 0. 0. 0.
 0. 0. 0. 0.
 0. 0. 0. 0.
 0. 0. 0. 0.
 0. 0. 0. 0.
 0. 0. 0. 0.
 0. 0. 0. 0.
 0. 0. 0. 0.
 0. 0. 0. 0.
 0. 0. 0. 0.
 0. 0. 0. 0.
 0. 0. 0. 0.
 0. 0. 0. 0.
 0. 0. 0. 0.
 0. 0. 0. 0.
 0. 0. 0. 0.
 0. 0. 0. 0.
 0. 0. 0. 0.
 0. 0. 0. 0.
 0. 0. 0. 0.
 0. 0. 0. 0.
 0. 0. 0. 0.
 0. 0. 0. 0.
 0. 0. 0. 0.
 0. 0. 0. 0.
 0. 0. 0. 0.
 0. 0. 0. 0.
 0. 0. 0. 0.
 0. 0. 0. 0.
 0. 0. 0. 0.
 0. 0. 0. 0.
 0. 0. 0. 0.
 0. 0. 0. 0.
 0. 0. 0. 0.
 0. 0. 0. 0.
 0. 0. 0. 0.
 0. 0. 0. 0.
 0. 0. 0. 0.
 0. 0. 0. 0.
 0. 0. 0. 0.
 0. 0. 0. 0.
 0. 0. 0. 0.
 0. 0. 0. 0.
 0. 0. 0. 0.
 0. 0. 0. 0.
 0. 0. 0. 0.
 0. 0. 0. 0.
 0. 0. 0. 0.
 0. 0. 0. 0.
 0. 0. 0. 0.
 0. 0. 0. 0.
 0. 0. 0. 0.
 0. 0. 0. 0.
 0. 0. 0. 0.
 0. 0. 0. 0.
 0. 0. 0. 0.
 0. 0. 0. 0.
 0. 0. 0. 0.
 0. 0. 0. 0.
 0. 0. 0. 0.
 0. 0. 0. 0.
 0. 0. 0. 0.
 0. 0. 0. 0.
 0. 0. 0. 0.
 0. 0. 0. 0.
 0. 0. 0. 0.
 0. 0. 0. 0.
 0. 0. 0. 0.
 0. 0. 0. 0.
 0. 0. 0. 0.
 0. 0. 0. 0.
 0. 0. 0. 0.
 0. 0. 0. 0.
 0. 0. 0. 0.
 0. 0. 0. 0.
 0. 0. 0. 0.
 0. 0. 0. 0.
 0. 0. 0. 0.
 0. 0. 0. 0.
 0. 0. 0. 0.
 0. 0. 0. 0.
 0. 0. 0. 0.
 0. 0. 0. 0.
 0. 0. 0. 0.
 0. 0. 0. 0.
 0. 0. 0. 0.
 0. 0. 0. 0.
 0. 0. 0. 0.
 0. 0. 0. 0.
 0. 0. 0. 0.
 0. 0. 0. 0.
 0. 0. 0. 0.
   </PP_BETA.4>
   <PP_BETA.5
       type="real"
       size="1636"
       columns="4"
       index="5"
       angular_momentum="2"
       cutoff_radius_index=" 144"
       cutoff_radius="    1.4300000000E+00" >
   -4.4921974057E-09    4.4030356330E-05    3.5197735690E-04    1.1864251001E-03
    2.8072691725E-03    5.4703150657E-03    9.4258111809E-03    1.4916900134E-02
    2.2177976565E-02    3.1432944989E-02    4.2893377198E-02    5.6756575197E-02
    7.3203552303E-02    9.2396951752E-02    1.1447892861E-01    1.3956902682E-01
    1.6776208844E-01    1.9912623679E-01    2.3370097839E-01    2.7149547086E-01
    3.1248700493E-01    3.5661974786E-01    4.0380379392E-01    4.5391456410E-01
    5.0679259209E-01    5.6224372811E-01    6.2003978434E-01    6.7991963778E-01
    7.4159079734E-01    8.0473143230E-01    8.6899284940E-01    9.3400239591E-01
    9.9936675643E-01    1.0646756016E+00    1.1295055392E+00    1.1934243093E+00
    1.2559951607E+00    1.3167813391E+00    1.3753506163E+00    1.4312797855E+00
    1.4841590506E+00    1.5335962371E+00    1.5792207579E+00    1.6206872692E+00
    1.6576789636E+00    1.6899104496E+00    1.7171301813E+00    1.7391224086E+00
    1.7557086309E+00    1.7667485476E+00    1.7721405106E+00    1.7718214928E+00
    1.7657666012E+00    1.7539881664E+00    1.7365344551E+00    1.7134880547E+00
    1.6849639858E+00    1.6511076024E+00    1.6120923419E+00    1.5681173856E+00
    1.5194052893E+00    1.4661996410E+00    1.4087627954E+00    1.3473737298E+00
    1.2823260571E+00    1.2139262227E+00    1.1424919016E+00    1.0683506038E+00
    9.9183848188E-01    9.1329932879E-01    8.3308374129E-01    7.5154841667E-01
    6.6905554346E-01    5.8597224009E-01    5.0266999161E-01    4.1952403195E-01
    3.3691261908E-01    2.5521615182E-01    1.7481608089E-01    9.6093572865E-02
    1.9427892819E-02   -5.4805518774E-02   -1.2623728875E-01   -1.9450667546E-01
   -2.5926444361E-01   -3.2017602585E-01   -3.7692493387E-01   -4.2921636922E-01
   -4.7678097186E-01   -5.1937863413E-01   -5.5680229814E-01   -5.8888164793E-01
   -6.1548660246E-01   -6.3653051326E-01   -6.5197297056E-01   -6.6182212504E-01
   -6.6613643783E-01   -6.6502578013E-01   -6.5865181507E-01   -6.4722760790E-01
   -6.3101642653E-01   -6.1032971197E-01   -5.8552421720E-01   -5.5699833291E-01
   -5.2518763896E-01   -4.9055974053E-01   -4.5360846783E-01   -4.1484753642E-01
   -3.7480378226E-01   -3.3401010066E-01   -2.9299822457E-01   -2.5229137587E-01
   -2.1239484086E-01   -1.7378567829E-01   -1.3690506999E-01   -1.0215161726E-01
   -6.9875366233E-02   -4.0372691225E-02   -1.3882148748E-02    9.4186019146E-03
    2.9414737341E-02    4.6055016473E-02    5.9351308724E-02    6.9376901792E-02
    7.6263616090E-02    8.0197776075E-02    8.1415115719E-02    8.0194719174E-02
    7.6852119360E-02    7.1731697099E-02    6.5198539879E-02    5.7629932389E-02
    4.9406671270E-02    4.0904320194E-02    3.2485741288E-02    2.4500956579E-02
    1.7259246113E-02    1.1029114740E-02    6.0379677030E-03    2.4673877672E-03
    4.5480935074E-04   -2.8102014099E-05    8.6574169980E-06   -1.2734646516E-06
 0. 0. 0. 0.
 0. 0. 0. 0.
 0. 0. 0. 0.
 0. 0. 0. 0.
 0. 0. 0. 0.
 0. 0. 0. 0.
 0. 0. 0. 0.
 0. 0. 0. 0.
 0. 0. 0. 0.
 0. 0. 0. 0.
 0. 0. 0. 0.
 0. 0. 0. 0.
 0. 0. 0. 0.
 0. 0. 0. 0.
 0. 0. 0. 0.
 0. 0. 0. 0.
 0. 0. 0. 0.
 0. 0. 0. 0.
 0. 0. 0. 0.
 0. 0. 0. 0.
 0. 0. 0. 0.
 0. 0. 0. 0.
 0. 0. 0. 0.
 0. 0. 0. 0.
 0. 0. 0. 0.
 0. 0. 0. 0.
 0. 0. 0. 0.
 0. 0. 0. 0.
 0. 0. 0. 0.
 0. 0. 0. 0.
 0. 0. 0. 0.
 0. 0. 0. 0.
 0. 0. 0. 0.
 0. 0. 0. 0.
 0. 0. 0. 0.
 0. 0. 0. 0.
 0. 0. 0. 0.
 0. 0. 0. 0.
 0. 0. 0. 0.
 0. 0. 0. 0.
 0. 0. 0. 0.
 0. 0. 0. 0.
 0. 0. 0. 0.
 0. 0. 0. 0.
 0. 0. 0. 0.
 0. 0. 0. 0.
 0. 0. 0. 0.
 0. 0. 0. 0.
 0. 0. 0. 0.
 0. 0. 0. 0.
 0. 0. 0. 0.
 0. 0. 0. 0.
 0. 0. 0. 0.
 0. 0. 0. 0.
 0. 0. 0. 0.
 0. 0. 0. 0.
 0. 0. 0. 0.
 0. 0. 0. 0.
 0. 0. 0. 0.
 0. 0. 0. 0.
 0. 0. 0. 0.
 0. 0. 0. 0.
 0. 0. 0. 0.
 0. 0. 0. 0.
 0. 0. 0. 0.
 0. 0. 0. 0.
 0. 0. 0. 0.
 0. 0. 0. 0.
 0. 0. 0. 0.
 0. 0. 0. 0.
 0. 0. 0. 0.
 0. 0. 0. 0.
 0. 0. 0. 0.
 0. 0. 0. 0.
 0. 0. 0. 0.
 0. 0. 0. 0.
 0. 0. 0. 0.
 0. 0. 0. 0.
 0. 0. 0. 0.
 0. 0. 0. 0.
 0. 0. 0. 0.
 0. 0. 0. 0.
 0. 0. 0. 0.
 0. 0. 0. 0.
 0. 0. 0. 0.
 0. 0. 0. 0.
 0. 0. 0. 0.
 0. 0. 0. 0.
 0. 0. 0. 0.
 0. 0. 0. 0.
 0. 0. 0. 0.
 0. 0. 0. 0.
 0. 0. 0. 0.
 0. 0. 0. 0.
 0. 0. 0. 0.
 0. 0. 0. 0.
 0. 0. 0. 0.
 0. 0. 0. 0.
 0. 0. 0. 0.
 0. 0. 0. 0.
 0. 0. 0. 0.
 0. 0. 0. 0.
 0. 0. 0. 0.
 0. 0. 0. 0.
 0. 0. 0. 0.
 0. 0. 0. 0.
 0. 0. 0. 0.
 0. 0. 0. 0.
 0. 0. 0. 0.
 0. 0. 0. 0.
 0. 0. 0. 0.
 0. 0. 0. 0.
 0. 0. 0. 0.
 0. 0. 0. 0.
 0. 0. 0. 0.
 0. 0. 0. 0.
 0. 0. 0. 0.
 0. 0. 0. 0.
 0. 0. 0. 0.
 0. 0. 0. 0.
 0. 0. 0. 0.
 0. 0. 0. 0.
 0. 0. 0. 0.
 0. 0. 0. 0.
 0. 0. 0. 0.
 0. 0. 0. 0.
 0. 0. 0. 0.
 0. 0. 0. 0.
 0. 0. 0. 0.
 0. 0. 0. 0.
 0. 0. 0. 0.
 0. 0. 0. 0.
 0. 0. 0. 0.
 0. 0. 0. 0.
 0. 0. 0. 0.
 0. 0. 0. 0.
 0. 0. 0. 0.
 0. 0. 0. 0.
 0. 0. 0. 0.
 0. 0. 0. 0.
 0. 0. 0. 0.
 0. 0. 0. 0.
 0. 0. 0. 0.
 0. 0. 0. 0.
 0. 0. 0. 0.
 0. 0. 0. 0.
 0. 0. 0. 0.
 0. 0. 0. 0.
 0. 0. 0. 0.
 0. 0. 0. 0.
 0. 0. 0. 0.
 0. 0. 0. 0.
 0. 0. 0. 0.
 0. 0. 0. 0.
 0. 0. 0. 0.
 0. 0. 0. 0.
 0. 0. 0. 0.
 0. 0. 0. 0.
 0. 0. 0. 0.
 0. 0. 0. 0.
 0. 0. 0. 0.
 0. 0. 0. 0.
 0. 0. 0. 0.
 0. 0. 0. 0.
 0. 0. 0. 0.
 0. 0. 0. 0.
 0. 0. 0. 0.
 0. 0. 0. 0.
 0. 0. 0. 0.
 0. 0. 0. 0.
 0. 0. 0. 0.
 0. 0. 0. 0.
 0. 0. 0. 0.
 0. 0. 0. 0.
 0. 0. 0. 0.
 0. 0. 0. 0.
 0. 0. 0. 0.
 0. 0. 0. 0.
 0. 0. 0. 0.
 0. 0. 0. 0.
 0. 0. 0. 0.
 0. 0. 0. 0.
 0. 0. 0. 0.
 0. 0. 0. 0.
 0. 0. 0. 0.
 0. 0. 0. 0.
 0. 0. 0. 0.
 0. 0. 0. 0.
 0. 0. 0. 0.
 0. 0. 0. 0.
 0. 0. 0. 0.
 0. 0. 0. 0.
 0. 0. 0. 0.
 0. 0. 0. 0.
 0. 0. 0. 0.
 0. 0. 0. 0.
 0. 0. 0. 0.
 0. 0. 0. 0.
 0. 0. 0. 0.
 0. 0. 0. 0.
 0. 0. 0. 0.
 0. 0. 0. 0.
 0. 0. 0. 0.
 0. 0. 0. 0.
 0. 0. 0. 0.
 0. 0. 0. 0.
 0. 0. 0. 0.
 0. 0. 0. 0.
 0. 0. 0. 0.
 0. 0. 0. 0.
 0. 0. 0. 0.
 0. 0. 0. 0.
 0. 0. 0. 0.
 0. 0. 0. 0.
 0. 0. 0. 0.
 0. 0. 0. 0.
 0. 0. 0. 0.
 0. 0. 0. 0.
 0. 0. 0. 0.
 0. 0. 0. 0.
 0. 0. 0. 0.
 0. 0. 0. 0.
 0. 0. 0. 0.
 0. 0. 0. 0.
 0. 0. 0. 0.
 0. 0. 0. 0.
 0. 0. 0. 0.
 0. 0. 0. 0.
 0. 0. 0. 0.
 0. 0. 0. 0.
 0. 0. 0. 0.
 0. 0. 0. 0.
 0. 0. 0. 0.
 0. 0. 0. 0.
 0. 0. 0. 0.
 0. 0. 0. 0.
 0. 0. 0. 0.
 0. 0. 0. 0.
 0. 0. 0. 0.
 0. 0. 0. 0.
 0. 0. 0. 0.
 0. 0. 0. 0.
 0. 0. 0. 0.
 0. 0. 0. 0.
 0. 0. 0. 0.
 0. 0. 0. 0.
 0. 0. 0. 0.
 0. 0. 0. 0.
 0. 0. 0. 0.
 0. 0. 0. 0.
 0. 0. 0. 0.
 0. 0. 0. 0.
 0. 0. 0. 0.
 0. 0. 0. 0.
 0. 0. 0. 0.
 0. 0. 0. 0.
 0. 0. 0. 0.
 0. 0. 0. 0.
 0. 0. 0. 0.
 0. 0. 0. 0.
 0. 0. 0. 0.
 0. 0. 0. 0.
 0. 0. 0. 0.
 0. 0. 0. 0.
 0. 0. 0. 0.
 0. 0. 0. 0.
 0. 0. 0. 0.
 0. 0. 0. 0.
 0. 0. 0. 0.
 0. 0. 0. 0.
 0. 0. 0. 0.
 0. 0. 0. 0.
 0. 0. 0. 0.
 0. 0. 0. 0.
 0. 0. 0. 0.
 0. 0. 0. 0.
 0. 0. 0. 0.
 0. 0. 0. 0.
 0. 0. 0. 0.
 0. 0. 0. 0.
 0. 0. 0. 0.
 0. 0. 0. 0.
 0. 0. 0. 0.
 0. 0. 0. 0.
 0. 0. 0. 0.
 0. 0. 0. 0.
 0. 0. 0. 0.
 0. 0. 0. 0.
 0. 0. 0. 0.
 0. 0. 0. 0.
 0. 0. 0. 0.
 0. 0. 0. 0.
 0. 0. 0. 0.
 0. 0. 0. 0.
 0. 0. 0. 0.
 0. 0. 0. 0.
 0. 0. 0. 0.
 0. 0. 0. 0.
 0. 0. 0. 0.
 0. 0. 0. 0.
 0. 0. 0. 0.
 0. 0. 0. 0.
 0. 0. 0. 0.
 0. 0. 0. 0.
 0. 0. 0. 0.
 0. 0. 0. 0.
 0. 0. 0. 0.
 0. 0. 0. 0.
 0. 0. 0. 0.
 0. 0. 0. 0.
 0. 0. 0. 0.
 0. 0. 0. 0.
 0. 0. 0. 0.
 0. 0. 0. 0.
 0. 0. 0. 0.
 0. 0. 0. 0.
 0. 0. 0. 0.
 0. 0. 0. 0.
 0. 0. 0. 0.
 0. 0. 0. 0.
 0. 0. 0. 0.
 0. 0. 0. 0.
 0. 0. 0. 0.
 0. 0. 0. 0.
 0. 0. 0. 0.
 0. 0. 0. 0.
 0. 0. 0. 0.
 0. 0. 0. 0.
 0. 0. 0. 0.
 0. 0. 0. 0.
 0. 0. 0. 0.
 0. 0. 0. 0.
 0. 0. 0. 0.
 0. 0. 0. 0.
 0. 0. 0. 0.
 0. 0. 0. 0.
 0. 0. 0. 0.
 0. 0. 0. 0.
 0. 0. 0. 0.
 0. 0. 0. 0.
 0. 0. 0. 0.
 0. 0. 0. 0.
 0. 0. 0. 0.
 0. 0. 0. 0.
 0. 0. 0. 0.
 0. 0. 0. 0.
 0. 0. 0. 0.
 0. 0. 0. 0.
 0. 0. 0. 0.
 0. 0. 0. 0.
 0. 0. 0. 0.
 0. 0. 0. 0.
 0. 0. 0. 0.
 0. 0. 0. 0.
 0. 0. 0. 0.
 0. 0. 0. 0.
 0. 0. 0. 0.
 0. 0. 0. 0.
 0. 0. 0. 0.
 0. 0. 0. 0.
 0. 0. 0. 0.
 0. 0. 0. 0.
 0. 0. 0. 0.
 0. 0. 0. 0.
 0. 0. 0. 0.
 0. 0. 0. 0.
 0. 0. 0. 0.
 0. 0. 0. 0.
 0. 0. 0. 0.
 0. 0. 0. 0.
 0. 0. 0. 0.
 0. 0. 0. 0.
 0. 0. 0. 0.
   </PP_BETA.5>
   <PP_BETA.6
       type="real"
       size="1636"
       columns="4"
       index="6"
       angular_momentum="2"
       cutoff_radius_index=" 144"
       cutoff_radius="    1.4300000000E+00" >
    8.1834769447E-09   -1.8354239081E-05   -1.4679313009E-04   -4.9518639629E-04
   -1.1729229950E-03   -2.2885456909E-03   -3.9492417403E-03   -6.2601517760E-03
   -9.3234671662E-03   -1.3237295825E-02   -1.8094287347E-02   -2.3980020068E-02
   -3.0971164787E-02   -3.9133452044E-02   -4.8519481577E-02   -5.9166423454E-02
   -7.1093670052E-02   -8.4300506067E-02   -9.8763869904E-02   -1.1443628368E-01
   -1.3124403070E-01   -1.4908565810E-01   -1.6783087919E-01   -1.8731994337E-01
   -2.0736353353E-01   -2.2774323959E-01   -2.4821264443E-01   -2.6849904350E-01
   -2.8830580422E-01   -3.0731535403E-01   -3.2519276936E-01   -3.4158992067E-01
   -3.5615011218E-01   -3.6851314001E-01   -3.7832067829E-01   -3.8522189135E-01
   -3.8887916068E-01   -3.8897380844E-01   -3.8521169612E-01   -3.7732857573E-01
   -3.6509507424E-01   -3.4832119731E-01   -3.2686024779E-01   -3.0061206627E-01
   -2.6952551562E-01   -2.3360014849E-01   -1.9288701546E-01   -1.4748859213E-01
   -9.7557823961E-02   -4.3296309740E-02    1.5048334859E-02    7.7185871761E-02
    1.4278751246E-01    2.1149057027E-01    2.8290358150E-01    3.5661177282E-01
    4.3218274455E-01    5.0917223473E-01    5.8712982861E-01    6.6560448131E-01
    7.4414972810E-01    8.2232846747E-01    8.9971721589E-01    9.7590974986E-01
    1.0505200703E+00    1.1231846450E+00    1.1935639091E+00    1.2613430232E+00
    1.3262319171E+00    1.3879646653E+00    1.4462982640E+00    1.5010108977E+00
    1.5518998013E+00    1.5987788345E+00    1.6414758987E+00    1.6798303287E+00
    1.7136903958E+00    1.7429110549E+00    1.7673520611E+00    1.7868765698E+00
    1.8013503197E+00    1.8106414782E+00    1.8146212068E+00    1.8131649800E+00
    1.8061546644E+00    1.7934813372E+00    1.7750487964E+00    1.7507776860E+00
    1.7206101370E+00    1.6845147979E+00    1.6424921110E+00    1.5945796726E+00
    1.5408575027E+00    1.4814530437E+00    1.4165457030E+00    1.3463707599E+00
    1.2712224646E+00    1.1914561700E+00    1.1074893605E+00    1.0198014600E+00
    9.2893233641E-01    8.3547944689E-01    7.4009360679E-01    6.4347340018E-01
    5.4635828945E-01    4.4952051903E-01    3.5375594578E-01    2.5987396414E-01
    1.6868672590E-01    8.0997884933E-02   -2.4088984046E-03   -8.0781806537E-02
   -1.5341955230E-01   -2.1969254748E-01   -2.7905547256E-01   -3.3105752228E-01
   -3.7535128359E-01   -4.1170001108E-01   -4.3998309475E-01   -4.6019954520E-01
   -4.7246936155E-01   -4.7703269072E-01   -4.7424673378E-01   -4.6458039977E-01
   -4.4860676405E-01   -4.2699343006E-01   -4.0049094554E-01   -3.6991946965E-01
   -3.3615392776E-01   -3.0010792916E-01   -2.6271675370E-01   -2.2491973863E-01
   -1.8764243729E-01   -1.5177875784E-01   -1.1817586459E-01   -8.7634292877E-02
   -6.0850083240E-02   -3.8415695784E-02   -2.0819830495E-02   -8.4383822766E-03
   -1.5453554778E-03    9.5050388319E-05   -2.9321627330E-05    4.3293943350E-06
 0. 0. 0. 0.
 0. 0. 0. 0.
 0. 0. 0. 0.
 0. 0. 0. 0.
 0. 0. 0. 0.
 0. 0. 0. 0.
 0. 0. 0. 0.
 0. 0. 0. 0.
 0. 0. 0. 0.
 0. 0. 0. 0.
 0. 0. 0. 0.
 0. 0. 0. 0.
 0. 0. 0. 0.
 0. 0. 0. 0.
 0. 0. 0. 0.
 0. 0. 0. 0.
 0. 0. 0. 0.
 0. 0. 0. 0.
 0. 0. 0. 0.
 0. 0. 0. 0.
 0. 0. 0. 0.
 0. 0. 0. 0.
 0. 0. 0. 0.
 0. 0. 0. 0.
 0. 0. 0. 0.
 0. 0. 0. 0.
 0. 0. 0. 0.
 0. 0. 0. 0.
 0. 0. 0. 0.
 0. 0. 0. 0.
 0. 0. 0. 0.
 0. 0. 0. 0.
 0. 0. 0. 0.
 0. 0. 0. 0.
 0. 0. 0. 0.
 0. 0. 0. 0.
 0. 0. 0. 0.
 0. 0. 0. 0.
 0. 0. 0. 0.
 0. 0. 0. 0.
 0. 0. 0. 0.
 0. 0. 0. 0.
 0. 0. 0. 0.
 0. 0. 0. 0.
 0. 0. 0. 0.
 0. 0. 0. 0.
 0. 0. 0. 0.
 0. 0. 0. 0.
 0. 0. 0. 0.
 0. 0. 0. 0.
 0. 0. 0. 0.
 0. 0. 0. 0.
 0. 0. 0. 0.
 0. 0. 0. 0.
 0. 0. 0. 0.
 0. 0. 0. 0.
 0. 0. 0. 0.
 0. 0. 0. 0.
 0. 0. 0. 0.
 0. 0. 0. 0.
 0. 0. 0. 0.
 0. 0. 0. 0.
 0. 0. 0. 0.
 0. 0. 0. 0.
 0. 0. 0. 0.
 0. 0. 0. 0.
 0. 0. 0. 0.
 0. 0. 0. 0.
 0. 0. 0. 0.
 0. 0. 0. 0.
 0. 0. 0. 0.
 0. 0. 0. 0.
 0. 0. 0. 0.
 0. 0. 0. 0.
 0. 0. 0. 0.
 0. 0. 0. 0.
 0. 0. 0. 0.
 0. 0. 0. 0.
 0. 0. 0. 0.
 0. 0. 0. 0.
 0. 0. 0. 0.
 0. 0. 0. 0.
 0. 0. 0. 0.
 0. 0. 0. 0.
 0. 0. 0. 0.
 0. 0. 0. 0.
 0. 0. 0. 0.
 0. 0. 0. 0.
 0. 0. 0. 0.
 0. 0. 0. 0.
 0. 0. 0. 0.
 0. 0. 0. 0.
 0. 0. 0. 0.
 0. 0. 0. 0.
 0. 0. 0. 0.
 0. 0. 0. 0.
 0. 0. 0. 0.
 0. 0. 0. 0.
 0. 0. 0. 0.
 0. 0. 0. 0.
 0. 0. 0. 0.
 0. 0. 0. 0.
 0. 0. 0. 0.
 0. 0. 0. 0.
 0. 0. 0. 0.
 0. 0. 0. 0.
 0. 0. 0. 0.
 0. 0. 0. 0.
 0. 0. 0. 0.
 0. 0. 0. 0.
 0. 0. 0. 0.
 0. 0. 0. 0.
 0. 0. 0. 0.
 0. 0. 0. 0.
 0. 0. 0. 0.
 0. 0. 0. 0.
 0. 0. 0. 0.
 0. 0. 0. 0.
 0. 0. 0. 0.
 0. 0. 0. 0.
 0. 0. 0. 0.
 0. 0. 0. 0.
 0. 0. 0. 0.
 0. 0. 0. 0.
 0. 0. 0. 0.
 0. 0. 0. 0.
 0. 0. 0. 0.
 0. 0. 0. 0.
 0. 0. 0. 0.
 0. 0. 0. 0.
 0. 0. 0. 0.
 0. 0. 0. 0.
 0. 0. 0. 0.
 0. 0. 0. 0.
 0. 0. 0. 0.
 0. 0. 0. 0.
 0. 0. 0. 0.
 0. 0. 0. 0.
 0. 0. 0. 0.
 0. 0. 0. 0.
 0. 0. 0. 0.
 0. 0. 0. 0.
 0. 0. 0. 0.
 0. 0. 0. 0.
 0. 0. 0. 0.
 0. 0. 0. 0.
 0. 0. 0. 0.
 0. 0. 0. 0.
 0. 0. 0. 0.
 0. 0. 0. 0.
 0. 0. 0. 0.
 0. 0. 0. 0.
 0. 0. 0. 0.
 0. 0. 0. 0.
 0. 0. 0. 0.
 0. 0. 0. 0.
 0. 0. 0. 0.
 0. 0. 0. 0.
 0. 0. 0. 0.
 0. 0. 0. 0.
 0. 0. 0. 0.
 0. 0. 0. 0.
 0. 0. 0. 0.
 0. 0. 0. 0.
 0. 0. 0. 0.
 0. 0. 0. 0.
 0. 0. 0. 0.
 0. 0. 0. 0.
 0. 0. 0. 0.
 0. 0. 0. 0.
 0. 0. 0. 0.
 0. 0. 0. 0.
 0. 0. 0. 0.
 0. 0. 0. 0.
 0. 0. 0. 0.
 0. 0. 0. 0.
 0. 0. 0. 0.
 0. 0. 0. 0.
 0. 0. 0. 0.
 0. 0. 0. 0.
 0. 0. 0. 0.
 0. 0. 0. 0.
 0. 0. 0. 0.
 0. 0. 0. 0.
 0. 0. 0. 0.
 0. 0. 0. 0.
 0. 0. 0. 0.
 0. 0. 0. 0.
 0. 0. 0. 0.
 0. 0. 0. 0.
 0. 0. 0. 0.
 0. 0. 0. 0.
 0. 0. 0. 0.
 0. 0. 0. 0.
 0. 0. 0. 0.
 0. 0. 0. 0.
 0. 0. 0. 0.
 0. 0. 0. 0.
 0. 0. 0. 0.
 0. 0. 0. 0.
 0. 0. 0. 0.
 0. 0. 0. 0.
 0. 0. 0. 0.
 0. 0. 0. 0.
 0. 0. 0. 0.
 0. 0. 0. 0.
 0. 0. 0. 0.
 0. 0. 0. 0.
 0. 0. 0. 0.
 0. 0. 0. 0.
 0. 0. 0. 0.
 0. 0. 0. 0.
 0. 0. 0. 0.
 0. 0. 0. 0.
 0. 0. 0. 0.
 0. 0. 0. 0.
 0. 0. 0. 0.
 0. 0. 0. 0.
 0. 0. 0. 0.
 0. 0. 0. 0.
 0. 0. 0. 0.
 0. 0. 0. 0.
 0. 0. 0. 0.
 0. 0. 0. 0.
 0. 0. 0. 0.
 0. 0. 0. 0.
 0. 0. 0. 0.
 0. 0. 0. 0.
 0. 0. 0. 0.
 0. 0. 0. 0.
 0. 0. 0. 0.
 0. 0. 0. 0.
 0. 0. 0. 0.
 0. 0. 0. 0.
 0. 0. 0. 0.
 0. 0. 0. 0.
 0. 0. 0. 0.
 0. 0. 0. 0.
 0. 0. 0. 0.
 0. 0. 0. 0.
 0. 0. 0. 0.
 0. 0. 0. 0.
 0. 0. 0. 0.
 0. 0. 0. 0.
 0. 0. 0. 0.
 0. 0. 0. 0.
 0. 0. 0. 0.
 0. 0. 0. 0.
 0. 0. 0. 0.
 0. 0. 0. 0.
 0. 0. 0. 0.
 0. 0. 0. 0.
 0. 0. 0. 0.
 0. 0. 0. 0.
 0. 0. 0. 0.
 0. 0. 0. 0.
 0. 0. 0. 0.
 0. 0. 0. 0.
 0. 0. 0. 0.
 0. 0. 0. 0.
 0. 0. 0. 0.
 0. 0. 0. 0.
 0. 0. 0. 0.
 0. 0. 0. 0.
 0. 0. 0. 0.
 0. 0. 0. 0.
 0. 0. 0. 0.
 0. 0. 0. 0.
 0. 0. 0. 0.
 0. 0. 0. 0.
 0. 0. 0. 0.
 0. 0. 0. 0.
 0. 0. 0. 0.
 0. 0. 0. 0.
 0. 0. 0. 0.
 0. 0. 0. 0.
 0. 0. 0. 0.
 0. 0. 0. 0.
 0. 0. 0. 0.
 0. 0. 0. 0.
 0. 0. 0. 0.
 0. 0. 0. 0.
 0. 0. 0. 0.
 0. 0. 0. 0.
 0. 0. 0. 0.
 0. 0. 0. 0.
 0. 0. 0. 0.
 0. 0. 0. 0.
 0. 0. 0. 0.
 0. 0. 0. 0.
 0. 0. 0. 0.
 0. 0. 0. 0.
 0. 0. 0. 0.
 0. 0. 0. 0.
 0. 0. 0. 0.
 0. 0. 0. 0.
 0. 0. 0. 0.
 0. 0. 0. 0.
 0. 0. 0. 0.
 0. 0. 0. 0.
 0. 0. 0. 0.
 0. 0. 0. 0.
 0. 0. 0. 0.
 0. 0. 0. 0.
 0. 0. 0. 0.
 0. 0. 0. 0.
 0. 0. 0. 0.
 0. 0. 0. 0.
 0. 0. 0. 0.
 0. 0. 0. 0.
 0. 0. 0. 0.
 0. 0. 0. 0.
 0. 0. 0. 0.
 0. 0. 0. 0.
 0. 0. 0. 0.
 0. 0. 0. 0.
 0. 0. 0. 0.
 0. 0. 0. 0.
 0. 0. 0. 0.
 0. 0. 0. 0.
 0. 0. 0. 0.
 0. 0. 0. 0.
 0. 0. 0. 0.
 0. 0. 0. 0.
 0. 0. 0. 0.
 0. 0. 0. 0.
 0. 0. 0. 0.
 0. 0. 0. 0.
 0. 0. 0. 0.
 0. 0. 0. 0.
 0. 0. 0. 0.
 0. 0. 0. 0.
 0. 0. 0. 0.
 0. 0. 0. 0.
 0. 0. 0. 0.
 0. 0. 0. 0.
 0. 0. 0. 0.
 0. 0. 0. 0.
 0. 0. 0. 0.
 0. 0. 0. 0.
 0. 0. 0. 0.
 0. 0. 0. 0.
 0. 0. 0. 0.
 0. 0. 0. 0.
 0. 0. 0. 0.
 0. 0. 0. 0.
 0. 0. 0. 0.
 0. 0. 0. 0.
 0. 0. 0. 0.
 0. 0. 0. 0.
 0. 0. 0. 0.
 0. 0. 0. 0.
 0. 0. 0. 0.
 0. 0. 0. 0.
 0. 0. 0. 0.
 0. 0. 0. 0.
 0. 0. 0. 0.
 0. 0. 0. 0.
 0. 0. 0. 0.
 0. 0. 0. 0.
 0. 0. 0. 0.
 0. 0. 0. 0.
 0. 0. 0. 0.
 0. 0. 0. 0.
 0. 0. 0. 0.
 0. 0. 0. 0.
 0. 0. 0. 0.
 0. 0. 0. 0.
 0. 0. 0. 0.
 0. 0. 0. 0.
 0. 0. 0. 0.
 0. 0. 0. 0.
 0. 0. 0. 0.
   </PP_BETA.6>
   <PP_DIJ type="real"  size="  36" columns="4">
    3.3703779125E+01    0.0000000000E+00    0.0000000000E+00    0.0000000000E+00
    0.0000000000E+00    0.0000000000E+00    0.0000000000E+00    2.2060618936E+00
    0.0000000000E+00    0.0000000000E+00    0.0000000000E+00    0.0000000000E+00
    0.0000000000E+00    0.0000000000E+00    8.5086592345E+00    0.0000000000E+00
    0.0000000000E+00    0.0000000000E+00    0.0000000000E+00    0.0000000000E+00
    0.0000000000E+00    1.0140693271E+00    0.0000000000E+00    0.0000000000E+00
    0.0000000000E+00    0.0000000000E+00    0.0000000000E+00    0.0000000000E+00
   -1.4277203623E+01    0.0000000000E+00    0.0000000000E+00    0.0000000000E+00
    0.0000000000E+00    0.0000000000E+00    0.0000000000E+00   -3.8040214842E+00
   </PP_DIJ>
 </PP_NONLOCAL>
 <PP_PSWFC>
   <PP_CHI.1
       type="real"
       size="1636"
       columns="4"
       index="1"
       occupation=" 2.000"
       pseudo_energy="   -0.5422096054E+01"
       label="3S"
       l="0" >
    2.8255363327E-11    5.6730970755E-03    1.1397850163E-02    1.7225627654E-02
    2.3207224258E-02    2.9392578054E-02    3.5830492191E-02    4.2568362756E-02
    4.9651914299E-02    5.7124944466E-02    6.5029079148E-02    7.3403539518E-02
    8.2284922239E-02    9.1706994088E-02    1.0170050217E-01    1.1229300078E-01
    1.2350869593E-01    1.3536830841E-01    1.4788895623E-01    1.6108405705E-01
    1.7496325128E-01    1.8953234611E-01    2.0479328108E-01    2.2074411505E-01
    2.3737903485E-01    2.5468838550E-01    2.7265872164E-01    2.9127287997E-01
    3.1051007208E-01    3.3034599710E-01    3.5075297336E-01    3.7170008812E-01
    3.9315336441E-01    4.1507594381E-01    4.3742828381E-01    4.6016836860E-01
    4.8325193160E-01    5.0663268845E-01    5.3026257861E-01    5.5409201426E-01
    5.7807013443E-01    6.0214506309E-01    6.2626416910E-01    6.5037432666E-01
    6.7442217437E-01    6.9835437134E-01    7.2211784882E-01    7.4566005572E-01
    7.6892919673E-01    7.9187446156E-01    8.1444624411E-01    8.3659635043E-01
    8.5827819449E-01    8.7944698073E-01    9.0005987278E-01    9.2007614759E-01
    9.3945733449E-01    9.5816733886E-01    9.7617255006E-01    9.9344193356E-01
    1.0099471073E+00    1.0256624022E+00    1.0405649074E+00    1.0546345003E+00
    1.0678538618E+00    1.0802084770E+00    1.0916866229E+00    1.1022793428E+00
    1.1119804078E+00    1.1207862676E+00    1.1286959896E+00    1.1357111888E+00
    1.1418359474E+00    1.1470767267E+00    1.1514422712E+00    1.1549435055E+00
    1.1575934251E+00    1.1594069824E+00    1.1604009676E+00    1.1605938853E+00
    1.1600058289E+00    1.1586583516E+00    1.1565743354E+00    1.1537778593E+00
    1.1502940660E+00    1.1461490289E+00    1.1413696187E+00    1.1359833712E+00
    1.1300183559E+00    1.1235030465E+00    1.1164661930E+00    1.1089366969E+00
    1.1009434885E+00    1.0925154078E+00    1.0836810893E+00    1.0744688503E+00
    1.0649065835E+00    1.0550216551E+00    1.0448408071E+00    1.0343900654E+00
    1.0236946535E+00    1.0127789124E+00    1.0016662268E+00    9.9037895735E-01
    9.7893838074E-01    9.6736463583E-01    9.5567667651E-01    9.4389222922E-01
    9.3202776338E-01    9.2009847162E-01    9.0811825619E-01    8.9609974352E-01
    8.8405453123E-01    8.7199357516E-01    8.5992724537E-01    8.4786534736E-01
    8.3581714483E-01    8.2379138070E-01    8.1179629754E-01    7.9983965746E-01
    7.8792876154E-01    7.7607046859E-01    7.6427121354E-01    7.5253702506E-01
    7.4087354285E-01    7.2928603425E-01    7.1777941037E-01    7.0635824165E-01
    6.9502677295E-01    6.8378893807E-01    6.7264837381E-01    6.6160843351E-01
    6.5067220007E-01    6.3984249860E-01    6.2912190848E-01    6.1851277506E-01
    6.0801722086E-01    5.9763715640E-01    5.8737429059E-01    5.7723014066E-01
    5.6720604179E-01    5.5730315632E-01    5.4752248258E-01    5.3786486336E-01
    5.2833099410E-01    5.1892143062E-01    5.0963659668E-01    5.0047679113E-01
    4.9144219474E-01    4.8253287687E-01    4.7374880170E-01    4.6508983430E-01
    4.5655574641E-01    4.4814622193E-01    4.3986086225E-01    4.3169919129E-01
    4.2366066029E-01    4.1574465249E-01    4.0795048749E-01    4.0027742546E-01
    3.9272467117E-01    3.8529137783E-01    3.7797665073E-01    3.7077955074E-01
    3.6369909761E-01    3.5673427317E-01    3.4988402430E-01    3.4314726587E-01
    3.3652288339E-01    3.3000973568E-01    3.2360665731E-01    3.1731246094E-01
    3.1112593957E-01    3.0504586868E-01    2.9907100819E-01    2.9320010441E-01
    2.8743189182E-01    2.8176509483E-01    2.7619842936E-01    2.7073060438E-01
    2.6536032340E-01    2.6008628581E-01    2.5490718819E-01    2.4982172554E-01
    2.4482859242E-01    2.3992648405E-01    2.3511409735E-01    2.3039013186E-01
    2.2575329071E-01    2.2120228141E-01    2.1673581670E-01    2.1235261524E-01
    2.0805140237E-01    2.0383091073E-01    1.9968988087E-01    1.9562706181E-01
    1.9164121161E-01    1.8773109781E-01    1.8389549792E-01    1.8013319980E-01
    1.7644300211E-01    1.7282371457E-01    1.6927415841E-01    1.6579316654E-01
    1.6237958393E-01    1.5903226776E-01    1.5575008772E-01    1.5253192618E-01
    1.4937667833E-01    1.4628325239E-01    1.4325056972E-01    1.4027756496E-01
    1.3736318607E-01    1.3450639448E-01    1.3170616514E-01    1.2896148655E-01
    1.2627136081E-01    1.2363480365E-01    1.2105084445E-01    1.1851852622E-01
    1.1603690559E-01    1.1360505283E-01    1.1122205174E-01    1.0888699969E-01
    1.0659900753E-01    1.0435719953E-01    1.0216071334E-01    1.0000869987E-01
    9.7900323282E-02    9.5834760827E-02    9.3811202811E-02    9.1828852472E-02
    8.9886925885E-02    8.7984651853E-02    8.6121271796E-02    8.4296039638E-02
    8.2508221687E-02    8.0757096516E-02    7.9041954832E-02    7.7362099355E-02
    7.5716844683E-02    7.4105517161E-02    7.2527454750E-02    7.0982006883E-02
    6.9468534336E-02    6.7986409082E-02    6.6535014157E-02    6.5113743512E-02
    6.3722001877E-02    6.2359204613E-02    6.1024777576E-02    5.9718156966E-02
    5.8438789188E-02    5.7186130708E-02    5.5959647909E-02    5.4758816948E-02
    5.3583123611E-02    5.2432063174E-02    5.1305140258E-02    5.0201868692E-02
    4.9121771364E-02    4.8064380091E-02    4.7029235473E-02    4.6015886758E-02
    4.5023891702E-02    4.4052816437E-02    4.3102235331E-02    4.2171730860E-02
    4.1260893470E-02    4.0369321447E-02    3.9496620789E-02    3.8642405074E-02
    3.7806295334E-02    3.6987919928E-02    3.6186914418E-02    3.5402921447E-02
    3.4635590612E-02    3.3884578349E-02    3.3149547810E-02    3.2430168749E-02
    3.1726117402E-02    3.1037076374E-02    3.0362734527E-02    2.9702786867E-02
    2.9056934436E-02    2.8424884199E-02    2.7806348942E-02    2.7201047163E-02
    2.6608702968E-02    2.6029045973E-02    2.5461811196E-02    2.4906738963E-02
    2.4363574808E-02    2.3832069376E-02    2.3311978329E-02    2.2803062250E-02
    2.2305086555E-02    2.1817821400E-02    2.1341041589E-02    2.0874526493E-02
    2.0418059956E-02    1.9971430217E-02    1.9534429820E-02    1.9106855537E-02
    1.8688508283E-02    1.8279193041E-02    1.7878718779E-02    1.7486898376E-02
    1.7103548547E-02    1.6728489767E-02    1.6361546198E-02    1.6002545619E-02
    1.5651319354E-02    1.5307702204E-02    1.4971532376E-02    1.4642651422E-02
    1.4320904167E-02    1.4006138648E-02    1.3698206051E-02    1.3396960647E-02
    1.3102259731E-02    1.2813963564E-02    1.2531935314E-02    1.2256040993E-02
    1.1986149409E-02    1.1722132103E-02    1.1463863298E-02    1.1211219844E-02
    1.0964081165E-02    1.0722329208E-02    1.0485848394E-02    1.0254525564E-02
    1.0028249934E-02    9.8069130445E-03    9.5904087161E-03    9.3786330004E-03
    9.1714841368E-03    8.9688625071E-03    8.7706705925E-03    8.5768129305E-03
    8.3871960730E-03    8.2017285456E-03    8.0203208068E-03    7.8428852086E-03
    7.6693359577E-03    7.4995890777E-03    7.3335623715E-03    7.1711753850E-03
    7.0123493709E-03    6.8570072539E-03    6.7050735962E-03    6.5564745633E-03
    6.4111378914E-03    6.2689928548E-03    6.1299702336E-03    5.9940022832E-03
    5.8610227032E-03    5.7309666077E-03    5.6037704957E-03    5.4793722225E-03
    5.3577109711E-03    5.2387272252E-03    5.1223627413E-03    5.0085605228E-03
    4.8972647935E-03    4.7884209724E-03    4.6819756484E-03    4.5778765559E-03
    4.4760725511E-03    4.3765135879E-03    4.2791506955E-03    4.1839359552E-03
    4.0908224786E-03    3.9997643862E-03    3.9107167854E-03    3.8236357504E-03
    3.7384783016E-03    3.6552023856E-03    3.5737668554E-03    3.4941314518E-03
    3.4162567842E-03    3.3401043124E-03    3.2656363285E-03    3.1928159393E-03
    3.1216070490E-03    3.0519743426E-03    2.9838832687E-03    2.9173000238E-03
    2.8521915363E-03    2.7885254507E-03    2.7262701128E-03    2.6653945542E-03
    2.6058684783E-03    2.5476622455E-03    2.4907468594E-03    2.4350939531E-03
    2.3806757756E-03    2.3274651789E-03    2.2754356049E-03    2.2245610728E-03
    2.1748161668E-03    2.1261760240E-03    2.0786163227E-03    2.0321132705E-03
    1.9866435931E-03    1.9421845232E-03    1.8987137899E-03    1.8562096073E-03
    1.8146506650E-03    1.7740161170E-03    1.7342855724E-03    1.6954390854E-03
    1.6574571454E-03    1.6203206682E-03    1.5840109864E-03    1.5485098403E-03
    1.5137993698E-03    1.4798621050E-03    1.4466809582E-03    1.4142392155E-03
    1.3825205290E-03    1.3515089083E-03    1.3211887136E-03    1.2915446473E-03
    1.2625617472E-03    1.2342253789E-03    1.2065212289E-03    1.1794352976E-03
    1.1529538923E-03    1.1270636209E-03    1.1017513850E-03    1.0770043741E-03
    1.0528100586E-03    1.0291561843E-03    1.0060307663E-03    9.8342208278E-04
    9.6131866985E-04    9.3970931555E-04    9.1858305450E-04    8.9792916255E-04
    8.7773715152E-04    8.5799676404E-04    8.3869796856E-04    8.1983095441E-04
    8.0138612700E-04    7.8335410313E-04    7.6572570633E-04    7.4849196240E-04
    7.3164409501E-04    7.1517352133E-04    6.9907184785E-04    6.8333086622E-04
    6.6794254925E-04    6.5289904689E-04    6.3819268244E-04    6.2381594868E-04
    6.0976150421E-04    5.9602216984E-04    5.8259092499E-04    5.6946090427E-04
    5.5662539406E-04    5.4407782918E-04    5.3181178967E-04    5.1982099757E-04
    5.0809931385E-04    4.9664073534E-04    4.8543939174E-04    4.7448954274E-04
    4.6378557517E-04    4.5332200016E-04    4.4309345047E-04    4.3309467779E-04
    4.2332055014E-04    4.1376604931E-04    4.0442626837E-04    3.9529640920E-04
    3.8637178014E-04    3.7764779362E-04    3.6911996387E-04    3.6078390469E-04
    3.5263532728E-04    3.4467003805E-04    3.3688393656E-04    3.2927301347E-04
    3.2183334852E-04    3.1456110856E-04    3.0745254566E-04    3.0050399520E-04
    2.9371187406E-04    2.8707267881E-04    2.8058298396E-04    2.7423944022E-04
    2.6803877287E-04    2.6197778003E-04    2.5605333114E-04    2.5026236534E-04
    2.4460188993E-04    2.3906897887E-04    2.3366077134E-04    2.2837447022E-04
    2.2320734078E-04    2.1815670923E-04    2.1321996138E-04    2.0839454136E-04
    2.0367795029E-04    1.9906774506E-04    1.9456153705E-04    1.9015699094E-04
    1.8585182355E-04    1.8164380266E-04    1.7753074589E-04    1.7351051962E-04
    1.6958103785E-04    1.6574026120E-04    1.6198619586E-04    1.5831689258E-04
    1.5473044566E-04    1.5122499201E-04    1.4779871021E-04    1.4444981956E-04
    1.4117657918E-04    1.3797728715E-04    1.3485027962E-04    1.3179392998E-04
    1.2880664802E-04    1.2588687911E-04    1.2303310346E-04    1.2024383529E-04
    1.1751762210E-04    1.1485304392E-04    1.1224871260E-04    1.0970327109E-04
    1.0721539274E-04    1.0478378066E-04    1.0240716700E-04    1.0008431237E-04
    9.7814005141E-05    9.5595060878E-05    9.3426321703E-05    9.1306655718E-05
    8.9234956420E-05    8.7210142137E-05    8.5231155473E-05    8.3296962768E-05
    8.1406553568E-05    7.9558940108E-05    7.7753156803E-05    7.5988259758E-05
    7.4263326277E-05    7.2577454397E-05    7.0929762420E-05    6.9319388462E-05
    6.7745490010E-05    6.6207243491E-05    6.4703843845E-05    6.3234504116E-05
    6.1798455043E-05    6.0394944668E-05    5.9023237944E-05    5.7682616364E-05
    5.6372377585E-05    5.5091835068E-05    5.3840317726E-05    5.2617169576E-05
    5.1421749402E-05    5.0253430424E-05    4.9111599975E-05    4.7995659186E-05
    4.6905022674E-05    4.5839118242E-05    4.4797386584E-05    4.3779280994E-05
    4.2784267087E-05    4.1811822518E-05    4.0861436716E-05    3.9932610618E-05
    3.9024856413E-05    3.8137697286E-05    3.7270667175E-05    3.6423310528E-05
    3.5595182066E-05    3.4785846555E-05    3.3994878579E-05    3.3221862318E-05
    3.2466391336E-05    3.1728068368E-05    3.1006505115E-05    3.0301322042E-05
    2.9612148179E-05    2.8938620933E-05    2.8280385897E-05    2.7637096665E-05
    2.7008414656E-05    2.6394008933E-05    2.5793556034E-05    2.5206739806E-05
    2.4633251235E-05    2.4072788290E-05    2.3525055764E-05    2.2989765122E-05
    2.2466634347E-05    2.1955387800E-05    2.1455756068E-05    2.0967475831E-05
    2.0490289722E-05    2.0023946192E-05    1.9568199380E-05    1.9122808984E-05
    1.8687540140E-05    1.8262163291E-05    1.7846454076E-05    1.7440193210E-05
    1.7043166365E-05    1.6655164065E-05    1.6275981574E-05    1.5905418789E-05
    1.5543280133E-05    1.5189374458E-05    1.4843514942E-05    1.4505518991E-05
    1.4175208145E-05    1.3852407986E-05    1.3536948041E-05    1.3228661702E-05
    1.2927386129E-05    1.2632962174E-05    1.2345234290E-05    1.2064050455E-05
    1.1789262091E-05    1.1520723984E-05    1.1258294211E-05    1.1001834063E-05
    1.0751207977E-05    1.0506283459E-05    1.0266931017E-05    1.0033024097E-05
    9.8044390091E-06    9.5810548700E-06    9.3627535352E-06    9.1494195385E-06
    8.9409400315E-06    8.7372047240E-06    8.5381058268E-06    8.3435379945E-06
    8.1533982704E-06    7.9675860329E-06    7.7860029421E-06    7.6085528888E-06
    7.4351419432E-06    7.2656783065E-06    7.1000722622E-06    6.9382361289E-06
    6.7800842147E-06    6.6255327717E-06    6.4744999522E-06    6.3269057657E-06
    6.1826720370E-06    6.0417223647E-06    5.9039820816E-06    5.7693782149E-06
    5.6378394480E-06    5.5092960835E-06    5.3836800056E-06    5.2609246451E-06
    5.1409649438E-06    5.0237373209E-06    4.9091796387E-06    4.7972311707E-06
    4.6878325691E-06    4.5809258340E-06    4.4764542822E-06    4.3743625183E-06
    4.2745964044E-06    4.1771030328E-06    4.0818306971E-06    3.9887288655E-06
    3.8977481540E-06    3.8088403005E-06    3.7219581394E-06    3.6370555764E-06
    3.5540875647E-06    3.4730100807E-06    3.3937801014E-06    3.3163555813E-06
    3.2406954302E-06    3.1667594918E-06    3.0945085224E-06    3.0239041701E-06
    2.9549089547E-06    2.8874862479E-06    2.8216002539E-06    2.7572159906E-06
    2.6942992710E-06    2.6328166854E-06    2.5727355836E-06    2.5140240576E-06
    2.4566509248E-06    2.4005857118E-06    2.3457986379E-06    2.2922605996E-06
    2.2399431550E-06    2.1888185094E-06    2.1388594997E-06    2.0900395809E-06
    2.0423328114E-06    1.9957138399E-06    1.9501578913E-06    1.9056407545E-06
    1.8621387687E-06    1.8196288115E-06    1.7780882864E-06    1.7374951109E-06
    1.6978277051E-06    1.6590649798E-06    1.6211863256E-06    1.5841716021E-06
    1.5480011271E-06    1.5126556662E-06    1.4781164228E-06    1.4443650279E-06
    1.4113835305E-06    1.3791543881E-06    1.3476604574E-06    1.3168849853E-06
    1.2868116000E-06    1.2574243022E-06    1.2287074569E-06    1.2006457848E-06
    1.1732243545E-06    1.1464285745E-06    1.1202441854E-06    1.0946572523E-06
    1.0696541577E-06    1.0452215940E-06    1.0213465565E-06    9.9801633686E-07
    9.7521851575E-07    9.5294095679E-07    9.3117179987E-07    9.0989945493E-07
    8.8911259586E-07    8.6880015444E-07    8.4895131448E-07    8.2955550611E-07
    8.1060240017E-07    7.9208190274E-07    7.7398414979E-07    7.5629950193E-07
    7.3901853931E-07    7.2213205666E-07    7.0563105837E-07    6.8950675372E-07
    6.7375055224E-07    6.5835405915E-07    6.4330907089E-07    6.2860757079E-07
    6.1424172482E-07    6.0020387740E-07    5.8648654738E-07    5.7308242406E-07
    5.5998436330E-07    5.4718538372E-07    5.3467866303E-07    5.2245753440E-07
    5.1051548290E-07    4.9884614206E-07    4.8744329046E-07    4.7630084851E-07
    4.6541287513E-07    4.5477356465E-07    4.4437724370E-07    4.3421836821E-07
    4.2429152050E-07    4.1459140633E-07    4.0511285215E-07    3.9585080232E-07
    3.8680031647E-07    3.7795656680E-07    3.6931483561E-07    3.6087051269E-07
    3.5261909295E-07    3.4455617402E-07    3.3667745389E-07    3.2897872860E-07
    3.2145589005E-07    3.1410492381E-07    3.0692190698E-07    2.9990300611E-07
    2.9304447513E-07    2.8634265341E-07    2.7979396378E-07    2.7339491066E-07
    2.6714207816E-07    2.6103212830E-07    2.5506179921E-07    2.4922790342E-07
    2.4352732616E-07    2.3795702368E-07    2.3251402164E-07    2.2719541358E-07
    2.2199835929E-07    2.1692008336E-07    2.1195787369E-07    2.0710908003E-07
    2.0237111260E-07    1.9774144068E-07    1.9321759129E-07    1.8879714787E-07
    1.8447774896E-07    1.8025708702E-07    1.7613290711E-07    1.7210300578E-07
    1.6816522980E-07    1.6431747511E-07    1.6055768563E-07    1.5688385222E-07
    1.5329401157E-07    1.4978624517E-07    1.4635867827E-07    1.4300947893E-07
    1.3973685700E-07    1.3653906319E-07    1.3341438811E-07    1.3036116141E-07
    1.2737775083E-07    1.2446256140E-07    1.2161403451E-07    1.1883064716E-07
    1.1611091108E-07    1.1345337199E-07    1.1085660881E-07    1.0831923288E-07
    1.0583988725E-07    1.0341724593E-07    1.0105001322E-07    9.8736922981E-08
    9.6476737995E-08    9.4268249274E-08    9.2110275436E-08    9.0001662074E-08
    8.7941281134E-08    8.5928030318E-08    8.3960832495E-08    8.2038635125E-08
    8.0160409708E-08    7.8325151223E-08    7.6531877600E-08    7.4779629193E-08
    7.3067468267E-08    7.1394478507E-08    6.9759764523E-08    6.8162451370E-08
    6.6601684083E-08    6.5076627223E-08    6.3586464437E-08    6.2130398012E-08
    6.0707648457E-08    5.9317454081E-08    5.7959070590E-08    5.6631770697E-08
    5.5334843723E-08    5.4067595224E-08    5.2829346618E-08    5.1619434822E-08
    5.0437211905E-08    4.9282044735E-08    4.8153314647E-08    4.7050417104E-08
    4.5972761384E-08    4.4919770259E-08    4.3890879692E-08    4.2885538533E-08
    4.1903208220E-08    4.0943362500E-08    4.0005487142E-08    3.9089079670E-08
    3.8193649086E-08    3.7318715611E-08    3.6463810431E-08    3.5628475443E-08
    3.4812263017E-08    3.4014735751E-08    3.3235466236E-08    3.2474036836E-08
    3.1730039453E-08    3.1003075322E-08    3.0292754792E-08    2.9598697114E-08
    2.8920530244E-08    2.8257890640E-08    2.7610423071E-08    2.6977780426E-08
    2.6359623529E-08    2.5755620956E-08    2.5165448859E-08    2.4588790793E-08
    2.4025337548E-08    2.3474786984E-08    2.2936843865E-08    2.2411219709E-08
    2.1897632623E-08    2.1395807166E-08    2.0905474192E-08    2.0426370706E-08
    1.9958239731E-08    1.9500830161E-08    1.9053896634E-08    1.8617199399E-08
    1.8190504188E-08    1.7773582087E-08    1.7366209419E-08    1.6968167619E-08
    1.6579243126E-08    1.6199227257E-08    1.5827916106E-08    1.5465110428E-08
    1.5110615533E-08    1.4764241187E-08    1.4425801506E-08    1.4095114858E-08
    1.3772003763E-08    1.3456294804E-08    1.3147818525E-08    1.2846409353E-08
    1.2551905499E-08    1.2264148875E-08    1.1982985008E-08    1.1708262960E-08
    1.1439835247E-08    1.1177557758E-08    1.0921289677E-08    1.0670893413E-08
    1.0426234521E-08    1.0187181630E-08    9.9536063780E-09    9.7253833384E-09
    9.5023899545E-09    9.2845064735E-09    9.0716158823E-09    8.8636038456E-09
    8.6603586450E-09    8.4617711179E-09    8.2677345996E-09    8.0781448662E-09
    7.8929000781E-09    7.7119007275E-09    7.5350495836E-09    7.3622516402E-09
    7.1934140658E-09    7.0284461529E-09    6.8672592696E-09    6.7097668141E-09
    6.5558841657E-09    6.4055286404E-09    6.2586194470E-09    6.1150776428E-09
    5.9748260926E-09    5.8377894271E-09    5.7038940020E-09    5.5730678584E-09
    5.4452406849E-09    5.3203437789E-09    5.1983100116E-09    5.0790737906E-09
    4.9625710250E-09    4.8487390910E-09    4.7375167987E-09    4.6288443582E-09
    4.5226633499E-09    4.4189166909E-09    4.3175486056E-09    4.2185045949E-09
    4.1217314078E-09    4.0271770122E-09    3.9347905680E-09    3.8445223992E-09
    3.7563239668E-09    3.6701478436E-09    3.5859476880E-09    3.5036782197E-09
    3.4232951958E-09    3.3447553862E-09    3.2680165510E-09    3.1930374172E-09
    3.1197776570E-09    3.0481978666E-09    2.9782595444E-09    2.9099250708E-09
    2.8431576876E-09    2.7779214784E-09    2.7141813493E-09    2.6519030105E-09
    2.5910529576E-09    2.5315984535E-09    2.4735075111E-09    2.4167488758E-09
    2.3612920085E-09    2.3071070705E-09    2.2541649063E-09    2.2024370281E-09
    2.1518956009E-09    2.1025134272E-09    2.0542639323E-09    2.0071211508E-09
    1.9610597120E-09    1.9160548265E-09    1.8720822725E-09    1.8291183835E-09
    1.7871400347E-09    1.7461246317E-09    1.7060500975E-09    1.6668948612E-09
    1.6286378459E-09    1.5912584575E-09    1.5547365738E-09    1.5190525338E-09
    1.4841871273E-09    1.4501215839E-09    1.4168375634E-09    1.3843171460E-09
    1.3525428221E-09    1.3214974838E-09    1.2911644152E-09    1.2615272835E-09
    1.2325701300E-09    1.2042773619E-09    1.1766337434E-09    1.1496243883E-09
    1.1232347515E-09    1.0974506211E-09    1.0722581111E-09    1.0476436537E-09
    1.0235939918E-09    1.0000961724E-09    9.7713753952E-10    9.5470572717E-10
    9.3278865273E-10    9.1137451058E-10    8.9045176566E-10    8.7000914721E-10
    8.5003564314E-10    8.3052049366E-10    8.1145318559E-10    7.9282344676E-10
    7.7462124048E-10    7.5683675998E-10    7.3946042363E-10    7.2248286933E-10
    7.0589494961E-10    6.8968772669E-10    6.7385246770E-10    6.5838063988E-10
    6.4326390626E-10    6.2849412104E-10    6.1406332510E-10    5.9996374184E-10
    5.8618777292E-10    5.7272799419E-10    5.5957715174E-10    5.4672815812E-10
    5.3417408831E-10    5.2190817608E-10    5.0992381034E-10    4.9821453158E-10
    4.8677402832E-10    4.7559613405E-10    4.6467482355E-10    4.5400420976E-10
    4.4357854064E-10    4.3339219603E-10    4.2343968460E-10    4.1371564106E-10
    4.0421482319E-10    3.9493210893E-10    3.8586249372E-10    3.7700108774E-10
    3.6834311331E-10    3.5988390230E-10    3.5161889377E-10    3.4354363134E-10
    3.3565376081E-10    3.2794502788E-10    3.2041327579E-10    3.1305444307E-10
    3.0586456156E-10    2.9883975405E-10    2.9197623227E-10    2.8527029485E-10
    2.7871832532E-10    2.7231679012E-10    2.6606223676E-10    2.5995129204E-10
    2.5398066010E-10    2.4814712066E-10    2.4244752734E-10    2.3687880591E-10
    2.3143795263E-10    2.2612203276E-10    2.2092817888E-10    2.1585358933E-10
    2.1089552673E-10    2.0605131650E-10    2.0131834540E-10    1.9669406013E-10
    1.9217596607E-10    1.8776162578E-10    1.8344865775E-10    1.7923473510E-10
    1.7511758436E-10    1.7109498414E-10    1.6716476412E-10    1.6332480382E-10
    1.5957303135E-10    1.5590742239E-10    1.5232599905E-10    1.4882682882E-10
    1.4547814761E-10    1.4220184538E-10    1.3897740645E-10    1.3579390925E-10
    1.3264521135E-10    1.2953107138E-10    1.2632788640E-10    1.2276959641E-10
    1.1940268464E-10    1.1633386127E-10    1.1364506789E-10    1.1138004304E-10
    1.0953240858E-10    1.0891350575E-10    1.0924751596E-10    1.0915654281E-10
    1.0813156852E-10    1.0569281959E-10    1.0143077093E-10    9.5044942092E-11
    8.4174618220E-11    7.0576574791E-11    5.5785599523E-11    4.0597661945E-11
    2.5848527538E-11    1.2355161616E-11    8.5779324557E-13   -5.1698874655E-12
   -8.3787405443E-12   -9.3208553585E-12   -8.4088563063E-12   -6.1469324288E-12
   -3.0889647252E-12    7.8344227125E-14    1.1463061779E-12    1.8248024580E-12
    2.0725687736E-12    1.9107652788E-12    1.4114230997E-12    6.8379502302E-13
   -2.2764075244E-14   -1.3932150019E-13   -2.1579752161E-13   -2.4474101661E-13
   -2.2613685856E-13   -1.6657694272E-13   -7.7937754733E-14    0.0000000000E+00
    0.0000000000E+00    0.0000000000E+00    0.0000000000E+00    0.0000000000E+00
    0.0000000000E+00    0.0000000000E+00    0.0000000000E+00    0.0000000000E+00
    0.0000000000E+00    0.0000000000E+00    0.0000000000E+00    0.0000000000E+00
    0.0000000000E+00    0.0000000000E+00    0.0000000000E+00    0.0000000000E+00
    0.0000000000E+00    0.0000000000E+00    0.0000000000E+00    0.0000000000E+00
    0.0000000000E+00    0.0000000000E+00    0.0000000000E+00    0.0000000000E+00
    0.0000000000E+00    0.0000000000E+00    0.0000000000E+00    0.0000000000E+00
    0.0000000000E+00    0.0000000000E+00    0.0000000000E+00    0.0000000000E+00
    0.0000000000E+00    0.0000000000E+00    0.0000000000E+00    0.0000000000E+00
    0.0000000000E+00    0.0000000000E+00    0.0000000000E+00    0.0000000000E+00
    0.0000000000E+00    0.0000000000E+00    0.0000000000E+00    0.0000000000E+00
    0.0000000000E+00    0.0000000000E+00    0.0000000000E+00    0.0000000000E+00
    0.0000000000E+00    0.0000000000E+00    0.0000000000E+00    0.0000000000E+00
    0.0000000000E+00    0.0000000000E+00    0.0000000000E+00    0.0000000000E+00
    0.0000000000E+00    0.0000000000E+00    0.0000000000E+00    0.0000000000E+00
    0.0000000000E+00    0.0000000000E+00    0.0000000000E+00    0.0000000000E+00
    0.0000000000E+00    0.0000000000E+00    0.0000000000E+00    0.0000000000E+00
    0.0000000000E+00    0.0000000000E+00    0.0000000000E+00    0.0000000000E+00
    0.0000000000E+00    0.0000000000E+00    0.0000000000E+00    0.0000000000E+00
    0.0000000000E+00    0.0000000000E+00    0.0000000000E+00    0.0000000000E+00
    0.0000000000E+00    0.0000000000E+00    0.0000000000E+00    0.0000000000E+00
    0.0000000000E+00    0.0000000000E+00    0.0000000000E+00    0.0000000000E+00
    0.0000000000E+00    0.0000000000E+00    0.0000000000E+00    0.0000000000E+00
    0.0000000000E+00    0.0000000000E+00    0.0000000000E+00    0.0000000000E+00
    0.0000000000E+00    0.0000000000E+00    0.0000000000E+00    0.0000000000E+00
    0.0000000000E+00    0.0000000000E+00    0.0000000000E+00    0.0000000000E+00
    0.0000000000E+00    0.0000000000E+00    0.0000000000E+00    0.0000000000E+00
    0.0000000000E+00    0.0000000000E+00    0.0000000000E+00    0.0000000000E+00
    0.0000000000E+00    0.0000000000E+00    0.0000000000E+00    0.0000000000E+00
    0.0000000000E+00    0.0000000000E+00    0.0000000000E+00    0.0000000000E+00
    0.0000000000E+00    0.0000000000E+00    0.0000000000E+00    0.0000000000E+00
    0.0000000000E+00    0.0000000000E+00    0.0000000000E+00    0.0000000000E+00
    0.0000000000E+00    0.0000000000E+00    0.0000000000E+00    0.0000000000E+00
    0.0000000000E+00    0.0000000000E+00    0.0000000000E+00    0.0000000000E+00
    0.0000000000E+00    0.0000000000E+00    0.0000000000E+00    0.0000000000E+00
    0.0000000000E+00    0.0000000000E+00    0.0000000000E+00    0.0000000000E+00
    0.0000000000E+00    0.0000000000E+00    0.0000000000E+00    0.0000000000E+00
    0.0000000000E+00    0.0000000000E+00    0.0000000000E+00    0.0000000000E+00
    0.0000000000E+00    0.0000000000E+00    0.0000000000E+00    0.0000000000E+00
    0.0000000000E+00    0.0000000000E+00    0.0000000000E+00    0.0000000000E+00
    0.0000000000E+00    0.0000000000E+00    0.0000000000E+00    0.0000000000E+00
    0.0000000000E+00    0.0000000000E+00    0.0000000000E+00    0.0000000000E+00
    0.0000000000E+00    0.0000000000E+00    0.0000000000E+00    0.0000000000E+00
    0.0000000000E+00    0.0000000000E+00    0.0000000000E+00    0.0000000000E+00
    0.0000000000E+00    0.0000000000E+00    0.0000000000E+00    0.0000000000E+00
    0.0000000000E+00    0.0000000000E+00    0.0000000000E+00    0.0000000000E+00
    0.0000000000E+00    0.0000000000E+00    0.0000000000E+00    0.0000000000E+00
    0.0000000000E+00    0.0000000000E+00    0.0000000000E+00    0.0000000000E+00
    0.0000000000E+00    0.0000000000E+00    0.0000000000E+00    0.0000000000E+00
    0.0000000000E+00    0.0000000000E+00    0.0000000000E+00    0.0000000000E+00
    0.0000000000E+00    0.0000000000E+00    0.0000000000E+00    0.0000000000E+00
    0.0000000000E+00    0.0000000000E+00    0.0000000000E+00    0.0000000000E+00
    0.0000000000E+00    0.0000000000E+00    0.0000000000E+00    0.0000000000E+00
    0.0000000000E+00    0.0000000000E+00    0.0000000000E+00    0.0000000000E+00
    0.0000000000E+00    0.0000000000E+00    0.0000000000E+00    0.0000000000E+00
    0.0000000000E+00    0.0000000000E+00    0.0000000000E+00    0.0000000000E+00
    0.0000000000E+00    0.0000000000E+00    0.0000000000E+00    0.0000000000E+00
    0.0000000000E+00    0.0000000000E+00    0.0000000000E+00    0.0000000000E+00
    0.0000000000E+00    0.0000000000E+00    0.0000000000E+00    0.0000000000E+00
    0.0000000000E+00    0.0000000000E+00    0.0000000000E+00    0.0000000000E+00
    0.0000000000E+00    0.0000000000E+00    0.0000000000E+00    0.0000000000E+00
    0.0000000000E+00    0.0000000000E+00    0.0000000000E+00    0.0000000000E+00
    0.0000000000E+00    0.0000000000E+00    0.0000000000E+00    0.0000000000E+00
    0.0000000000E+00    0.0000000000E+00    0.0000000000E+00    0.0000000000E+00
    0.0000000000E+00    0.0000000000E+00    0.0000000000E+00    0.0000000000E+00
    0.0000000000E+00    0.0000000000E+00    0.0000000000E+00    0.0000000000E+00
    0.0000000000E+00    0.0000000000E+00    0.0000000000E+00    0.0000000000E+00
    0.0000000000E+00    0.0000000000E+00    0.0000000000E+00    0.0000000000E+00
    0.0000000000E+00    0.0000000000E+00    0.0000000000E+00    0.0000000000E+00
    0.0000000000E+00    0.0000000000E+00    0.0000000000E+00    0.0000000000E+00
    0.0000000000E+00    0.0000000000E+00    0.0000000000E+00    0.0000000000E+00
    0.0000000000E+00    0.0000000000E+00    0.0000000000E+00    0.0000000000E+00
    0.0000000000E+00    0.0000000000E+00    0.0000000000E+00    0.0000000000E+00
    0.0000000000E+00    0.0000000000E+00    0.0000000000E+00    0.0000000000E+00
    0.0000000000E+00    0.0000000000E+00    0.0000000000E+00    0.0000000000E+00
    0.0000000000E+00    0.0000000000E+00    0.0000000000E+00    0.0000000000E+00
    0.0000000000E+00    0.0000000000E+00    0.0000000000E+00    0.0000000000E+00
    0.0000000000E+00    0.0000000000E+00    0.0000000000E+00    0.0000000000E+00
    0.0000000000E+00    0.0000000000E+00    0.0000000000E+00    0.0000000000E+00
    0.0000000000E+00    0.0000000000E+00    0.0000000000E+00    0.0000000000E+00
    0.0000000000E+00    0.0000000000E+00    0.0000000000E+00    0.0000000000E+00
    0.0000000000E+00    0.0000000000E+00    0.0000000000E+00    0.0000000000E+00
    0.0000000000E+00    0.0000000000E+00    0.0000000000E+00    0.0000000000E+00
    0.0000000000E+00    0.0000000000E+00    0.0000000000E+00    0.0000000000E+00
    0.0000000000E+00    0.0000000000E+00    0.0000000000E+00    0.0000000000E+00
    0.0000000000E+00    0.0000000000E+00    0.0000000000E+00    0.0000000000E+00
    0.0000000000E+00    0.0000000000E+00    0.0000000000E+00    0.0000000000E+00
    0.0000000000E+00    0.0000000000E+00    0.0000000000E+00    0.0000000000E+00
    0.0000000000E+00    0.0000000000E+00    0.0000000000E+00    0.0000000000E+00
    0.0000000000E+00    0.0000000000E+00    0.0000000000E+00    0.0000000000E+00
    0.0000000000E+00    0.0000000000E+00    0.0000000000E+00    0.0000000000E+00
    0.0000000000E+00    0.0000000000E+00    0.0000000000E+00    0.0000000000E+00
    0.0000000000E+00    0.0000000000E+00    0.0000000000E+00    0.0000000000E+00
    0.0000000000E+00    0.0000000000E+00    0.0000000000E+00    0.0000000000E+00
    0.0000000000E+00    0.0000000000E+00    0.0000000000E+00    0.0000000000E+00
    0.0000000000E+00    0.0000000000E+00    0.0000000000E+00    0.0000000000E+00
    0.0000000000E+00    0.0000000000E+00    0.0000000000E+00    0.0000000000E+00
    0.0000000000E+00    0.0000000000E+00    0.0000000000E+00    0.0000000000E+00
    0.0000000000E+00    0.0000000000E+00    0.0000000000E+00    0.0000000000E+00
    0.0000000000E+00    0.0000000000E+00    0.0000000000E+00    0.0000000000E+00
    0.0000000000E+00    0.0000000000E+00    0.0000000000E+00    0.0000000000E+00
    0.0000000000E+00    0.0000000000E+00    0.0000000000E+00    0.0000000000E+00
    0.0000000000E+00    0.0000000000E+00    0.0000000000E+00    0.0000000000E+00
    0.0000000000E+00    0.0000000000E+00    0.0000000000E+00    0.0000000000E+00
    0.0000000000E+00    0.0000000000E+00    0.0000000000E+00    0.0000000000E+00
    0.0000000000E+00    0.0000000000E+00    0.0000000000E+00    0.0000000000E+00
    0.0000000000E+00    0.0000000000E+00    0.0000000000E+00    0.0000000000E+00
    0.0000000000E+00    0.0000000000E+00    0.0000000000E+00    0.0000000000E+00
    0.0000000000E+00    0.0000000000E+00    0.0000000000E+00    0.0000000000E+00
    0.0000000000E+00    0.0000000000E+00    0.0000000000E+00    0.0000000000E+00
    0.0000000000E+00    0.0000000000E+00    0.0000000000E+00    0.0000000000E+00
    0.0000000000E+00    0.0000000000E+00    0.0000000000E+00    0.0000000000E+00
    0.0000000000E+00    0.0000000000E+00    0.0000000000E+00    0.0000000000E+00
    0.0000000000E+00    0.0000000000E+00    0.0000000000E+00    0.0000000000E+00
    0.0000000000E+00    0.0000000000E+00    0.0000000000E+00    0.0000000000E+00
    0.0000000000E+00    0.0000000000E+00    0.0000000000E+00    0.0000000000E+00
    0.0000000000E+00    0.0000000000E+00    0.0000000000E+00    0.0000000000E+00
    0.0000000000E+00    0.0000000000E+00    0.0000000000E+00    0.0000000000E+00
   </PP_CHI.1>
   <PP_CHI.2
       type="real"
       size="1636"
       columns="4"
       index="2"
       occupation=" 6.000"
       pseudo_energy="   -0.3332225497E+01"
       label="3P"
       l="1" >
   -2.2207059108E-11    4.5357860902E-04    1.8135536018E-03    4.0776430878E-03
    7.2420459796E-03    1.1301445136E-02    1.6249011850E-02    2.2076411773E-02
    2.8773812383E-02    3.6329892124E-02    4.4731851377E-02    5.3965425407E-02
    6.4014899483E-02    7.4863126336E-02    8.6491546162E-02    9.8880209342E-02
    1.1200780209E-01    1.2585167521E-01    1.4038787607E-01    1.5559118409E-01
    1.7143514977E-01    1.8789213736E-01    2.0493337141E-01    2.2252898712E-01
    2.4064808458E-01    2.5925878699E-01    2.7832830269E-01    2.9782299101E-01
    3.1770843187E-01    3.3794949899E-01    3.5851043640E-01    3.7935493832E-01
    4.0044623186E-01    4.2174716247E-01    4.4322028183E-01    4.6482793764E-01
    4.8653236528E-01    5.0829578062E-01    5.3008047384E-01    5.5184890368E-01
    5.7356379179E-01    5.9518821668E-01    6.1668570687E-01    6.3802033284E-01
    6.5915679725E-01    6.8006052309E-01    7.0069773940E-01    7.2103556402E-01
    7.4104208319E-01    7.6068642752E-01    7.7993884404E-01    7.9877076416E-01
    8.1715486713E-01    8.3506513880E-01    8.5247692566E-01    8.6936698370E-01
    8.8571352233E-01    9.0149624285E-01    9.1669637182E-01    9.3129668898E-01
    9.4528154990E-01    9.5863690324E-01    9.7135030281E-01    9.8341091438E-01
    9.9480951736E-01    1.0055385015E+00    1.0155918584E+00    1.0249651689E+00
    1.0336555849E+00    1.0416618073E+00    1.0489840594E+00    1.0556240560E+00
    1.0615849684E+00    1.0668713855E+00    1.0714892714E+00    1.0754459188E+00
    1.0787498993E+00    1.0814110107E+00    1.0834402203E+00    1.0848496058E+00
    1.0856522935E+00    1.0858623934E+00    1.0854949320E+00    1.0845657826E+00
    1.0830915939E+00    1.0810897165E+00    1.0785781273E+00    1.0755753531E+00
    1.0721003922E+00    1.0681726362E+00    1.0638117895E+00    1.0590377897E+00
    1.0538707275E+00    1.0483307662E+00    1.0424380630E+00    1.0362126897E+00
    1.0296745554E+00    1.0228433311E+00    1.0157383754E+00    1.0083786626E+00
    1.0007827142E+00    9.9296853226E-01    9.8495353690E-01    9.7675450694E-01
    9.6838752465E-01    9.5986792462E-01    9.5121024647E-01    9.4242819079E-01
    9.3353458276E-01    9.2454134231E-01    9.1545945863E-01    9.0629898728E-01
    8.9706923716E-01    8.8777907722E-01    8.7843697734E-01    8.6905102103E-01
    8.5962891954E-01    8.5017802480E-01    8.4070534189E-01    8.3121754135E-01
    8.2172097116E-01    8.1222166837E-01    8.0272537052E-01    7.9323752667E-01
    7.8376330819E-01    7.7430761918E-01    7.6487510664E-01    7.5547017032E-01
    7.4609697225E-01    7.3675944601E-01    7.2746130568E-01    7.1820605449E-01
    7.0899699328E-01    6.9983722853E-01    6.9072968029E-01    6.8167708968E-01
    6.7268202630E-01    6.6374689522E-01    6.5487394387E-01    6.4606526859E-01
    6.3732282102E-01    6.2864841420E-01    6.2004372850E-01    6.1151031730E-01
    6.0304961252E-01    5.9466292988E-01    5.8635147399E-01    5.7811634331E-01
    5.6995853482E-01    5.6187894862E-01    5.5387839229E-01    5.4595758511E-01
    5.3811716211E-01    5.3035767801E-01    5.2267961092E-01    5.1508336602E-01
    5.0756927898E-01    5.0013761933E-01    4.9278859364E-01    4.8552234864E-01
    4.7833897419E-01    4.7123850608E-01    4.6422092882E-01    4.5728617823E-01
    4.5043414401E-01    4.4366467210E-01    4.3697756707E-01    4.3037259431E-01
    4.2384948220E-01    4.1740792414E-01    4.1104758055E-01    4.0476808074E-01
    3.9856902473E-01    3.9244998499E-01    3.8641050810E-01    3.8045011638E-01
    3.7456830934E-01    3.6876456523E-01    3.6303834241E-01    3.5738908067E-01
    3.5181620254E-01    3.4631911453E-01    3.4089720828E-01    3.3554986169E-01
    3.3027644001E-01    3.2507629687E-01    3.1994877522E-01    3.1489320833E-01
    3.0990892065E-01    3.0499522866E-01    3.0015144170E-01    2.9537686277E-01
    2.9067078922E-01    2.8603251351E-01    2.8146132385E-01    2.7695650486E-01
    2.7251733818E-01    2.6814310307E-01    2.6383307691E-01    2.5958653580E-01
    2.5540275500E-01    2.5128100945E-01    2.4722057420E-01    2.4322072484E-01
    2.3928073791E-01    2.3539989130E-01    2.3157746458E-01    2.2781273939E-01
    2.2410499973E-01    2.2045353230E-01    2.1685762677E-01    2.1331657604E-01
    2.0982967656E-01    2.0639622851E-01    2.0301553607E-01    1.9968690759E-01
    1.9640965584E-01    1.9318309820E-01    1.9000655679E-01    1.8687935867E-01
    1.8380083598E-01    1.8077032609E-01    1.7778717173E-01    1.7485072111E-01
    1.7196032804E-01    1.6911535201E-01    1.6631515832E-01    1.6355911813E-01
    1.6084660856E-01    1.5817701275E-01    1.5554971994E-01    1.5296412550E-01
    1.5041963099E-01    1.4791564423E-01    1.4545157927E-01    1.4302685649E-01
    1.4064090260E-01    1.3829315065E-01    1.3598304003E-01    1.3371001655E-01
    1.3147353236E-01    1.2927304601E-01    1.2710802241E-01    1.2497793285E-01
    1.2288225498E-01    1.2082047280E-01    1.1879207663E-01    1.1679656312E-01
    1.1483343517E-01    1.1290220199E-01    1.1100237897E-01    1.0913348774E-01
    1.0729505609E-01    1.0548661794E-01    1.0370771330E-01    1.0195788825E-01
    1.0023669488E-01    9.8543691273E-02    9.6878441413E-02    9.5240515189E-02
    9.3629488328E-02    9.2044942344E-02    9.0486464498E-02    8.8953647744E-02
    8.7446090676E-02    8.5963397482E-02    8.4505177889E-02    8.3071047108E-02
    8.1660625786E-02    8.0273539944E-02    7.8909420932E-02    7.7567905367E-02
    7.6248635080E-02    7.4951257060E-02    7.3675423402E-02    7.2420791244E-02
    7.1187022716E-02    6.9973784884E-02    6.8780749692E-02    6.7607593903E-02
    6.6453999051E-02    6.5319651374E-02    6.4204241769E-02    6.3107465726E-02
    6.2029023280E-02    6.0968618950E-02    5.9925961687E-02    5.8900764816E-02
    5.7892745983E-02    5.6901627101E-02    5.5927134292E-02    5.4968997837E-02
    5.4026952120E-02    5.3100735573E-02    5.2190090627E-02    5.1294763657E-02
    5.0414504928E-02    4.9549068548E-02    4.8698212410E-02    4.7861698146E-02
    4.7039291073E-02    4.6230760146E-02    4.5435877906E-02    4.4654420430E-02
    4.3886167282E-02    4.3130901470E-02    4.2388409389E-02    4.1658480780E-02
    4.0940908681E-02    4.0235489381E-02    3.9542022372E-02    3.8860310305E-02
    3.8190158946E-02    3.7531377129E-02    3.6883776711E-02    3.6247172534E-02
    3.5621382375E-02    3.5006226907E-02    3.4401529655E-02    3.3807116958E-02
    3.3222817923E-02    3.2648464385E-02    3.2083890872E-02    3.1528934559E-02
    3.0983435229E-02    3.0447235240E-02    2.9920179481E-02    2.9402115335E-02
    2.8892892645E-02    2.8392363672E-02    2.7900383063E-02    2.7416807813E-02
    2.6941497230E-02    2.6474312897E-02    2.6015118645E-02    2.5563780508E-02
    2.5120166701E-02    2.4684147577E-02    2.4255595600E-02    2.3834385309E-02
    2.3420393290E-02    2.3013498141E-02    2.2613580443E-02    2.2220522727E-02
    2.1834209447E-02    2.1454526948E-02    2.1081363438E-02    2.0714608957E-02
    2.0354155349E-02    1.9999896236E-02    1.9651726989E-02    1.9309544697E-02
    1.8973248146E-02    1.8642737789E-02    1.8317915719E-02    1.7998685647E-02
    1.7684952872E-02    1.7376624257E-02    1.7073608208E-02    1.6775814643E-02
    1.6483154973E-02    1.6195542079E-02    1.5912890283E-02    1.5635115330E-02
    1.5362134365E-02    1.5093865907E-02    1.4830229831E-02    1.4571147344E-02
    1.4316540965E-02    1.4066334503E-02    1.3820453036E-02    1.3578822892E-02
    1.3341371628E-02    1.3108028010E-02    1.2878721994E-02    1.2653384705E-02
    1.2431948422E-02    1.2214346554E-02    1.2000513628E-02    1.1790385265E-02
    1.1583898166E-02    1.1380990091E-02    1.1181599847E-02    1.0985667266E-02
    1.0793133190E-02    1.0603939456E-02    1.0418028877E-02    1.0235345228E-02
    1.0055833231E-02    9.8794385360E-03    9.7061077103E-03    9.5357882200E-03
    9.3684284168E-03    9.2039775230E-03    9.0423856177E-03    8.8836036219E-03
    8.7275832855E-03    8.5742771731E-03    8.4236386507E-03    8.2756218726E-03
    8.1301817682E-03    7.9872740295E-03    7.8468550980E-03    7.7088821528E-03
    7.5733130983E-03    7.4401065517E-03    7.3092218320E-03    7.1806189476E-03
    7.0542585855E-03    6.9301020995E-03    6.8081114994E-03    6.6882494402E-03
    6.5704792110E-03    6.4547647249E-03    6.3410705082E-03    6.2293616905E-03
    6.1196039943E-03    6.0117637255E-03    5.9058077635E-03    5.8017035516E-03
    5.6994190874E-03    5.5989229140E-03    5.5001841104E-03    5.4031722828E-03
    5.3078575559E-03    5.2142105638E-03    5.1222024417E-03    5.0318048176E-03
    4.9429898041E-03    4.8557299897E-03    4.7699984315E-03    4.6857686472E-03
    4.6030146068E-03    4.5217107258E-03    4.4418318570E-03    4.3633532838E-03
    4.2862507125E-03    4.2105002651E-03    4.1360784728E-03    4.0629622687E-03
    3.9911289812E-03    3.9205563271E-03    3.8512224055E-03    3.7831056908E-03
    3.7161850268E-03    3.6504396204E-03    3.5858490351E-03    3.5223931856E-03
    3.4600523311E-03    3.3988070703E-03    3.3386383349E-03    3.2795273847E-03
    3.2214558012E-03    3.1644054831E-03    3.1083586400E-03    3.0532977879E-03
    2.9992057435E-03    2.9460656194E-03    2.8938608189E-03    2.8425750312E-03
    2.7921922264E-03    2.7426966509E-03    2.6940728227E-03    2.6463055265E-03
    2.5993798095E-03    2.5532809769E-03    2.5079945874E-03    2.4635064489E-03
    2.4198026143E-03    2.3768693773E-03    2.3346932685E-03    2.2932610508E-03
    2.2525597163E-03    2.2125764817E-03    2.1732987847E-03    2.1347142803E-03
    2.0968108371E-03    2.0595765333E-03    2.0229996539E-03    1.9870686863E-03
    1.9517723173E-03    1.9170994299E-03    1.8830390993E-03    1.8495805903E-03
    1.8167133537E-03    1.7844270231E-03    1.7527114118E-03    1.7215565101E-03
    1.6909524816E-03    1.6608896607E-03    1.6313585498E-03    1.6023498159E-03
    1.5738542881E-03    1.5458629551E-03    1.5183669618E-03    1.4913576073E-03
    1.4648263416E-03    1.4387647637E-03    1.4131646185E-03    1.3880177946E-03
    1.3633163217E-03    1.3390523682E-03    1.3152182388E-03    1.2918063722E-03
    1.2688093390E-03    1.2462198389E-03    1.2240306989E-03    1.2022348712E-03
    1.1808254307E-03    1.1597955730E-03    1.1391386126E-03    1.1188479802E-03
    1.0989172217E-03    1.0793399951E-03    1.0601100695E-03    1.0412213226E-03
    1.0226677391E-03    1.0044434087E-03    9.8654252451E-04    9.6895938095E-04
    9.5168837231E-04    9.3472399083E-04    9.1806082510E-04    9.0169355836E-04
    8.8561696685E-04    8.6982591827E-04    8.5431537011E-04    8.3908036817E-04
    8.2411604499E-04    8.0941761839E-04    7.9498038994E-04    7.8079974355E-04
    7.6687114403E-04    7.5319013571E-04    7.3975234102E-04    7.2655345918E-04
    7.1358926485E-04    7.0085560681E-04    6.8834840670E-04    6.7606365774E-04
    6.6399742349E-04    6.5214583664E-04    6.4050509779E-04    6.2907147429E-04
    6.1784129905E-04    6.0681096947E-04    5.9597694622E-04    5.8533575222E-04
    5.7488397154E-04    5.6461824829E-04    5.5453528566E-04    5.4463184479E-04
    5.3490474386E-04    5.2535085703E-04    5.1596711348E-04    5.0675049649E-04
    4.9769804243E-04    4.8880683989E-04    4.8007402874E-04    4.7149679926E-04
    4.6307239122E-04    4.5479809307E-04    4.4667124106E-04    4.3868921838E-04
    4.3084945440E-04    4.2314942383E-04    4.1558664592E-04    4.0815868368E-04
    4.0086314316E-04    3.9369767264E-04    3.8665996193E-04    3.7974774161E-04
    3.7295878236E-04    3.6629089423E-04    3.5974192593E-04    3.5330976423E-04
    3.4699233318E-04    3.4078759358E-04    3.3469354223E-04    3.2870821137E-04
    3.2282966803E-04    3.1705601340E-04    3.1138538229E-04    3.0581594249E-04
    3.0034589420E-04    2.9497346947E-04    2.8969693164E-04    2.8451457479E-04
    2.7942472320E-04    2.7442573082E-04    2.6951598075E-04    2.6469388471E-04
    2.5995788257E-04    2.5530644182E-04    2.5073805713E-04    2.4625124982E-04
    2.4184456743E-04    2.3751658322E-04    2.3326589576E-04    2.2909112847E-04
    2.2499092918E-04    2.2096396968E-04    2.1700894532E-04    2.1312457462E-04
    2.0930959879E-04    2.0556278142E-04    2.0188290799E-04    1.9826878558E-04
    1.9471924240E-04    1.9123312751E-04    1.8780931035E-04    1.8444668046E-04
    1.8114414710E-04    1.7790063890E-04    1.7471510350E-04    1.7158650725E-04
    1.6851383485E-04    1.6549608906E-04    1.6253229034E-04    1.5962147656E-04
    1.5676270268E-04    1.5395504048E-04    1.5119757821E-04    1.4848942037E-04
    1.4582968734E-04    1.4321751515E-04    1.4065205522E-04    1.3813247402E-04
    1.3565795288E-04    1.3322768768E-04    1.3084088859E-04    1.2849677986E-04
    1.2619459951E-04    1.2393359915E-04    1.2171304370E-04    1.1953221114E-04
    1.1739039232E-04    1.1528689072E-04    1.1322102221E-04    1.1119211483E-04
    1.0919950860E-04    1.0724255529E-04    1.0532061820E-04    1.0343307198E-04
    1.0157930241E-04    9.9758706231E-05    9.7970690904E-05    9.6214674460E-05
    9.4490085294E-05    9.2796361987E-05    9.1132953124E-05    8.9499317113E-05
    8.7894922017E-05    8.6319245379E-05    8.4771774053E-05    8.3252004040E-05
    8.1759440325E-05    8.0293596718E-05    7.8853995698E-05    7.7440168258E-05
    7.6051653751E-05    7.4687999747E-05    7.3348761883E-05    7.2033503723E-05
    7.0741796611E-05    6.9473219540E-05    6.8227359012E-05    6.7003808904E-05
    6.5802170339E-05    6.4622051556E-05    6.3463067785E-05    6.2324841118E-05
    6.1207000395E-05    6.0109181074E-05    5.9031025123E-05    5.7972180898E-05
    5.6932303029E-05    5.5911052314E-05    5.4908095603E-05    5.3923105694E-05
    5.2955761226E-05    5.2005746574E-05    5.1072751749E-05    5.0156472296E-05
    4.9256609197E-05    4.8372868771E-05    4.7504962584E-05    4.6652607351E-05
    4.5815524846E-05    4.4993441813E-05    4.4186089875E-05    4.3393205448E-05
    4.2614529659E-05    4.1849808257E-05    4.1098791531E-05    4.0361234235E-05
    3.9636895500E-05    3.8925538764E-05    3.8226931688E-05    3.7540846088E-05
    3.6867057853E-05    3.6205346880E-05    3.5555496996E-05    3.4917295895E-05
    3.4290535061E-05    3.3675009706E-05    3.3070518703E-05    3.2476864518E-05
    3.1893853149E-05    3.1321294060E-05    3.0759000123E-05    3.0206787553E-05
    2.9664475850E-05    2.9131887744E-05    2.8608849130E-05    2.8095189018E-05
    2.7590739475E-05    2.7095335569E-05    2.6608815320E-05    2.6131019640E-05
    2.5661792289E-05    2.5200979820E-05    2.4748431529E-05    2.4303999408E-05
    2.3867538096E-05    2.3438904830E-05    2.3017959403E-05    2.2604564113E-05
    2.2198583723E-05    2.1799885412E-05    2.1408338738E-05    2.1023815591E-05
    2.0646190151E-05    2.0275338852E-05    1.9911140335E-05    1.9553475414E-05
    1.9202227036E-05    1.8857280240E-05    1.8518522124E-05    1.8185841803E-05
    1.7859130378E-05    1.7538280900E-05    1.7223188331E-05    1.6913749513E-05
    1.6609863135E-05    1.6311429697E-05    1.6018351483E-05    1.5730532522E-05
    1.5447878562E-05    1.5170297039E-05    1.4897697043E-05    1.4629989294E-05
    1.4367086108E-05    1.4108901370E-05    1.3855350508E-05    1.3606350464E-05
    1.3361819664E-05    1.3121677997E-05    1.2885846785E-05    1.2654248759E-05
    1.2426808032E-05    1.2203450077E-05    1.1984101700E-05    1.1768691019E-05
    1.1557147437E-05    1.1349401623E-05    1.1145385485E-05    1.0945032152E-05
    1.0748275950E-05    1.0555052381E-05    1.0365298102E-05    1.0178950903E-05
    9.9959496905E-06    9.8162344624E-06    9.6397462927E-06    9.4664273104E-06
    9.2962206808E-06    9.1290705872E-06    8.9649222125E-06    8.8037217214E-06
    8.6454162429E-06    8.4899538529E-06    8.3372835574E-06    8.1873552759E-06
    8.0401198249E-06    7.8955289019E-06    7.7535350697E-06    7.6140917409E-06
    7.4771531627E-06    7.3426744019E-06    7.2106113304E-06    7.0809206105E-06
    6.9535596813E-06    6.8284867440E-06    6.7056607489E-06    6.5850413821E-06
    6.4665890515E-06    6.3502648749E-06    6.2360306664E-06    6.1238489249E-06
    6.0136828207E-06    5.9054961846E-06    5.7992534952E-06    5.6949198680E-06
    5.5924610433E-06    5.4918433759E-06    5.3930338231E-06    5.2959999346E-06
    5.2007098419E-06    5.1071322475E-06    5.0152364148E-06    4.9249921583E-06
    4.8363698336E-06    4.7493403275E-06    4.6638750489E-06    4.5799459190E-06
    4.4975253625E-06    4.4165862984E-06    4.3371021312E-06    4.2590467422E-06
    4.1823944811E-06    4.1071201572E-06    4.0331990317E-06    3.9606068092E-06
    3.8893196299E-06    3.8193140621E-06    3.7505670939E-06    3.6830561262E-06
    3.6167589652E-06    3.5516538150E-06    3.4877192705E-06    3.4249343106E-06
    3.3632782910E-06    3.3027309380E-06    3.2432723410E-06    3.1848829469E-06
    3.1275435531E-06    3.0712353015E-06    3.0159396720E-06    2.9616384772E-06
    2.9083138553E-06    2.8559482654E-06    2.8045244811E-06    2.7540255848E-06
    2.7044349627E-06    2.6557362988E-06    2.6079135700E-06    2.5609510406E-06
    2.5148332569E-06    2.4695450430E-06    2.4250714949E-06    2.3813979762E-06
    2.3385101129E-06    2.2963937891E-06    2.2550351421E-06    2.2144205579E-06
    2.1745366670E-06    2.1353703397E-06    2.0969086817E-06    2.0591390304E-06
    2.0220489504E-06    1.9856262292E-06    1.9498588738E-06    1.9147351064E-06
    1.8802433603E-06    1.8463722767E-06    1.8131107006E-06    1.7804476772E-06
    1.7483724483E-06    1.7168744489E-06    1.6859433035E-06    1.6555688231E-06
    1.6257410012E-06    1.5964500114E-06    1.5676862034E-06    1.5394401002E-06
    1.5117023951E-06    1.4844639483E-06    1.4577157841E-06    1.4314490881E-06
    1.4056552041E-06    1.3803256312E-06    1.3554520214E-06    1.3310261763E-06
    1.3070400450E-06    1.2834857209E-06    1.2603554396E-06    1.2376415761E-06
    1.2153366422E-06    1.1934332842E-06    1.1719242808E-06    1.1508025398E-06
    1.1300610970E-06    1.1096931129E-06    1.0896918708E-06    1.0700507749E-06
    1.0507633478E-06    1.0318232284E-06    1.0132241698E-06    9.9496003737E-07
    9.7702480678E-07    9.5941256182E-07    9.4211749259E-07    9.2513389357E-07
    9.0845616174E-07    8.9207879473E-07    8.7599638905E-07    8.6020363829E-07
    8.4469533140E-07    8.2946635093E-07    8.1451167140E-07    7.9982635763E-07
    7.8540556311E-07    7.7124452846E-07    7.5733857979E-07    7.4368312720E-07
    7.3027366330E-07    7.1710576170E-07    7.0417507554E-07    6.9147733611E-07
    6.7900835141E-07    6.6676400479E-07    6.5474025357E-07    6.4293312777E-07
    6.3133872874E-07    6.1995322792E-07    6.0877286557E-07    5.9779394954E-07
    5.8701285404E-07    5.7642601847E-07    5.6602994623E-07    5.5582120361E-07
    5.4579641860E-07    5.3595227981E-07    5.2628553542E-07    5.1679299205E-07
    5.0747151375E-07    4.9831802095E-07    4.8932948945E-07    4.8050294942E-07
    4.7183548447E-07    4.6332423062E-07    4.5496637539E-07    4.4675915690E-07
    4.3869986292E-07    4.3078583000E-07    4.2301444260E-07    4.1538313220E-07
    4.0788937651E-07    4.0053069857E-07    3.9330466597E-07    3.8620889009E-07
    3.7924102524E-07    3.7239876793E-07    3.6567985610E-07    3.5908206840E-07
    3.5260322341E-07    3.4624117898E-07    3.3999383148E-07    3.3385911514E-07
    3.2783500132E-07    3.2191949791E-07    3.1611064863E-07    3.1040653240E-07
    3.0480526269E-07    2.9930498694E-07    2.9390388589E-07    2.8860017304E-07
    2.8339209402E-07    2.7827792605E-07    2.7325597732E-07    2.6832458649E-07
    2.6348212211E-07    2.5872698207E-07    2.5405759312E-07    2.4947241031E-07
    2.4496991650E-07    2.4054862185E-07    2.3620706333E-07    2.3194380424E-07
    2.2775743376E-07    2.2364656644E-07    2.1960984178E-07    2.1564592376E-07
    2.1175350042E-07    2.0793128341E-07    2.0417800757E-07    2.0049243052E-07
    1.9687333225E-07    1.9331951468E-07    1.8982980135E-07    1.8640303694E-07
    1.8303808695E-07    1.7973383729E-07    1.7648919396E-07    1.7330308261E-07
    1.7017444827E-07    1.6710225496E-07    1.6408548534E-07    1.6112314040E-07
    1.5821423912E-07    1.5535781813E-07    1.5255293142E-07    1.4979865003E-07
    1.4709406169E-07    1.4443827061E-07    1.4183039708E-07    1.3926957727E-07
    1.3675496289E-07    1.3428572093E-07    1.3186103340E-07    1.2948009702E-07
    1.2714212298E-07    1.2484633670E-07    1.2259197752E-07    1.2037829850E-07
    1.1820456617E-07    1.1607006024E-07    1.1397407341E-07    1.1191591113E-07
    1.0989489134E-07    1.0791034429E-07    1.0596161228E-07    1.0404804946E-07
    1.0216902164E-07    1.0032390601E-07    9.8512091023E-08    9.6732976127E-08
    9.4985971598E-08    9.3270498339E-08    9.1585987682E-08    8.9931881210E-08
    8.8307630565E-08    8.6712697269E-08    8.5146552551E-08    8.3608677168E-08
    8.2098561230E-08    8.0615704040E-08    7.9159613921E-08    7.7729808054E-08
    7.6325812329E-08    7.4947161174E-08    7.3593397411E-08    7.2264072099E-08
    7.0958744391E-08    6.9676981381E-08    6.8418357971E-08    6.7182456722E-08
    6.5968867720E-08    6.4777188440E-08    6.3607023610E-08    6.2457985085E-08
    6.1329691716E-08    6.0221769226E-08    5.9133850084E-08    5.8065573383E-08
    5.7016584725E-08    5.5986536098E-08    5.4975085763E-08    5.3981898147E-08
    5.3006643723E-08    5.2048998905E-08    5.1108645944E-08    5.0185272815E-08
    4.9278573121E-08    4.8388245991E-08    4.7513995977E-08    4.6655532959E-08
    4.5812572047E-08    4.4984833491E-08    4.4172042579E-08    4.3373929559E-08
    4.2590229540E-08    4.1820682411E-08    4.1065032747E-08    4.0323029732E-08
    3.9594427071E-08    3.8878982913E-08    3.8176459768E-08    3.7486624429E-08
    3.6809247894E-08    3.6144105292E-08    3.5490975807E-08    3.4849642605E-08
    3.4219892764E-08    3.3601517203E-08    3.2994310610E-08    3.2398071378E-08
    3.1812601536E-08    3.1237706683E-08    3.0673195924E-08    3.0118881811E-08
    2.9574580274E-08    2.9040110565E-08    2.8515295195E-08    2.7999959878E-08
    2.7493933471E-08    2.6997047919E-08    2.6509138200E-08    2.6030042268E-08
    2.5559600999E-08    2.5097658143E-08    2.4644060266E-08    2.4198656702E-08
    2.3761299507E-08    2.3331843403E-08    2.2910145734E-08    2.2496066418E-08
    2.2089467901E-08    2.1690215110E-08    2.1298175408E-08    2.0913218556E-08
    2.0535216660E-08    2.0164044136E-08    1.9799577667E-08    1.9441696160E-08
    1.9090280706E-08    1.8745214544E-08    1.8406383019E-08    1.8073673546E-08
    1.7746975570E-08    1.7426180533E-08    1.7111181836E-08    1.6801874800E-08
    1.6498156642E-08    1.6199926428E-08    1.5907085050E-08    1.5619535185E-08
    1.5337181269E-08    1.5059929462E-08    1.4787687617E-08    1.4520365252E-08
    1.4257873518E-08    1.4000125167E-08    1.3747034529E-08    1.3498517479E-08
    1.3254491411E-08    1.3014875208E-08    1.2779589220E-08    1.2548555234E-08
    1.2321696449E-08    1.2098937450E-08    1.1880204184E-08    1.1665423932E-08
    1.1454525292E-08    1.1247438148E-08    1.1044093653E-08    1.0844424199E-08
    1.0648363401E-08    1.0455846072E-08    1.0266808201E-08    1.0081186935E-08
    9.8989205535E-09    9.7199484513E-09    9.5442111176E-09    9.3716501157E-09
    9.2022080639E-09    9.0358286165E-09    8.8724564461E-09    8.7120372236E-09
    8.5545176011E-09    8.3998451940E-09    8.2479685634E-09    8.0988371994E-09
    7.9524015037E-09    7.8086127747E-09    7.6674231897E-09    7.5287857896E-09
    7.3926544633E-09    7.2589839324E-09    7.1277297361E-09    6.9988482165E-09
    6.8722965045E-09    6.7480325051E-09    6.6260148833E-09    6.5062030509E-09
    6.3885571526E-09    6.2730380525E-09    6.1596073213E-09    6.0482272257E-09
    5.9388607129E-09    5.8314713992E-09    5.7260235582E-09    5.6224821084E-09
    5.5213571824E-09    5.4244465827E-09    5.3287901400E-09    5.2339391081E-09
    5.1395587220E-09    5.0454726054E-09    4.9516967229E-09    4.8567811899E-09
    4.7431214500E-09    4.6346935450E-09    4.5353458426E-09    4.4482462354E-09
    4.3754607156E-09    4.3175685344E-09    4.2733342037E-09    4.3020035833E-09
    4.3306889511E-09    4.3372061771E-09    4.3041622283E-09    4.2154500577E-09
    4.0574897250E-09    3.8203955898E-09    3.4121167166E-09    2.9025070963E-09
    2.3457528037E-09    1.7688112733E-09    1.2002175807E-09    6.6830961676E-10
    1.9945696340E-10   -1.2117304694E-10   -2.8783119231E-10   -3.6732218745E-10
   -3.7141624614E-10   -3.1553374896E-10   -2.1753112696E-10   -9.6415152101E-11
    1.0927652769E-11    4.9896691230E-11    7.4607784275E-11    8.3828716471E-11
    7.8303425848E-11    6.0404367659E-11    3.3725086556E-11    2.6333359823E-12
   -4.3291338901E-12   -7.7906029594E-12   -9.6145990033E-12   -9.7047383683E-12
   -8.1878852075E-12   -5.3807080637E-12   -1.7442195462E-12    0.0000000000E+00
    0.0000000000E+00    0.0000000000E+00    0.0000000000E+00    0.0000000000E+00
    0.0000000000E+00    0.0000000000E+00    0.0000000000E+00    0.0000000000E+00
    0.0000000000E+00    0.0000000000E+00    0.0000000000E+00    0.0000000000E+00
    0.0000000000E+00    0.0000000000E+00    0.0000000000E+00    0.0000000000E+00
    0.0000000000E+00    0.0000000000E+00    0.0000000000E+00    0.0000000000E+00
    0.0000000000E+00    0.0000000000E+00    0.0000000000E+00    0.0000000000E+00
    0.0000000000E+00    0.0000000000E+00    0.0000000000E+00    0.0000000000E+00
    0.0000000000E+00    0.0000000000E+00    0.0000000000E+00    0.0000000000E+00
    0.0000000000E+00    0.0000000000E+00    0.0000000000E+00    0.0000000000E+00
    0.0000000000E+00    0.0000000000E+00    0.0000000000E+00    0.0000000000E+00
    0.0000000000E+00    0.0000000000E+00    0.0000000000E+00    0.0000000000E+00
    0.0000000000E+00    0.0000000000E+00    0.0000000000E+00    0.0000000000E+00
    0.0000000000E+00    0.0000000000E+00    0.0000000000E+00    0.0000000000E+00
    0.0000000000E+00    0.0000000000E+00    0.0000000000E+00    0.0000000000E+00
    0.0000000000E+00    0.0000000000E+00    0.0000000000E+00    0.0000000000E+00
    0.0000000000E+00    0.0000000000E+00    0.0000000000E+00    0.0000000000E+00
    0.0000000000E+00    0.0000000000E+00    0.0000000000E+00    0.0000000000E+00
    0.0000000000E+00    0.0000000000E+00    0.0000000000E+00    0.0000000000E+00
    0.0000000000E+00    0.0000000000E+00    0.0000000000E+00    0.0000000000E+00
    0.0000000000E+00    0.0000000000E+00    0.0000000000E+00    0.0000000000E+00
    0.0000000000E+00    0.0000000000E+00    0.0000000000E+00    0.0000000000E+00
    0.0000000000E+00    0.0000000000E+00    0.0000000000E+00    0.0000000000E+00
    0.0000000000E+00    0.0000000000E+00    0.0000000000E+00    0.0000000000E+00
    0.0000000000E+00    0.0000000000E+00    0.0000000000E+00    0.0000000000E+00
    0.0000000000E+00    0.0000000000E+00    0.0000000000E+00    0.0000000000E+00
    0.0000000000E+00    0.0000000000E+00    0.0000000000E+00    0.0000000000E+00
    0.0000000000E+00    0.0000000000E+00    0.0000000000E+00    0.0000000000E+00
    0.0000000000E+00    0.0000000000E+00    0.0000000000E+00    0.0000000000E+00
    0.0000000000E+00    0.0000000000E+00    0.0000000000E+00    0.0000000000E+00
    0.0000000000E+00    0.0000000000E+00    0.0000000000E+00    0.0000000000E+00
    0.0000000000E+00    0.0000000000E+00    0.0000000000E+00    0.0000000000E+00
    0.0000000000E+00    0.0000000000E+00    0.0000000000E+00    0.0000000000E+00
    0.0000000000E+00    0.0000000000E+00    0.0000000000E+00    0.0000000000E+00
    0.0000000000E+00    0.0000000000E+00    0.0000000000E+00    0.0000000000E+00
    0.0000000000E+00    0.0000000000E+00    0.0000000000E+00    0.0000000000E+00
    0.0000000000E+00    0.0000000000E+00    0.0000000000E+00    0.0000000000E+00
    0.0000000000E+00    0.0000000000E+00    0.0000000000E+00    0.0000000000E+00
    0.0000000000E+00    0.0000000000E+00    0.0000000000E+00    0.0000000000E+00
    0.0000000000E+00    0.0000000000E+00    0.0000000000E+00    0.0000000000E+00
    0.0000000000E+00    0.0000000000E+00    0.0000000000E+00    0.0000000000E+00
    0.0000000000E+00    0.0000000000E+00    0.0000000000E+00    0.0000000000E+00
    0.0000000000E+00    0.0000000000E+00    0.0000000000E+00    0.0000000000E+00
    0.0000000000E+00    0.0000000000E+00    0.0000000000E+00    0.0000000000E+00
    0.0000000000E+00    0.0000000000E+00    0.0000000000E+00    0.0000000000E+00
    0.0000000000E+00    0.0000000000E+00    0.0000000000E+00    0.0000000000E+00
    0.0000000000E+00    0.0000000000E+00    0.0000000000E+00    0.0000000000E+00
    0.0000000000E+00    0.0000000000E+00    0.0000000000E+00    0.0000000000E+00
    0.0000000000E+00    0.0000000000E+00    0.0000000000E+00    0.0000000000E+00
    0.0000000000E+00    0.0000000000E+00    0.0000000000E+00    0.0000000000E+00
    0.0000000000E+00    0.0000000000E+00    0.0000000000E+00    0.0000000000E+00
    0.0000000000E+00    0.0000000000E+00    0.0000000000E+00    0.0000000000E+00
    0.0000000000E+00    0.0000000000E+00    0.0000000000E+00    0.0000000000E+00
    0.0000000000E+00    0.0000000000E+00    0.0000000000E+00    0.0000000000E+00
    0.0000000000E+00    0.0000000000E+00    0.0000000000E+00    0.0000000000E+00
    0.0000000000E+00    0.0000000000E+00    0.0000000000E+00    0.0000000000E+00
    0.0000000000E+00    0.0000000000E+00    0.0000000000E+00    0.0000000000E+00
    0.0000000000E+00    0.0000000000E+00    0.0000000000E+00    0.0000000000E+00
    0.0000000000E+00    0.0000000000E+00    0.0000000000E+00    0.0000000000E+00
    0.0000000000E+00    0.0000000000E+00    0.0000000000E+00    0.0000000000E+00
    0.0000000000E+00    0.0000000000E+00    0.0000000000E+00    0.0000000000E+00
    0.0000000000E+00    0.0000000000E+00    0.0000000000E+00    0.0000000000E+00
    0.0000000000E+00    0.0000000000E+00    0.0000000000E+00    0.0000000000E+00
    0.0000000000E+00    0.0000000000E+00    0.0000000000E+00    0.0000000000E+00
    0.0000000000E+00    0.0000000000E+00    0.0000000000E+00    0.0000000000E+00
    0.0000000000E+00    0.0000000000E+00    0.0000000000E+00    0.0000000000E+00
    0.0000000000E+00    0.0000000000E+00    0.0000000000E+00    0.0000000000E+00
    0.0000000000E+00    0.0000000000E+00    0.0000000000E+00    0.0000000000E+00
    0.0000000000E+00    0.0000000000E+00    0.0000000000E+00    0.0000000000E+00
    0.0000000000E+00    0.0000000000E+00    0.0000000000E+00    0.0000000000E+00
    0.0000000000E+00    0.0000000000E+00    0.0000000000E+00    0.0000000000E+00
    0.0000000000E+00    0.0000000000E+00    0.0000000000E+00    0.0000000000E+00
    0.0000000000E+00    0.0000000000E+00    0.0000000000E+00    0.0000000000E+00
    0.0000000000E+00    0.0000000000E+00    0.0000000000E+00    0.0000000000E+00
    0.0000000000E+00    0.0000000000E+00    0.0000000000E+00    0.0000000000E+00
    0.0000000000E+00    0.0000000000E+00    0.0000000000E+00    0.0000000000E+00
    0.0000000000E+00    0.0000000000E+00    0.0000000000E+00    0.0000000000E+00
    0.0000000000E+00    0.0000000000E+00    0.0000000000E+00    0.0000000000E+00
    0.0000000000E+00    0.0000000000E+00    0.0000000000E+00    0.0000000000E+00
    0.0000000000E+00    0.0000000000E+00    0.0000000000E+00    0.0000000000E+00
    0.0000000000E+00    0.0000000000E+00    0.0000000000E+00    0.0000000000E+00
    0.0000000000E+00    0.0000000000E+00    0.0000000000E+00    0.0000000000E+00
    0.0000000000E+00    0.0000000000E+00    0.0000000000E+00    0.0000000000E+00
    0.0000000000E+00    0.0000000000E+00    0.0000000000E+00    0.0000000000E+00
    0.0000000000E+00    0.0000000000E+00    0.0000000000E+00    0.0000000000E+00
    0.0000000000E+00    0.0000000000E+00    0.0000000000E+00    0.0000000000E+00
    0.0000000000E+00    0.0000000000E+00    0.0000000000E+00    0.0000000000E+00
    0.0000000000E+00    0.0000000000E+00    0.0000000000E+00    0.0000000000E+00
    0.0000000000E+00    0.0000000000E+00    0.0000000000E+00    0.0000000000E+00
    0.0000000000E+00    0.0000000000E+00    0.0000000000E+00    0.0000000000E+00
    0.0000000000E+00    0.0000000000E+00    0.0000000000E+00    0.0000000000E+00
    0.0000000000E+00    0.0000000000E+00    0.0000000000E+00    0.0000000000E+00
    0.0000000000E+00    0.0000000000E+00    0.0000000000E+00    0.0000000000E+00
    0.0000000000E+00    0.0000000000E+00    0.0000000000E+00    0.0000000000E+00
    0.0000000000E+00    0.0000000000E+00    0.0000000000E+00    0.0000000000E+00
    0.0000000000E+00    0.0000000000E+00    0.0000000000E+00    0.0000000000E+00
    0.0000000000E+00    0.0000000000E+00    0.0000000000E+00    0.0000000000E+00
    0.0000000000E+00    0.0000000000E+00    0.0000000000E+00    0.0000000000E+00
    0.0000000000E+00    0.0000000000E+00    0.0000000000E+00    0.0000000000E+00
    0.0000000000E+00    0.0000000000E+00    0.0000000000E+00    0.0000000000E+00
    0.0000000000E+00    0.0000000000E+00    0.0000000000E+00    0.0000000000E+00
   </PP_CHI.2>
   <PP_CHI.3
       type="real"
       size="1636"
       columns="4"
       index="3"
       occupation=" 5.000"
       pseudo_energy="   -0.2152666295E+00"
       label="3D"
       l="2" >
    5.0853687580E-11    9.2275234987E-06    7.3756988994E-05    2.4857475904E-04
    5.8803797973E-04    1.1455648177E-03    1.9733304754E-03    3.1219708511E-03
    4.6402956582E-03    6.5750127573E-03    8.9704653776E-03    1.1868383820E-02
    1.5307653137E-02    1.9324098181E-02    2.3950287287E-02    2.9215355753E-02
    3.5144850118E-02    4.1760594137E-02    4.9080577169E-02    5.7118865579E-02
    6.5885537586E-02    7.5386641824E-02    8.5624179758E-02    9.6596111899E-02
    1.0829638765E-01    1.2071499840E-01    1.3383805344E-01    1.4764787792E-01
    1.6212313228E-01    1.7723895193E-01    1.9296710643E-01    2.0927617680E-01
    2.2613174971E-01    2.4349662721E-01    2.6133105044E-01    2.7959293588E-01
    2.9823812232E-01    3.1722062707E-01    3.3649290951E-01    3.5600614028E-01
    3.7571047440E-01    3.9555532636E-01    4.1548964557E-01    4.3546219031E-01
    4.5542179854E-01    4.7531765376E-01    4.9509954442E-01    5.1471811534E-01
    5.3412510955E-01    5.5327359924E-01    5.7211820463E-01    5.9061529938E-01
    6.0872320167E-01    6.2640234992E-01    6.4361546237E-01    6.6032767975E-01
    6.7650669068E-01    6.9212283913E-01    7.0714921389E-01    7.2156171974E-01
    7.3533913040E-01    7.4846312327E-01    7.6091829638E-01    7.7269216765E-01
    7.8377515718E-01    7.9416055304E-01    8.0384446122E-01    8.1282574055E-01
    8.2110592354E-01    8.2868912390E-01    8.3558193192E-01    8.4179329869E-01
    8.4733441022E-01    8.5221855277E-01    8.5646097038E-01    8.6007871590E-01
    8.6309049674E-01    8.6551651638E-01    8.6737831305E-01    8.6869859652E-01
    8.6950108428E-01    8.6981033819E-01    8.6965160256E-01    8.6905064475E-01
    8.6803359927E-01    8.6662681610E-01    8.6485671423E-01    8.6274964110E-01
    8.6033173855E-01    8.5762881605E-01    8.5466623152E-01    8.5146878040E-01
    8.4806059320E-01    8.4446504191E-01    8.4070465547E-01    8.3680104443E-01
    8.3277483489E-01    8.2864561183E-01    8.2443187160E-01    8.2015098360E-01
    8.1581916097E-01    8.1145143997E-01    8.0706166795E-01    8.0266249939E-01
    7.9826539985E-01    7.9388065734E-01    7.8951740069E-01    7.8518362454E-01
    7.8088622040E-01    7.7663101337E-01    7.7242280403E-01    7.6826541488E-01
    7.6416174102E-01    7.6011380432E-01    7.5612281082E-01    7.5218921063E-01
    7.4831275996E-01    7.4449258477E-01    7.4072724555E-01    7.3701480279E-01
    7.3335288259E-01    7.2973874220E-01    7.2616933481E-01    7.2264137339E-01
    7.1915139315E-01    7.1569581224E-01    7.1227099037E-01    7.0887328506E-01
    7.0549910519E-01    7.0214496165E-01    6.9880751473E-01    6.9548361811E-01
    6.9217035927E-01    6.8886509596E-01    6.8556548878E-01    6.8226952959E-01
    6.7897556585E-01    6.7568232034E-01    6.7238890611E-01    6.6909483713E-01
    6.6580003401E-01    6.6250482685E-01    6.5920990136E-01    6.5591605779E-01
    6.5262406414E-01    6.4933465661E-01    6.4604853971E-01    6.4276638735E-01
    6.3948884406E-01    6.3621652597E-01    6.3295002184E-01    6.2968989409E-01
    6.2643667967E-01    6.2319089104E-01    6.1995301699E-01    6.1672352355E-01
    6.1350285473E-01    6.1029143339E-01    6.0708966194E-01    6.0389792311E-01
    6.0071658064E-01    5.9754597995E-01    5.9438644885E-01    5.9123829812E-01
    5.8810182213E-01    5.8497729949E-01    5.8186499356E-01    5.7876515300E-01
    5.7567801236E-01    5.7260379254E-01    5.6954270131E-01    5.6649493380E-01
    5.6346067291E-01    5.6044008984E-01    5.5743334446E-01    5.5444058572E-01
    5.5146195210E-01    5.4849757198E-01    5.4554756398E-01    5.4261203737E-01
    5.3969109241E-01    5.3678482064E-01    5.3389330529E-01    5.3101662151E-01
    5.2815483673E-01    5.2530801094E-01    5.2247619697E-01    5.1965944075E-01
    5.1685778160E-01    5.1407125248E-01    5.1129988023E-01    5.0854368581E-01
    5.0580268453E-01    5.0307688628E-01    5.0036629575E-01    4.9767091263E-01
    4.9499073182E-01    4.9232574362E-01    4.8967593392E-01    4.8704128437E-01
    4.8442177262E-01    4.8181737240E-01    4.7922805376E-01    4.7665378320E-01
    4.7409452383E-01    4.7155023554E-01    4.6902087512E-01    4.6650639641E-01
    4.6400675048E-01    4.6152188571E-01    4.5905174792E-01    4.5659628057E-01
    4.5415542481E-01    4.5172911960E-01    4.4931730189E-01    4.4691990666E-01
    4.4453686709E-01    4.4216811462E-01    4.3981357907E-01    4.3747318874E-01
    4.3514687053E-01    4.3283454997E-01    4.3053615139E-01    4.2825159795E-01
    4.2598081175E-01    4.2372371389E-01    4.2148022460E-01    4.1925026325E-01
    4.1703374847E-01    4.1483059821E-01    4.1264072980E-01    4.1046406002E-01
    4.0830050517E-01    4.0614998114E-01    4.0401240345E-01    4.0188768729E-01
    3.9977574764E-01    3.9767649924E-01    3.9558985671E-01    3.9351573454E-01
    3.9145404719E-01    3.8940470909E-01    3.8736763470E-01    3.8534273855E-01
    3.8332993526E-01    3.8132913962E-01    3.7934026657E-01    3.7736323125E-01
    3.7539794907E-01    3.7344433566E-01    3.7150230699E-01    3.6957177930E-01
    3.6765266921E-01    3.6574489368E-01    3.6384837007E-01    3.6196301613E-01
    3.6008875005E-01    3.5822549044E-01    3.5637315639E-01    3.5453166744E-01
    3.5270094363E-01    3.5088090549E-01    3.4907147406E-01    3.4727257091E-01
    3.4548411812E-01    3.4370603832E-01    3.4193825469E-01    3.4018069096E-01
    3.3843327143E-01    3.3669592094E-01    3.3496856493E-01    3.3325112939E-01
    3.3154354092E-01    3.2984572668E-01    3.2815761443E-01    3.2647913249E-01
    3.2481020980E-01    3.2315077589E-01    3.2150076085E-01    3.1986009539E-01
    3.1822871081E-01    3.1660653899E-01    3.1499351240E-01    3.1338956412E-01
    3.1179462778E-01    3.1020863765E-01    3.0863152853E-01    3.0706323584E-01
    3.0550369557E-01    3.0395284428E-01    3.0241061911E-01    3.0087695778E-01
    2.9935179857E-01    2.9783508032E-01    2.9632674246E-01    2.9482672495E-01
    2.9333496832E-01    2.9185141365E-01    2.9037600256E-01    2.8890867723E-01
    2.8744938037E-01    2.8599805524E-01    2.8455464560E-01    2.8311909578E-01
    2.8169135060E-01    2.8027135542E-01    2.7885905612E-01    2.7745439906E-01
    2.7605733115E-01    2.7466779978E-01    2.7328575283E-01    2.7191113869E-01
    2.7054390623E-01    2.6918400481E-01    2.6783138428E-01    2.6648599496E-01
    2.6514778763E-01    2.6381671355E-01    2.6249272444E-01    2.6117577250E-01
    2.5986581034E-01    2.5856279107E-01    2.5726666822E-01    2.5597739575E-01
    2.5469492809E-01    2.5341922009E-01    2.5215022702E-01    2.5088790459E-01
    2.4963220892E-01    2.4838309654E-01    2.4714052443E-01    2.4590444994E-01
    2.4467483084E-01    2.4345162529E-01    2.4223479188E-01    2.4102428954E-01
    2.3982007765E-01    2.3862211592E-01    2.3743036447E-01    2.3624478380E-01
    2.3506533477E-01    2.3389197862E-01    2.3272467694E-01    2.3156339171E-01
    2.3040808525E-01    2.2925872023E-01    2.2811525968E-01    2.2697766698E-01
    2.2584590586E-01    2.2471994037E-01    2.2359973491E-01    2.2248525421E-01
    2.2137646335E-01    2.2027332770E-01    2.1917581298E-01    2.1808388522E-01
    2.1699751077E-01    2.1591665629E-01    2.1484128876E-01    2.1377137545E-01
    2.1270688394E-01    2.1164778212E-01    2.1059403817E-01    2.0954562055E-01
    2.0850249803E-01    2.0746463966E-01    2.0643201477E-01    2.0540459298E-01
    2.0438234419E-01    2.0336523855E-01    2.0235324652E-01    2.0134633879E-01
    2.0034448635E-01    1.9934766043E-01    1.9835583253E-01    1.9736897440E-01
    1.9638705806E-01    1.9541005576E-01    1.9443794001E-01    1.9347068356E-01
    1.9250825942E-01    1.9155064081E-01    1.9059780121E-01    1.8964971433E-01
    1.8870635411E-01    1.8776769470E-01    1.8683371051E-01    1.8590437615E-01
    1.8497966645E-01    1.8405955647E-01    1.8314402148E-01    1.8223303696E-01
    1.8132657860E-01    1.8042462230E-01    1.7952714416E-01    1.7863412048E-01
    1.7774552777E-01    1.7686134272E-01    1.7598154224E-01    1.7510610341E-01
    1.7423500350E-01    1.7336821997E-01    1.7250573047E-01    1.7164751283E-01
    1.7079354505E-01    1.6994380532E-01    1.6909827199E-01    1.6825692360E-01
    1.6741973884E-01    1.6658669658E-01    1.6575777585E-01    1.6493295585E-01
    1.6411221593E-01    1.6329553560E-01    1.6248289453E-01    1.6167427254E-01
    1.6086964960E-01    1.6006900584E-01    1.5927232153E-01    1.5847957707E-01
    1.5769075303E-01    1.5690583009E-01    1.5612478911E-01    1.5534761103E-01
    1.5457427698E-01    1.5380476819E-01    1.5303906602E-01    1.5227715197E-01
    1.5151900767E-01    1.5076461486E-01    1.5001395540E-01    1.4926701128E-01
    1.4852376462E-01    1.4778419764E-01    1.4704829267E-01    1.4631603216E-01
    1.4558739869E-01    1.4486237491E-01    1.4414094362E-01    1.4342308770E-01
    1.4270879013E-01    1.4199803401E-01    1.4129080254E-01    1.4058707901E-01
    1.3988684681E-01    1.3919008942E-01    1.3849679044E-01    1.3780693353E-01
    1.3712050247E-01    1.3643748110E-01    1.3575785339E-01    1.3508160336E-01
    1.3440871514E-01    1.3373917292E-01    1.3307296100E-01    1.3241006375E-01
    1.3175046562E-01    1.3109415115E-01    1.3044110494E-01    1.2979131167E-01
    1.2914475612E-01    1.2850142313E-01    1.2786129759E-01    1.2722436451E-01
    1.2659060893E-01    1.2596001598E-01    1.2533257086E-01    1.2470825884E-01
    1.2408706524E-01    1.2346897547E-01    1.2285397499E-01    1.2224204934E-01
    1.2163318410E-01    1.2102736494E-01    1.2042457757E-01    1.1982480778E-01
    1.1922804140E-01    1.1863426435E-01    1.1804346258E-01    1.1745562211E-01
    1.1687072903E-01    1.1628876945E-01    1.1570972959E-01    1.1513359568E-01
    1.1456035403E-01    1.1398999099E-01    1.1342249298E-01    1.1285784646E-01
    1.1229603795E-01    1.1173705402E-01    1.1118088130E-01    1.1062750646E-01
    1.1007691623E-01    1.0952909737E-01    1.0898403673E-01    1.0844172117E-01
    1.0790213762E-01    1.0736527306E-01    1.0683111451E-01    1.0629964904E-01
    1.0577086378E-01    1.0524474589E-01    1.0472128258E-01    1.0420046113E-01
    1.0368226883E-01    1.0316669305E-01    1.0265372119E-01    1.0214334069E-01
    1.0163553906E-01    1.0113030382E-01    1.0062762257E-01    1.0012748294E-01
    9.9629872609E-02    9.9134779289E-02    9.8642190748E-02    9.8152094798E-02
    9.7664479294E-02    9.7179332133E-02    9.6696641260E-02    9.6216394662E-02
    9.5738580370E-02    9.5263186459E-02    9.4790201048E-02    9.4319612300E-02
    9.3851408419E-02    9.3385577657E-02    9.2922108306E-02    9.2460988703E-02
    9.2002207226E-02    9.1545752300E-02    9.1091612390E-02    9.0639776005E-02
    9.0190231698E-02    8.9742968065E-02    8.9297973743E-02    8.8855237415E-02
    8.8414747805E-02    8.7976493680E-02    8.7540463851E-02    8.7106647171E-02
    8.6675032538E-02    8.6245608889E-02    8.5818365207E-02    8.5393290517E-02
    8.4970373887E-02    8.4549604428E-02    8.4130971294E-02    8.3714463681E-02
    8.3300070828E-02    8.2887782019E-02    8.2477586578E-02    8.2069473873E-02
    8.1663433316E-02    8.1259454361E-02    8.0857526505E-02    8.0457639287E-02
    8.0059782290E-02    7.9663945140E-02    7.9270117506E-02    7.8878289100E-02
    7.8488449675E-02    7.8100589029E-02    7.7714697004E-02    7.7330763481E-02
    7.6948778389E-02    7.6568731695E-02    7.6190613413E-02    7.5814413597E-02
    7.5440122347E-02    7.5067729802E-02    7.4697226148E-02    7.4328601611E-02
    7.3961846462E-02    7.3596951012E-02    7.3233905620E-02    7.2872700682E-02
    7.2513326641E-02    7.2155773981E-02    7.1800033230E-02    7.1446094959E-02
    7.1093949779E-02    7.0743588347E-02    7.0395001362E-02    7.0048179565E-02
    6.9703113739E-02    6.9359794713E-02    6.9018213355E-02    6.8678360578E-02
    6.8340227335E-02    6.8003804625E-02    6.7669083487E-02    6.7336055003E-02
    6.7004710297E-02    6.6675040537E-02    6.6347036931E-02    6.6020690732E-02
    6.5695993232E-02    6.5372935768E-02    6.5051509718E-02    6.4731706502E-02
    6.4413517581E-02    6.4096934459E-02    6.3781948682E-02    6.3468551838E-02
    6.3156735556E-02    6.2846491506E-02    6.2537811401E-02    6.2230686994E-02
    6.1925110081E-02    6.1621072498E-02    6.1318566123E-02    6.1017582875E-02
    6.0718114714E-02    6.0420153640E-02    6.0123691695E-02    5.9828720962E-02
    5.9535233564E-02    5.9243221665E-02    5.8952677469E-02    5.8663593220E-02
    5.8375961205E-02    5.8089773746E-02    5.7805023211E-02    5.7521702003E-02
    5.7239802569E-02    5.6959317391E-02    5.6680238996E-02    5.6402559947E-02
    5.6126272846E-02    5.5851370337E-02    5.5577845101E-02    5.5305689858E-02
    5.5034897368E-02    5.4765460430E-02    5.4497371880E-02    5.4230624594E-02
    5.3965211486E-02    5.3701125508E-02    5.3438359649E-02    5.3176906939E-02
    5.2916760444E-02    5.2657913266E-02    5.2400358549E-02    5.2144089469E-02
    5.1889099244E-02    5.1635381127E-02    5.1382928409E-02    5.1131734415E-02
    5.0881792511E-02    5.0633096097E-02    5.0385638609E-02    5.0139413521E-02
    4.9894414342E-02    4.9650634618E-02    4.9408067930E-02    4.9166707895E-02
    4.8926548164E-02    4.8687582427E-02    4.8449804405E-02    4.8213207858E-02
    4.7977786577E-02    4.7743534392E-02    4.7510445163E-02    4.7278512789E-02
    4.7047731200E-02    4.6818094361E-02    4.6589596271E-02    4.6362230965E-02
    4.6135992507E-02    4.5910875000E-02    4.5686872575E-02    4.5463979400E-02
    4.5242189674E-02    4.5021497630E-02    4.4801897533E-02    4.4583383681E-02
    4.4365950404E-02    4.4149592065E-02    4.3934303056E-02    4.3720077805E-02
    4.3506910770E-02    4.3294796440E-02    4.3083729335E-02    4.2873704008E-02
    4.2664715042E-02    4.2456757050E-02    4.2249824677E-02    4.2043912599E-02
    4.1839015520E-02    4.1635128177E-02    4.1432245335E-02    4.1230361790E-02
    4.1029472368E-02    4.0829571923E-02    4.0630655339E-02    4.0432717531E-02
    4.0235753441E-02    4.0039758041E-02    3.9844726330E-02    3.9650653338E-02
    3.9457534122E-02    3.9265363767E-02    3.9074137388E-02    3.8883850124E-02
    3.8694497147E-02    3.8506073652E-02    3.8318574864E-02    3.8131996035E-02
    3.7946332442E-02    3.7761579393E-02    3.7577732219E-02    3.7394786279E-02
    3.7212736959E-02    3.7031579670E-02    3.6851309852E-02    3.6671922966E-02
    3.6493414505E-02    3.6315779982E-02    3.6139014939E-02    3.5963114942E-02
    3.5788075584E-02    3.5613892480E-02    3.5440561272E-02    3.5268077626E-02
    3.5096437234E-02    3.4925635811E-02    3.4755669096E-02    3.4586532853E-02
    3.4418222870E-02    3.4250734959E-02    3.4084064954E-02    3.3918208715E-02
    3.3753162124E-02    3.3588921086E-02    3.3425481530E-02    3.3262839408E-02
    3.3100990693E-02    3.2939931382E-02    3.2779657496E-02    3.2620165075E-02
    3.2461450184E-02    3.2303508909E-02    3.2146337359E-02    3.1989931662E-02
    3.1834287972E-02    3.1679402459E-02    3.1525271320E-02    3.1371890769E-02
    3.1219257044E-02    3.1067366403E-02    3.0916215123E-02    3.0765799504E-02
    3.0616115866E-02    3.0467160550E-02    3.0318929915E-02    3.0171420343E-02
    3.0024628235E-02    2.9878550010E-02    2.9733182110E-02    2.9588520995E-02
    2.9444563144E-02    2.9301305056E-02    2.9158743250E-02    2.9016874262E-02
    2.8875694650E-02    2.8735200989E-02    2.8595389872E-02    2.8456257912E-02
    2.8317801742E-02    2.8180018009E-02    2.8042903383E-02    2.7906454549E-02
    2.7770668211E-02    2.7635541092E-02    2.7501069930E-02    2.7367251485E-02
    2.7234082530E-02    2.7101559859E-02    2.6969680280E-02    2.6838440622E-02
    2.6707837729E-02    2.6577868461E-02    2.6448529698E-02    2.6319818333E-02
    2.6191731279E-02    2.6064265463E-02    2.5937417831E-02    2.5811185343E-02
    2.5685564976E-02    2.5560553725E-02    2.5436148597E-02    2.5312346619E-02
    2.5189144832E-02    2.5066540292E-02    2.4944530073E-02    2.4823111262E-02
    2.4702280962E-02    2.4582036293E-02    2.4462374388E-02    2.4343292396E-02
    2.4224787483E-02    2.4106856826E-02    2.3989497620E-02    2.3872707073E-02
    2.3756482409E-02    2.3640820866E-02    2.3525719695E-02    2.3411176165E-02
    2.3297187555E-02    2.3183751160E-02    2.3070864291E-02    2.2958524270E-02
    2.2846728435E-02    2.2735474136E-02    2.2624758739E-02    2.2514579622E-02
    2.2404934176E-02    2.2295819808E-02    2.2187233935E-02    2.2079173991E-02
    2.1971637421E-02    2.1864621683E-02    2.1758124250E-02    2.1652142604E-02
    2.1546674245E-02    2.1441716683E-02    2.1337267440E-02    2.1233324053E-02
    2.1129884070E-02    2.1026945051E-02    2.0924504571E-02    2.0822560214E-02
    2.0721109579E-02    2.0620150276E-02    2.0519679927E-02    2.0419696166E-02
    2.0320196641E-02    2.0221179009E-02    2.0122640939E-02    2.0024580116E-02
    1.9926994231E-02    1.9829880989E-02    1.9733238109E-02    1.9637063317E-02
    1.9541354354E-02    1.9446108971E-02    1.9351324930E-02    1.9257000004E-02
    1.9163131978E-02    1.9069718648E-02    1.8976757821E-02    1.8884247315E-02
    1.8792184957E-02    1.8700568587E-02    1.8609396057E-02    1.8518665225E-02
    1.8428373965E-02    1.8338520158E-02    1.8249101697E-02    1.8160116485E-02
    1.8071562435E-02    1.7983437471E-02    1.7895739527E-02    1.7808466548E-02
    1.7721616487E-02    1.7635187310E-02    1.7549176990E-02    1.7463583513E-02
    1.7378404873E-02    1.7293639074E-02    1.7209284130E-02    1.7125338066E-02
    1.7041798914E-02    1.6958664718E-02    1.6875933531E-02    1.6793603415E-02
    1.6711672442E-02    1.6630138694E-02    1.6549000260E-02    1.6468255240E-02
    1.6387901745E-02    1.6307937893E-02    1.6228361810E-02    1.6149171634E-02
    1.6070365511E-02    1.5991941595E-02    1.5913898051E-02    1.5836233051E-02
    1.5758944776E-02    1.5682031417E-02    1.5605491173E-02    1.5529322252E-02
    1.5453522871E-02    1.5378091255E-02    1.5303025638E-02    1.5228324262E-02
    1.5153985378E-02    1.5080007244E-02    1.5006388130E-02    1.4933126311E-02
    1.4860220071E-02    1.4787667703E-02    1.4715467508E-02    1.4643617795E-02
    1.4572116881E-02    1.4500963092E-02    1.4430154760E-02    1.4359690227E-02
    1.4289567843E-02    1.4219785964E-02    1.4150342956E-02    1.4081237192E-02
    1.4012467052E-02    1.3944030926E-02    1.3875927208E-02    1.3808154304E-02
    1.3740710625E-02    1.3673594590E-02    1.3606804625E-02    1.3540339166E-02
    1.3474196653E-02    1.3408375536E-02    1.3342874272E-02    1.3277691325E-02
    1.3212825165E-02    1.3148274272E-02    1.3084037131E-02    1.3020112236E-02
    1.2956498086E-02    1.2893193190E-02    1.2830196061E-02    1.2767505221E-02
    1.2705119200E-02    1.2643036532E-02    1.2581255761E-02    1.2519775435E-02
    1.2458594112E-02    1.2397710354E-02    1.2337122732E-02    1.2276829823E-02
    1.2216830211E-02    1.2157122485E-02    1.2097705243E-02    1.2038577090E-02
    1.1979736634E-02    1.1921182495E-02    1.1862913294E-02    1.1804927662E-02
    1.1747224236E-02    1.1689801659E-02    1.1632658581E-02    1.1575793656E-02
    1.1519205549E-02    1.1462892927E-02    1.1406854465E-02    1.1351088845E-02
    1.1295594754E-02    1.1240370886E-02    1.1185415941E-02    1.1130728625E-02
    1.1076307649E-02    1.1022151733E-02    1.0968259601E-02    1.0914629983E-02
    1.0861261615E-02    1.0808153241E-02    1.0755303608E-02    1.0702711470E-02
    1.0650375588E-02    1.0598294728E-02    1.0546467662E-02    1.0494893167E-02
    1.0443570027E-02    1.0392497032E-02    1.0341672975E-02    1.0291096658E-02
    1.0240766888E-02    1.0190682475E-02    1.0140842238E-02    1.0091245001E-02
    1.0041889591E-02    9.9927748425E-03    9.9438995962E-03    9.8952626971E-03
    9.8468629959E-03    9.7986993488E-03    9.7507706175E-03    9.7030756689E-03
    9.6556133754E-03    9.6083826147E-03    9.5613822698E-03    9.5146112289E-03
    9.4680683856E-03    9.4217526388E-03    9.3756628923E-03    9.3297980553E-03
    9.2841570422E-03    9.2387387724E-03    9.1935421705E-03    9.1485661661E-03
    9.1038096940E-03    9.0592716940E-03    9.0149511108E-03    8.9708468942E-03
    8.9269579990E-03    8.8832833847E-03    8.8398220162E-03    8.7965728627E-03
    8.7535348988E-03    8.7107071037E-03    8.6680884614E-03    8.6256779609E-03
    8.5834745958E-03    8.5414773645E-03    8.4996852703E-03    8.4580973209E-03
    8.4167125291E-03    8.3755299121E-03    8.3345484917E-03    8.2937672946E-03
    8.2531853520E-03    8.2128016995E-03    8.1726153775E-03    8.1326254309E-03
    8.0928309091E-03    8.0532308660E-03    8.0138243600E-03    7.9746104539E-03
    7.9355882150E-03    7.8967567150E-03    7.8581150302E-03    7.8196622408E-03
    7.7813974319E-03    7.7433196927E-03    7.7054281165E-03    7.6677218014E-03
    7.6301998493E-03    7.5928613666E-03    7.5557054640E-03    7.5187312563E-03
    7.4819378624E-03    7.4453244057E-03    7.4088900134E-03    7.3726338171E-03
    7.3365549525E-03    7.3006525593E-03    7.2649257813E-03    7.2293737665E-03
    7.1939956667E-03    7.1587906381E-03    7.1237578405E-03    7.0888964379E-03
    7.0542055984E-03    7.0196844938E-03    6.9853323000E-03    6.9511481969E-03
    6.9171313679E-03    6.8832810008E-03    6.8495962870E-03    6.8160764217E-03
    6.7827206041E-03    6.7495280370E-03    6.7164979272E-03    6.6836294852E-03
    6.6509219253E-03    6.6183744653E-03    6.5859863272E-03    6.5537567362E-03
    6.5216849216E-03    6.4897701161E-03    6.4580115561E-03    6.4264084818E-03
    6.3949601369E-03    6.3636657688E-03    6.3325246282E-03    6.3015359698E-03
    6.2706990515E-03    6.2400131350E-03    6.2094774853E-03    6.1790913712E-03
    6.1488540646E-03    6.1187648412E-03    6.0888229801E-03    6.0590277636E-03
    6.0293784779E-03    5.9998744121E-03    5.9705148590E-03    5.9412991147E-03
    5.9122264786E-03    5.8832962537E-03    5.8545077461E-03    5.8258602652E-03
    5.7973531238E-03    5.7689856379E-03    5.7407571270E-03    5.7126669136E-03
    5.6847143236E-03    5.6568986859E-03    5.6292193330E-03    5.6016756002E-03
    5.5742668262E-03    5.5469923529E-03    5.5198515253E-03    5.4928436913E-03
    5.4659682024E-03    5.4392244128E-03    5.4126116800E-03    5.3861293645E-03
    5.3597768300E-03    5.3335534430E-03    5.3074585733E-03    5.2814915935E-03
    5.2556518794E-03    5.2299388097E-03    5.2043517661E-03    5.1788901333E-03
    5.1535532989E-03    5.1283406534E-03    5.1032515904E-03    5.0782855062E-03
    5.0534418002E-03    5.0287198745E-03    5.0041191343E-03    4.9796389874E-03
    4.9552788446E-03    4.9310381196E-03    4.9069162287E-03    4.8829125912E-03
    4.8590266291E-03    4.8352577672E-03    4.8116054331E-03    4.7880690571E-03
    4.7646480724E-03    4.7413419146E-03    4.7181500224E-03    4.6950718369E-03
    4.6721068021E-03    4.6492543646E-03    4.6265139736E-03    4.6038850811E-03
    4.5813671415E-03    4.5589596122E-03    4.5366619528E-03    4.5144736259E-03
    4.4923940964E-03    4.4704228319E-03    4.4485593025E-03    4.4268029810E-03
    4.4051533426E-03    4.3836098651E-03    4.3621720288E-03    4.3408393165E-03
    4.3196112136E-03    4.2984872078E-03    4.2774667895E-03    4.2565494512E-03
    4.2357346883E-03    4.2150219984E-03    4.1944108815E-03    4.1739008401E-03
    4.1534913790E-03    4.1331820056E-03    4.1129722295E-03    4.0928615626E-03
    4.0728495195E-03    4.0529356168E-03    4.0331193736E-03    4.0134003113E-03
    3.9937779537E-03    3.9742518267E-03    3.9548214586E-03    3.9354863801E-03
    3.9162461241E-03    3.8971002256E-03    3.8780482221E-03    3.8590896531E-03
    3.8402240607E-03    3.8214509887E-03    3.8027699836E-03    3.7841805938E-03
    3.7656823700E-03    3.7472748650E-03    3.7289576339E-03    3.7107302338E-03
    3.6925922242E-03    3.6745431664E-03    3.6565826240E-03    3.6387101628E-03
    3.6209253506E-03    3.6032277573E-03    3.5856169549E-03    3.5680925175E-03
    3.5506540213E-03    3.5333010444E-03    3.5160331672E-03    3.4988499719E-03
    3.4817510428E-03    3.4647359663E-03    3.4478043308E-03    3.4309557266E-03
    3.4141897461E-03    3.3975059835E-03    3.3809040353E-03    3.3643834996E-03
    3.3479439767E-03    3.3315850687E-03    3.3153063798E-03    3.2991075159E-03
    3.2829880851E-03    3.2669476971E-03    3.2509859638E-03    3.2351024987E-03
    3.2192969173E-03    3.2035688371E-03    3.1879178773E-03    3.1723436590E-03
    3.1568458051E-03    3.1414239405E-03    3.1260776918E-03    3.1108066874E-03
    3.0956105575E-03    3.0804889341E-03    3.0654414513E-03    3.0504677444E-03
    3.0355674510E-03    3.0207402102E-03    3.0059856629E-03    2.9913034518E-03
    2.9766932214E-03    2.9621546177E-03    2.9476872887E-03    2.9332908839E-03
    2.9189650547E-03    2.9047094540E-03    2.8905237366E-03    2.8764075589E-03
    2.8623605788E-03    2.8483824561E-03    2.8344728523E-03    2.8206314303E-03
    2.8068578549E-03    2.7931517923E-03    2.7795129105E-03    2.7659408792E-03
    2.7524353694E-03    2.7389960540E-03    2.7256226073E-03    2.7123147054E-03
    2.6990720259E-03    2.6858942477E-03    2.6727810518E-03    2.6597321203E-03
    2.6467471370E-03    2.6338257873E-03    2.6209677582E-03    2.6081727381E-03
    2.5954404168E-03    2.5827704860E-03    2.5701626386E-03    2.5576165690E-03
    2.5451319732E-03    2.5327085488E-03    2.5203459946E-03    2.5080440111E-03
    2.4958023002E-03    2.4836205651E-03    2.4714985108E-03    2.4594358433E-03
    2.4474322705E-03    2.4354875014E-03    2.4236012465E-03    2.4117732178E-03
    2.4000031287E-03    2.3882906939E-03    2.3766356295E-03    2.3650376531E-03
    2.3534964837E-03    2.3420118415E-03    2.3305834483E-03    2.3192110269E-03
    2.3078943020E-03    2.2966329991E-03    2.2854268455E-03    2.2742755694E-03
    2.2631789007E-03    2.2521365705E-03    2.2411483111E-03    2.2302138562E-03
    2.2193329410E-03    2.2085053016E-03    2.1977306757E-03    2.1870088021E-03
    2.1763394211E-03    2.1657222741E-03    2.1551571039E-03    2.1446436542E-03
    2.1341816705E-03    2.1237708992E-03    2.1134110880E-03    2.1031019859E-03
    2.0928433430E-03    2.0826349108E-03    2.0724764418E-03    2.0623676901E-03
    2.0523084105E-03    2.0422983594E-03    2.0323372942E-03    2.0224249736E-03
    2.0125611573E-03    2.0027456065E-03    1.9929780832E-03    1.9832583507E-03
    1.9735861738E-03    1.9639613178E-03    1.9543835498E-03    1.9448526376E-03
    1.9353683503E-03    1.9259304582E-03    1.9165387326E-03    1.9071929460E-03
    1.8978928720E-03    1.8886382853E-03    1.8794289617E-03    1.8702646781E-03
    1.8611452126E-03    1.8520703441E-03    1.8430398530E-03    1.8340535204E-03
    1.8251111288E-03    1.8162124614E-03    1.8073573028E-03    1.7985454386E-03
    1.7897766553E-03    1.7810507404E-03    1.7723674828E-03    1.7637266722E-03
    1.7551280993E-03    1.7465715558E-03    1.7380568344E-03    1.7295837290E-03
    1.7211520343E-03    1.7127615462E-03    1.7044120616E-03    1.6961033777E-03
    1.6878352938E-03    1.6796076100E-03    1.6714201272E-03    1.6632726473E-03
    1.6551649732E-03    1.6470969085E-03    1.6390682579E-03    1.6310788287E-03
    1.6231284265E-03    1.6152168575E-03    1.6073439300E-03    1.5995094531E-03
    1.5917132367E-03    1.5839550921E-03    1.5762348311E-03    1.5685522640E-03
    1.5609072059E-03    1.5532994750E-03    1.5457288881E-03    1.5381952628E-03
    1.5306984177E-03    1.5232381721E-03    1.5158143462E-03    1.5084267644E-03
    1.5010752494E-03    1.4937596168E-03    1.4864796881E-03    1.4792352859E-03
    1.4720262334E-03    1.4648523548E-03    1.4577134755E-03    1.4508187676E-03
    1.4447030285E-03    1.4384852093E-03    1.4320607564E-03    1.4253458125E-03
    1.4182856551E-03    1.4108617467E-03    1.4030969493E-03    1.3950584592E-03
    1.3801607842E-03    1.3657667408E-03    1.3530870800E-03    1.3429719915E-03
    1.3360907332E-03    1.3328592484E-03    1.3333742991E-03    1.3373567516E-03
    1.3584451538E-03    1.3867949490E-03    1.4111467144E-03    1.4273477967E-03
    1.4313339112E-03    1.4193489317E-03    1.3881597105E-03    1.3352594238E-03
    1.2473066141E-03    1.1117167259E-03    9.5835491859E-04    7.9293852881E-04
    6.2177082155E-04    4.5144597686E-04    2.8854550932E-04    1.3933466658E-04
    9.4673535063E-06   -6.1912956887E-05   -1.0630066318E-04   -1.2849315034E-04
   -1.3113833580E-04   -1.1760451779E-04   -9.1778143166E-05   -5.7849996006E-05
   -2.0096127184E-05    6.3981376413E-06    1.7664222548E-05    2.5233801505E-05
    2.8814892942E-05    2.8499962773E-05    2.4710972070E-05    1.8135138812E-05
    9.6539067414E-06    2.6761442065E-07   -1.3694073502E-06   -2.4594280246E-06
   -3.1448050653E-06   -3.3894857563E-06   -3.2012736967E-06   -2.6273671972E-06
   -1.7479794915E-06   -6.6845054654E-07    0.0000000000E+00    0.0000000000E+00
    0.0000000000E+00    0.0000000000E+00    0.0000000000E+00    0.0000000000E+00
    0.0000000000E+00    0.0000000000E+00    0.0000000000E+00    0.0000000000E+00
    0.0000000000E+00    0.0000000000E+00    0.0000000000E+00    0.0000000000E+00
    0.0000000000E+00    0.0000000000E+00    0.0000000000E+00    0.0000000000E+00
    0.0000000000E+00    0.0000000000E+00    0.0000000000E+00    0.0000000000E+00
    0.0000000000E+00    0.0000000000E+00    0.0000000000E+00    0.0000000000E+00
    0.0000000000E+00    0.0000000000E+00    0.0000000000E+00    0.0000000000E+00
    0.0000000000E+00    0.0000000000E+00    0.0000000000E+00    0.0000000000E+00
    0.0000000000E+00    0.0000000000E+00    0.0000000000E+00    0.0000000000E+00
    0.0000000000E+00    0.0000000000E+00    0.0000000000E+00    0.0000000000E+00
    0.0000000000E+00    0.0000000000E+00    0.0000000000E+00    0.0000000000E+00
    0.0000000000E+00    0.0000000000E+00    0.0000000000E+00    0.0000000000E+00
    0.0000000000E+00    0.0000000000E+00    0.0000000000E+00    0.0000000000E+00
    0.0000000000E+00    0.0000000000E+00    0.0000000000E+00    0.0000000000E+00
    0.0000000000E+00    0.0000000000E+00    0.0000000000E+00    0.0000000000E+00
    0.0000000000E+00    0.0000000000E+00    0.0000000000E+00    0.0000000000E+00
    0.0000000000E+00    0.0000000000E+00    0.0000000000E+00    0.0000000000E+00
    0.0000000000E+00    0.0000000000E+00    0.0000000000E+00    0.0000000000E+00
    0.0000000000E+00    0.0000000000E+00    0.0000000000E+00    0.0000000000E+00
    0.0000000000E+00    0.0000000000E+00    0.0000000000E+00    0.0000000000E+00
    0.0000000000E+00    0.0000000000E+00    0.0000000000E+00    0.0000000000E+00
    0.0000000000E+00    0.0000000000E+00    0.0000000000E+00    0.0000000000E+00
    0.0000000000E+00    0.0000000000E+00    0.0000000000E+00    0.0000000000E+00
    0.0000000000E+00    0.0000000000E+00    0.0000000000E+00    0.0000000000E+00
    0.0000000000E+00    0.0000000000E+00    0.0000000000E+00    0.0000000000E+00
    0.0000000000E+00    0.0000000000E+00    0.0000000000E+00    0.0000000000E+00
    0.0000000000E+00    0.0000000000E+00    0.0000000000E+00    0.0000000000E+00
    0.0000000000E+00    0.0000000000E+00    0.0000000000E+00    0.0000000000E+00
    0.0000000000E+00    0.0000000000E+00    0.0000000000E+00    0.0000000000E+00
    0.0000000000E+00    0.0000000000E+00    0.0000000000E+00    0.0000000000E+00
    0.0000000000E+00    0.0000000000E+00    0.0000000000E+00    0.0000000000E+00
    0.0000000000E+00    0.0000000000E+00    0.0000000000E+00    0.0000000000E+00
    0.0000000000E+00    0.0000000000E+00    0.0000000000E+00    0.0000000000E+00
    0.0000000000E+00    0.0000000000E+00    0.0000000000E+00    0.0000000000E+00
    0.0000000000E+00    0.0000000000E+00    0.0000000000E+00    0.0000000000E+00
    0.0000000000E+00    0.0000000000E+00    0.0000000000E+00    0.0000000000E+00
    0.0000000000E+00    0.0000000000E+00    0.0000000000E+00    0.0000000000E+00
    0.0000000000E+00    0.0000000000E+00    0.0000000000E+00    0.0000000000E+00
    0.0000000000E+00    0.0000000000E+00    0.0000000000E+00    0.0000000000E+00
    0.0000000000E+00    0.0000000000E+00    0.0000000000E+00    0.0000000000E+00
    0.0000000000E+00    0.0000000000E+00    0.0000000000E+00    0.0000000000E+00
    0.0000000000E+00    0.0000000000E+00    0.0000000000E+00    0.0000000000E+00
    0.0000000000E+00    0.0000000000E+00    0.0000000000E+00    0.0000000000E+00
    0.0000000000E+00    0.0000000000E+00    0.0000000000E+00    0.0000000000E+00
    0.0000000000E+00    0.0000000000E+00    0.0000000000E+00    0.0000000000E+00
    0.0000000000E+00    0.0000000000E+00    0.0000000000E+00    0.0000000000E+00
    0.0000000000E+00    0.0000000000E+00    0.0000000000E+00    0.0000000000E+00
    0.0000000000E+00    0.0000000000E+00    0.0000000000E+00    0.0000000000E+00
    0.0000000000E+00    0.0000000000E+00    0.0000000000E+00    0.0000000000E+00
    0.0000000000E+00    0.0000000000E+00    0.0000000000E+00    0.0000000000E+00
   </PP_CHI.3>
   <PP_CHI.4
       type="real"
       size="1636"
       columns="4"
       index="4"
       occupation=" 1.000"
       pseudo_energy="   -0.2951726647E+00"
       label="4S"
       l="0" >
   -6.1240179594E-12   -1.4628877308E-03   -2.9400451406E-03   -4.4456517866E-03
   -5.9937074800E-03   -7.5979436539E-03   -9.2717362162E-03   -1.1028020377E-02
   -1.2879207930E-02   -1.4837107466E-02   -1.6912847979E-02   -1.9116806314E-02
   -2.1458538901E-02   -2.3946718177E-02   -2.6589074116E-02   -2.9392341205E-02
   -3.2362211238E-02   -3.5503292224E-02   -3.8819073683E-02   -4.2311898569E-02
   -4.5982942016E-02   -4.9832197046E-02   -5.3858467343E-02   -5.8059367146E-02
   -6.2431328248E-02   -6.6969614052E-02   -7.1668340571E-02   -7.6520504203E-02
   -8.1518016072E-02   -8.6651742667E-02   -9.1911552446E-02   -9.7286368075E-02
   -1.0276422386E-01   -1.0833232796E-01   -1.1397712890E-01   -1.1968438590E-01
   -1.2543924241E-01   -1.3122630248E-01   -1.3702970927E-01   -1.4283322519E-01
   -1.4862031314E-01   -1.5437421832E-01   -1.6007805006E-01   -1.6571486309E-01
   -1.7126773795E-01   -1.7671985979E-01   -1.8205459545E-01   -1.8725556812E-01
   -1.9230672938E-01   -1.9719242821E-01   -2.0189747671E-01   -2.0640721218E-01
   -2.1070755539E-01   -2.1478506480E-01   -2.1862698651E-01   -2.2222129994E-01
   -2.2555675888E-01   -2.2862292804E-01   -2.3141021491E-01   -2.3390989693E-01
   -2.3611414388E-01   -2.3801603560E-01   -2.3960957490E-01   -2.4088969588E-01
   -2.4185226749E-01   -2.4249409264E-01   -2.4281290272E-01   -2.4280734783E-01
   -2.4247698266E-01   -2.4182224839E-01   -2.4084445050E-01   -2.3954573293E-01
   -2.3792904864E-01   -2.3599812686E-01   -2.3375743724E-01   -2.3121215120E-01
   -2.2836810078E-01   -2.2523173522E-01   -2.2181007567E-01   -2.1811066834E-01
   -2.1414153640E-01   -2.0991113105E-01   -2.0542828201E-01   -2.0070214791E-01
   -1.9574216685E-01   -1.9055800749E-01   -1.8515952094E-01   -1.7955669393E-01
   -1.7375960333E-01   -1.6777837243E-01   -1.6162312916E-01   -1.5530396647E-01
   -1.4883090497E-01   -1.4221385810E-01   -1.3546259972E-01   -1.2858673441E-01
   -1.2159567025E-01   -1.1449859429E-01   -1.0730445051E-01   -1.0002192024E-01
   -9.2659404940E-02   -8.5225011235E-02   -7.7726537986E-02   -7.0171465324E-02
   -6.2566945449E-02   -5.4919795005E-02   -4.7236488525E-02   -3.9523152302E-02
   -3.1785561136E-02   -2.4029136972E-02   -1.6258948013E-02   -8.4797135150E-03
   -6.9586278529E-04    7.0883726998E-03    1.4868945549E-02    2.2641986931E-02
    3.0403800667E-02    3.8150857697E-02    4.5879790681E-02    5.3587388697E-02
    6.1270592049E-02    6.8926487190E-02    7.6552301769E-02    8.4145399786E-02
    9.1703276878E-02    9.9223555717E-02    1.0670398153E-01    1.1414241776E-01
    1.2153684180E-01    1.2888534089E-01    1.3618610813E-01    1.4343743856E-01
    1.5063772543E-01    1.5778545650E-01    1.6487921055E-01    1.7191765389E-01
    1.7889953703E-01    1.8582369150E-01    1.9268902667E-01    1.9949452676E-01
    2.0623924789E-01    2.1292231525E-01    2.1954292036E-01    2.2610031843E-01
    2.3259382577E-01    2.3902281732E-01    2.4538672428E-01    2.5168503173E-01
    2.5791727647E-01    2.6408304480E-01    2.7018197046E-01    2.7621373261E-01
    2.8217805388E-01    2.8807469848E-01    2.9390347042E-01    2.9966421171E-01
    3.0535680074E-01    3.1098115058E-01    3.1653720746E-01    3.2202494924E-01
    3.2744438394E-01    3.3279554835E-01    3.3807850668E-01    3.4329334922E-01
    3.4844019111E-01    3.5351917114E-01    3.5853045053E-01    3.6347421186E-01
    3.6835065798E-01    3.7316001093E-01    3.7790251098E-01    3.8257841564E-01
    3.8718799875E-01    3.9173154958E-01    3.9620937195E-01    4.0062178347E-01
    4.0496911465E-01    4.0925170822E-01    4.1346991838E-01    4.1762411005E-01
    4.2171465824E-01    4.2574194740E-01    4.2970637077E-01    4.3360832981E-01
    4.3744823359E-01    4.4122649827E-01    4.4494354658E-01    4.4859980727E-01
    4.5219571466E-01    4.5573170817E-01    4.5920823185E-01    4.6262573398E-01
    4.6598466667E-01    4.6928548542E-01    4.7252864880E-01    4.7571461807E-01
    4.7884385683E-01    4.8191683070E-01    4.8493400704E-01    4.8789585461E-01
    4.9080284328E-01    4.9365544383E-01    4.9645412764E-01    4.9919936642E-01
    5.0189163208E-01    5.0453139640E-01    5.0711913088E-01    5.0965530657E-01
    5.1214039380E-01    5.1457486210E-01    5.1695917995E-01    5.1929381470E-01
    5.2157923236E-01    5.2381589751E-01    5.2600427315E-01    5.2814482057E-01
    5.3023799927E-01    5.3228426680E-01    5.3428407873E-01    5.3623788850E-01
    5.3814614740E-01    5.4000930440E-01    5.4182780617E-01    5.4360209698E-01
    5.4533261861E-01    5.4701981033E-01    5.4866410886E-01    5.5026594829E-01
    5.5182576006E-01    5.5334397290E-01    5.5482101285E-01    5.5625730317E-01
    5.5765326436E-01    5.5900931410E-01    5.6032586727E-01    5.6160333590E-01
    5.6284212919E-01    5.6404265345E-01    5.6520531216E-01    5.6633050588E-01
    5.6741863234E-01    5.6847008635E-01    5.6948525986E-01    5.7046454192E-01
    5.7140831872E-01    5.7231697357E-01    5.7319088690E-01    5.7403043628E-01
    5.7483599642E-01    5.7560793919E-01    5.7634663359E-01    5.7705244582E-01
    5.7772573925E-01    5.7836687442E-01    5.7897620909E-01    5.7955409822E-01
    5.8010089399E-01    5.8061694582E-01    5.8110260039E-01    5.8155820161E-01
    5.8198409071E-01    5.8238060615E-01    5.8274808375E-01    5.8308685660E-01
    5.8339725514E-01    5.8367960716E-01    5.8393423780E-01    5.8416146955E-01
    5.8436162232E-01    5.8453501341E-01    5.8468195753E-01    5.8480276681E-01
    5.8489775085E-01    5.8496721669E-01    5.8501146885E-01    5.8503080932E-01
    5.8502553763E-01    5.8499595079E-01    5.8494234335E-01    5.8486500742E-01
    5.8476423267E-01    5.8464030632E-01    5.8449351319E-01    5.8432413573E-01
    5.8413245398E-01    5.8391874562E-01    5.8368328597E-01    5.8342634802E-01
    5.8314820244E-01    5.8284911759E-01    5.8252935952E-01    5.8218919202E-01
    5.8182887659E-01    5.8144867251E-01    5.8104883678E-01    5.8062962422E-01
    5.8019128742E-01    5.7973407677E-01    5.7925824048E-01    5.7876402462E-01
    5.7825167307E-01    5.7772142760E-01    5.7717352785E-01    5.7660821135E-01
    5.7602571353E-01    5.7542626775E-01    5.7481010529E-01    5.7417745540E-01
    5.7352854527E-01    5.7286360008E-01    5.7218284299E-01    5.7148649517E-01
    5.7077477582E-01    5.7004790214E-01    5.6930608943E-01    5.6854955100E-01
    5.6777849825E-01    5.6699314069E-01    5.6619368591E-01    5.6538033963E-01
    5.6455330568E-01    5.6371278607E-01    5.6285898093E-01    5.6199208859E-01
    5.6111230555E-01    5.6021982653E-01    5.5931484443E-01    5.5839755041E-01
    5.5746813385E-01    5.5652678240E-01    5.5557368196E-01    5.5460901673E-01
    5.5363296918E-01    5.5264572012E-01    5.5164744865E-01    5.5063833222E-01
    5.4961854662E-01    5.4858826602E-01    5.4754766294E-01    5.4649690829E-01
    5.4543617140E-01    5.4436561998E-01    5.4328542019E-01    5.4219573662E-01
    5.4109673231E-01    5.3998856876E-01    5.3887140595E-01    5.3774540234E-01
    5.3661071490E-01    5.3546749911E-01    5.3431590897E-01    5.3315609702E-01
    5.3198821434E-01    5.3081241059E-01    5.2962883397E-01    5.2843763129E-01
    5.2723894796E-01    5.2603292797E-01    5.2481971395E-01    5.2359944716E-01
    5.2237226747E-01    5.2113831346E-01    5.1989772231E-01    5.1865062992E-01
    5.1739717085E-01    5.1613747837E-01    5.1487168444E-01    5.1359991977E-01
    5.1232231375E-01    5.1103899455E-01    5.0975008907E-01    5.0845572296E-01
    5.0715602065E-01    5.0585110536E-01    5.0454109906E-01    5.0322612257E-01
    5.0190629547E-01    5.0058173618E-01    4.9925256195E-01    4.9791888885E-01
    4.9658083182E-01    4.9523850462E-01    4.9389201990E-01    4.9254148918E-01
    4.9118702284E-01    4.8982873018E-01    4.8846671937E-01    4.8710109750E-01
    4.8573197059E-01    4.8435944355E-01    4.8298362024E-01    4.8160460347E-01
    4.8022249498E-01    4.7883739547E-01    4.7744940461E-01    4.7605862104E-01
    4.7466514236E-01    4.7326906519E-01    4.7187048511E-01    4.7046949672E-01
    4.6906619362E-01    4.6766066843E-01    4.6625301280E-01    4.6484331739E-01
    4.6343167191E-01    4.6201816510E-01    4.6060288477E-01    4.5918591776E-01
    4.5776735000E-01    4.5634726647E-01    4.5492575123E-01    4.5350288742E-01
    4.5207875728E-01    4.5065344212E-01    4.4922702238E-01    4.4779957758E-01
    4.4637118637E-01    4.4494192650E-01    4.4351187486E-01    4.4208110746E-01
    4.4064969945E-01    4.3921772513E-01    4.3778525792E-01    4.3635237042E-01
    4.3491913436E-01    4.3348562065E-01    4.3205189938E-01    4.3061803978E-01
    4.2918411029E-01    4.2775017851E-01    4.2631631125E-01    4.2488257450E-01
    4.2344903345E-01    4.2201575249E-01    4.2058279523E-01    4.1915022449E-01
    4.1771810231E-01    4.1628648995E-01    4.1485544790E-01    4.1342503589E-01
    4.1199531289E-01    4.1056633709E-01    4.0913816596E-01    4.0771085621E-01
    4.0628446379E-01    4.0485904395E-01    4.0343465117E-01    4.0201133922E-01
    4.0058916115E-01    3.9916816928E-01    3.9774841523E-01    3.9632994989E-01
    3.9491282348E-01    3.9349708547E-01    3.9208278468E-01    3.9066996922E-01
    3.8925868651E-01    3.8784898329E-01    3.8644090564E-01    3.8503449894E-01
    3.8362980793E-01    3.8222687666E-01    3.8082574855E-01    3.7942646634E-01
    3.7802907214E-01    3.7663360741E-01    3.7524011296E-01    3.7384862897E-01
    3.7245919500E-01    3.7107184997E-01    3.6968663219E-01    3.6830357935E-01
    3.6692272852E-01    3.6554411617E-01    3.6416777816E-01    3.6279374977E-01
    3.6142206566E-01    3.6005275993E-01    3.5868586607E-01    3.5732141701E-01
    3.5595944509E-01    3.5459998208E-01    3.5324305921E-01    3.5188870713E-01
    3.5053695592E-01    3.4918783514E-01    3.4784137377E-01    3.4649760029E-01
    3.4515654259E-01    3.4381822809E-01    3.4248268362E-01    3.4114993553E-01
    3.3982000964E-01    3.3849293124E-01    3.3716872515E-01    3.3584741564E-01
    3.3452902652E-01    3.3321358107E-01    3.3190110212E-01    3.3059161198E-01
    3.2928513249E-01    3.2798168503E-01    3.2668129048E-01    3.2538396929E-01
    3.2408974142E-01    3.2279862637E-01    3.2151064322E-01    3.2022581058E-01
    3.1894414661E-01    3.1766566904E-01    3.1639039518E-01    3.1511834189E-01
    3.1384952562E-01    3.1258396239E-01    3.1132166782E-01    3.1006265710E-01
    3.0880694504E-01    3.0755454601E-01    3.0630547403E-01    3.0505974269E-01
    3.0381736521E-01    3.0257835442E-01    3.0134272279E-01    3.0011048239E-01
    2.9888164493E-01    2.9765622176E-01    2.9643422387E-01    2.9521566188E-01
    2.9400054607E-01    2.9278888638E-01    2.9158069239E-01    2.9037597334E-01
    2.8917473815E-01    2.8797699541E-01    2.8678275336E-01    2.8559201995E-01
    2.8440480279E-01    2.8322110918E-01    2.8204094612E-01    2.8086432030E-01
    2.7969123810E-01    2.7852170562E-01    2.7735572865E-01    2.7619331270E-01
    2.7503446300E-01    2.7387918449E-01    2.7272748184E-01    2.7157935944E-01
    2.7043482141E-01    2.6929387161E-01    2.6815651364E-01    2.6702275083E-01
    2.6589258628E-01    2.6476602282E-01    2.6364306304E-01    2.6252370928E-01
    2.6140796365E-01    2.6029582802E-01    2.5918730404E-01    2.5808239310E-01
    2.5698109641E-01    2.5588341492E-01    2.5478934938E-01    2.5369890033E-01
    2.5261206808E-01    2.5152885276E-01    2.5044925426E-01    2.4937327231E-01
    2.4830090640E-01    2.4723215587E-01    2.4616701983E-01    2.4510549721E-01
    2.4404758679E-01    2.4299328712E-01    2.4194259660E-01    2.4089551344E-01
    2.3985203569E-01    2.3881216122E-01    2.3777588775E-01    2.3674321281E-01
    2.3571413379E-01    2.3468864792E-01    2.3366675225E-01    2.3264844373E-01
    2.3163371910E-01    2.3062257500E-01    2.2961500789E-01    2.2861101413E-01
    2.2761058990E-01    2.2661373126E-01    2.2562043414E-01    2.2463069435E-01
    2.2364450754E-01    2.2266186925E-01    2.2168277492E-01    2.2070721983E-01
    2.1973519916E-01    2.1876670798E-01    2.1780174122E-01    2.1684029374E-01
    2.1588236025E-01    2.1492793538E-01    2.1397701363E-01    2.1302958943E-01
    2.1208565707E-01    2.1114521078E-01    2.1020824467E-01    2.0927475276E-01
    2.0834472897E-01    2.0741816716E-01    2.0649506107E-01    2.0557540436E-01
    2.0465919062E-01    2.0374641333E-01    2.0283706593E-01    2.0193114174E-01
    2.0102863403E-01    2.0012953598E-01    1.9923384071E-01    1.9834154125E-01
    1.9745263058E-01    1.9656710161E-01    1.9568494716E-01    1.9480616001E-01
    1.9393073286E-01    1.9305865837E-01    1.9218992912E-01    1.9132453764E-01
    1.9046247640E-01    1.8960373781E-01    1.8874831425E-01    1.8789619800E-01
    1.8704738134E-01    1.8620185647E-01    1.8535961556E-01    1.8452065071E-01
    1.8368495399E-01    1.8285251743E-01    1.8202333300E-01    1.8119739265E-01
    1.8037468827E-01    1.7955521172E-01    1.7873895482E-01    1.7792590936E-01
    1.7711606708E-01    1.7630941970E-01    1.7550595890E-01    1.7470567633E-01
    1.7390856360E-01    1.7311461231E-01    1.7232381401E-01    1.7153616023E-01
    1.7075164247E-01    1.6997025222E-01    1.6919198092E-01    1.6841682001E-01
    1.6764476089E-01    1.6687579495E-01    1.6610991355E-01    1.6534710803E-01
    1.6458736971E-01    1.6383068991E-01    1.6307705990E-01    1.6232647096E-01
    1.6157891435E-01    1.6083438131E-01    1.6009286305E-01    1.5935435080E-01
    1.5861883574E-01    1.5788630908E-01    1.5715676198E-01    1.5643018562E-01
    1.5570657114E-01    1.5498590970E-01    1.5426819243E-01    1.5355341046E-01
    1.5284155491E-01    1.5213261692E-01    1.5142658757E-01    1.5072345799E-01
    1.5002321926E-01    1.4932586250E-01    1.4863137879E-01    1.4793975922E-01
    1.4725099489E-01    1.4656507687E-01    1.4588199626E-01    1.4520174413E-01
    1.4452431158E-01    1.4384968969E-01    1.4317786954E-01    1.4250884223E-01
    1.4184259883E-01    1.4117913045E-01    1.4051842817E-01    1.3986048309E-01
    1.3920528631E-01    1.3855282894E-01    1.3790310209E-01    1.3725609686E-01
    1.3661180438E-01    1.3597021577E-01    1.3533132216E-01    1.3469511469E-01
    1.3406158449E-01    1.3343072273E-01    1.3280252055E-01    1.3217696913E-01
    1.3155405964E-01    1.3093378325E-01    1.3031613116E-01    1.2970109457E-01
    1.2908866468E-01    1.2847883272E-01    1.2787158991E-01    1.2726692749E-01
    1.2666483671E-01    1.2606530883E-01    1.2546833511E-01    1.2487390685E-01
    1.2428201534E-01    1.2369265187E-01    1.2310580777E-01    1.2252147436E-01
    1.2193964299E-01    1.2136030501E-01    1.2078345178E-01    1.2020907469E-01
    1.1963716514E-01    1.1906771452E-01    1.1850071425E-01    1.1793615578E-01
    1.1737403055E-01    1.1681433002E-01    1.1625704568E-01    1.1570216900E-01
    1.1514969150E-01    1.1459960469E-01    1.1405190012E-01    1.1350656934E-01
    1.1296360391E-01    1.1242299541E-01    1.1188473545E-01    1.1134881563E-01
    1.1081522759E-01    1.1028396297E-01    1.0975501343E-01    1.0922837065E-01
    1.0870402633E-01    1.0818197218E-01    1.0766219992E-01    1.0714470130E-01
    1.0662946808E-01    1.0611649204E-01    1.0560576497E-01    1.0509727869E-01
    1.0459102502E-01    1.0408699582E-01    1.0358518294E-01    1.0308557828E-01
    1.0258817373E-01    1.0209296120E-01    1.0159993264E-01    1.0110907999E-01
    1.0062039523E-01    1.0013387035E-01    9.9649497344E-02    9.9167268251E-02
    9.8687175110E-02    9.8209209983E-02    9.7733364949E-02    9.7259632108E-02
    9.6788003576E-02    9.6318471489E-02    9.5851028001E-02    9.5385665284E-02
    9.4922375530E-02    9.4461150948E-02    9.4001983768E-02    9.3544866236E-02
    9.3089790621E-02    9.2636749205E-02    9.2185734295E-02    9.1736738213E-02
    9.1289753301E-02    9.0844771921E-02    9.0401786452E-02    8.9960789295E-02
    8.9521772867E-02    8.9084729607E-02    8.8649651971E-02    8.8216532436E-02
    8.7785363496E-02    8.7356137667E-02    8.6928847482E-02    8.6503485495E-02
    8.6080044279E-02    8.5658516424E-02    8.5238894543E-02    8.4821171267E-02
    8.4405339245E-02    8.3991391147E-02    8.3579319663E-02    8.3169117500E-02
    8.2760777387E-02    8.2354292071E-02    8.1949654319E-02    8.1546856918E-02
    8.1145892674E-02    8.0746754412E-02    8.0349434978E-02    7.9953927236E-02
    7.9560224070E-02    7.9168318384E-02    7.8778203102E-02    7.8389871167E-02
    7.8003315540E-02    7.7618529205E-02    7.7235505163E-02    7.6854236434E-02
    7.6474716061E-02    7.6096937103E-02    7.5720892641E-02    7.5346575774E-02
    7.4973979622E-02    7.4603097322E-02    7.4233922035E-02    7.3866446937E-02
    7.3500665227E-02    7.3136570121E-02    7.2774154857E-02    7.2413412690E-02
    7.2054336897E-02    7.1696920773E-02    7.1341157632E-02    7.0987040811E-02
    7.0634563662E-02    7.0283719559E-02    6.9934501896E-02    6.9586904085E-02
    6.9240919559E-02    6.8896541768E-02    6.8553764185E-02    6.8212580300E-02
    6.7872983623E-02    6.7534967683E-02    6.7198526031E-02    6.6863652234E-02
    6.6530339880E-02    6.6198582577E-02    6.5868373951E-02    6.5539707649E-02
    6.5212577336E-02    6.4886976696E-02    6.4562899436E-02    6.4240339276E-02
    6.3919289962E-02    6.3599745255E-02    6.3281698936E-02    6.2965144806E-02
    6.2650076686E-02    6.2336488415E-02    6.2024373850E-02    6.1713726871E-02
    6.1404541374E-02    6.1096811274E-02    6.0790530508E-02    6.0485693030E-02
    6.0182292813E-02    5.9880323851E-02    5.9579780154E-02    5.9280655754E-02
    5.8982944701E-02    5.8686641063E-02    5.8391738929E-02    5.8098232405E-02
    5.7806115618E-02    5.7515382712E-02    5.7226027852E-02    5.6938045219E-02
    5.6651429016E-02    5.6366173463E-02    5.6082272800E-02    5.5799721284E-02
    5.5518513193E-02    5.5238642822E-02    5.4960104486E-02    5.4682892519E-02
    5.4407001272E-02    5.4132425116E-02    5.3859158440E-02    5.3587195653E-02
    5.3316531181E-02    5.3047159469E-02    5.2779074981E-02    5.2512272200E-02
    5.2246745627E-02    5.1982489780E-02    5.1719499199E-02    5.1457768438E-02
    5.1197292073E-02    5.0938064698E-02    5.0680080923E-02    5.0423335378E-02
    5.0167822713E-02    4.9913537592E-02    4.9660474702E-02    4.9408628745E-02
    4.9157994443E-02    4.8908566534E-02    4.8660339777E-02    4.8413308946E-02
    4.8167468837E-02    4.7922814261E-02    4.7679340048E-02    4.7437041046E-02
    4.7195912121E-02    4.6955948157E-02    4.6717144056E-02    4.6479494737E-02
    4.6242995139E-02    4.6007640216E-02    4.5773424943E-02    4.5540344310E-02
    4.5308393326E-02    4.5077567018E-02    4.4847860430E-02    4.4619268625E-02
    4.4391786681E-02    4.4165409696E-02    4.3940132785E-02    4.3715951080E-02
    4.3492859731E-02    4.3270853906E-02    4.3049928789E-02    4.2830079582E-02
    4.2611301505E-02    4.2393589795E-02    4.2176939706E-02    4.1961346510E-02
    4.1746805495E-02    4.1533311968E-02    4.1320861252E-02    4.1109448687E-02
    4.0899069631E-02    4.0689719457E-02    4.0481393559E-02    4.0274087344E-02
    4.0067796239E-02    3.9862515685E-02    3.9658241143E-02    3.9454968088E-02
    3.9252692015E-02    3.9051408432E-02    3.8851112868E-02    3.8651800865E-02
    3.8453467984E-02    3.8256109802E-02    3.8059721912E-02    3.7864299925E-02
    3.7669839468E-02    3.7476336183E-02    3.7283785732E-02    3.7092183789E-02
    3.6901526049E-02    3.6711808219E-02    3.6523026026E-02    3.6335175211E-02
    3.6148251532E-02    3.5962250764E-02    3.5777168697E-02    3.5593001138E-02
    3.5409743910E-02    3.5227392851E-02    3.5045943817E-02    3.4865392679E-02
    3.4685735324E-02    3.4506967654E-02    3.4329085588E-02    3.4152085062E-02
    3.3975962025E-02    3.3800712445E-02    3.3626332303E-02    3.3452817597E-02
    3.3280164341E-02    3.3108368563E-02    3.2937426310E-02    3.2767333640E-02
    3.2598086629E-02    3.2429681370E-02    3.2262113969E-02    3.2095380548E-02
    3.1929477245E-02    3.1764400212E-02    3.1600145619E-02    3.1436709647E-02
    3.1274088497E-02    3.1112278382E-02    3.0951275530E-02    3.0791076187E-02
    3.0631676611E-02    3.0473073076E-02    3.0315261872E-02    3.0158239302E-02
    3.0002001686E-02    2.9846545357E-02    2.9691866665E-02    2.9537961972E-02
    2.9384827657E-02    2.9232460113E-02    2.9080855747E-02    2.8930010981E-02
    2.8779922252E-02    2.8630586012E-02    2.8481998727E-02    2.8334156875E-02
    2.8187056953E-02    2.8040695469E-02    2.7895068947E-02    2.7750173924E-02
    2.7606006952E-02    2.7462564598E-02    2.7319843441E-02    2.7177840076E-02
    2.7036551112E-02    2.6895973171E-02    2.6756102889E-02    2.6616936919E-02
    2.6478471923E-02    2.6340704580E-02    2.6203631583E-02    2.6067249637E-02
    2.5931555463E-02    2.5796545794E-02    2.5662217377E-02    2.5528566972E-02
    2.5395591355E-02    2.5263287314E-02    2.5131651649E-02    2.5000681176E-02
    2.4870372724E-02    2.4740723134E-02    2.4611729261E-02    2.4483387974E-02
    2.4355696154E-02    2.4228650698E-02    2.4102248512E-02    2.3976486518E-02
    2.3851361651E-02    2.3726870858E-02    2.3603011100E-02    2.3479779350E-02
    2.3357172595E-02    2.3235187833E-02    2.3113822078E-02    2.2993072353E-02
    2.2872935698E-02    2.2753409163E-02    2.2634489810E-02    2.2516174716E-02
    2.2398460969E-02    2.2281345670E-02    2.2164825934E-02    2.2048898885E-02
    2.1933561662E-02    2.1818811417E-02    2.1704645313E-02    2.1591060525E-02
    2.1478054242E-02    2.1365623662E-02    2.1253766000E-02    2.1142478479E-02
    2.1031758336E-02    2.0921602819E-02    2.0812009190E-02    2.0702974721E-02
    2.0594496697E-02    2.0486572414E-02    2.0379199181E-02    2.0272374319E-02
    2.0166095159E-02    2.0060359046E-02    1.9955163334E-02    1.9850505391E-02
    1.9746382597E-02    1.9642792341E-02    1.9539732025E-02    1.9437199064E-02
    1.9335190882E-02    1.9233704915E-02    1.9132738612E-02    1.9032289431E-02
    1.8932354844E-02    1.8832932331E-02    1.8734019386E-02    1.8635613512E-02
    1.8537712227E-02    1.8440313054E-02    1.8343413533E-02    1.8247011212E-02
    1.8151103650E-02    1.8055688418E-02    1.7960763096E-02    1.7866325278E-02
    1.7772372567E-02    1.7678902575E-02    1.7585912929E-02    1.7493401262E-02
    1.7401365222E-02    1.7309802465E-02    1.7218710657E-02    1.7128087478E-02
    1.7037930614E-02    1.6948237766E-02    1.6859006641E-02    1.6770234961E-02
    1.6681920454E-02    1.6594060861E-02    1.6506653932E-02    1.6419697429E-02
    1.6333189123E-02    1.6247126794E-02    1.6161508234E-02    1.6076331244E-02
    1.5991593637E-02    1.5907293232E-02    1.5823427863E-02    1.5739995370E-02
    1.5656993604E-02    1.5574420427E-02    1.5492273709E-02    1.5410551332E-02
    1.5329251187E-02    1.5248371172E-02    1.5167909198E-02    1.5087863185E-02
    1.5008231062E-02    1.4929010768E-02    1.4850200250E-02    1.4771797466E-02
    1.4693800385E-02    1.4616206981E-02    1.4539015242E-02    1.4462223163E-02
    1.4385828747E-02    1.4309830010E-02    1.4234224973E-02    1.4159011670E-02
    1.4084188142E-02    1.4009752440E-02    1.3935702622E-02    1.3862036759E-02
    1.3788752927E-02    1.3715849213E-02    1.3643323713E-02    1.3571174532E-02
    1.3499399782E-02    1.3427997586E-02    1.3356966076E-02    1.3286303391E-02
    1.3216007679E-02    1.3146077098E-02    1.3076509813E-02    1.3007304000E-02
    1.2938457841E-02    1.2869969528E-02    1.2801837260E-02    1.2734059248E-02
    1.2666633707E-02    1.2599558864E-02    1.2532832952E-02    1.2466454213E-02
    1.2400420898E-02    1.2334731266E-02    1.2269383584E-02    1.2204376126E-02
    1.2139707178E-02    1.2075375029E-02    1.2011377980E-02    1.1947714339E-02
    1.1884382421E-02    1.1821380551E-02    1.1758707059E-02    1.1696360286E-02
    1.1634338579E-02    1.1572640294E-02    1.1511263794E-02    1.1450207450E-02
    1.1389469642E-02    1.1329048755E-02    1.1268943184E-02    1.1209151332E-02
    1.1149671607E-02    1.1090502428E-02    1.1031642219E-02    1.0973089412E-02
    1.0914842448E-02    1.0856899773E-02    1.0799259843E-02    1.0741921121E-02
    1.0684882075E-02    1.0628141182E-02    1.0571696928E-02    1.0515547803E-02
    1.0459692307E-02    1.0404128946E-02    1.0348856233E-02    1.0293872689E-02
    1.0239176841E-02    1.0184767224E-02    1.0130642381E-02    1.0076800859E-02
    1.0023241214E-02    9.9699620106E-03    9.9169618174E-03    9.8642392114E-03
    9.8117927764E-03    9.7596211028E-03    9.7077227880E-03    9.6560964362E-03
    9.6047406583E-03    9.5536540720E-03    9.5028353017E-03    9.4522829786E-03
    9.4019957404E-03    9.3519722314E-03    9.3022111026E-03    9.2527110117E-03
    9.2034706226E-03    9.1544886060E-03    9.1057636391E-03    9.0572944052E-03
    9.0090795945E-03    8.9611179033E-03    8.9134080342E-03    8.8659486965E-03
    8.8187386055E-03    8.7717764829E-03    8.7250610566E-03    8.6785910608E-03
    8.6323652359E-03    8.5863823285E-03    8.5406410911E-03    8.4951402827E-03
    8.4498786681E-03    8.4048550183E-03    8.3600681103E-03    8.3155167272E-03
    8.2711996579E-03    8.2271156974E-03    8.1832636466E-03    8.1396423123E-03
    8.0962505071E-03    8.0530870496E-03    8.0101507641E-03    7.9674404808E-03
    7.9249550355E-03    7.8826932700E-03    7.8406540316E-03    7.7988361733E-03
    7.7572385539E-03    7.7158600378E-03    7.6746994950E-03    7.6337558011E-03
    7.5930278372E-03    7.5525144899E-03    7.5122146516E-03    7.4721272199E-03
    7.4322510979E-03    7.3925851943E-03    7.3531284230E-03    7.3138797035E-03
    7.2748379605E-03    7.2360021241E-03    7.1973711297E-03    7.1589439182E-03
    7.1207194353E-03    7.0826966324E-03    7.0448744659E-03    7.0072518974E-03
    6.9698278937E-03    6.9326014268E-03    6.8955714737E-03    6.8587370166E-03
    6.8220970429E-03    6.7856505446E-03    6.7493965193E-03    6.7133339691E-03
    6.6774619016E-03    6.6417793288E-03    6.6062852680E-03    6.5709787414E-03
    6.5358587759E-03    6.5009244034E-03    6.4661746607E-03    6.4316085893E-03
    6.3972252355E-03    6.3630236505E-03    6.3290028901E-03    6.2951620150E-03
    6.2615000904E-03    6.2280161864E-03    6.1947093777E-03    6.1615787435E-03
    6.1286233679E-03    6.0958423392E-03    6.0632347508E-03    6.0307997002E-03
    5.9985362896E-03    5.9664436258E-03    5.9345208200E-03    5.9027669880E-03
    5.8711812497E-03    5.8397627299E-03    5.8085105575E-03    5.7774238659E-03
    5.7465017928E-03    5.7157434803E-03    5.6851480748E-03    5.6547147271E-03
    5.6244425921E-03    5.5943308291E-03    5.5643786016E-03    5.5345850775E-03
    5.5049494285E-03    5.4754708308E-03    5.4461484648E-03    5.4169815149E-03
    5.3879691695E-03    5.3591106214E-03    5.3304050675E-03    5.3018517084E-03
    5.2734497491E-03    5.2451983985E-03    5.2170968694E-03    5.1891443791E-03
    5.1613401481E-03    5.1336834012E-03    5.1061733669E-03    5.0788092780E-03
    5.0515903708E-03    5.0245158859E-03    4.9975850675E-03    4.9707971623E-03
    4.9441514233E-03    4.9176471072E-03    4.8912834739E-03    4.8650597868E-03
    4.8389753132E-03    4.8130293241E-03    4.7872210940E-03    4.7615499052E-03
    4.7360150369E-03    4.7106157712E-03    4.6853513962E-03    4.6602212035E-03
    4.6352244887E-03    4.6103605511E-03    4.5856286936E-03    4.5610282144E-03
    4.5365584275E-03    4.5122186561E-03    4.4880082204E-03    4.4639264442E-03
    4.4399726544E-03    4.4161461812E-03    4.3924463579E-03    4.3688725323E-03
    4.3454240470E-03    4.3221002226E-03    4.2989003998E-03    4.2758239225E-03
    4.2528701381E-03    4.2300383975E-03    4.2073280556E-03    4.1847384599E-03
    4.1622689449E-03    4.1399189258E-03    4.1176877806E-03    4.0955748907E-03
    4.0735796405E-03    4.0517014169E-03    4.0299396090E-03    4.0082936075E-03
    3.9867628832E-03    3.9653467444E-03    3.9440445732E-03    3.9228557568E-03
    3.9017796852E-03    3.8808157524E-03    3.8599633565E-03    3.8392219011E-03
    3.8185907436E-03    3.7980693312E-03    3.7776571215E-03    3.7573535524E-03
    3.7371580676E-03    3.7170701163E-03    3.6970891529E-03    3.6772146362E-03
    3.6574460396E-03    3.6377828400E-03    3.6182244815E-03    3.5987704328E-03
    3.5794201654E-03    3.5601731535E-03    3.5410288735E-03    3.5219868041E-03
    3.5030464260E-03    3.4842072146E-03    3.4654686622E-03    3.4468302567E-03
    3.4282914869E-03    3.4098518429E-03    3.3915108159E-03    3.3732678981E-03
    3.3551225827E-03    3.3370743714E-03    3.3191227588E-03    3.3012672298E-03
    3.2835072787E-03    3.2658424009E-03    3.2482720926E-03    3.2307958517E-03
    3.2134131775E-03    3.1961235708E-03    3.1789265275E-03    3.1618215601E-03
    3.1448081768E-03    3.1278858880E-03    3.1110542065E-03    3.0943126477E-03
    3.0776607295E-03    3.0610979729E-03    3.0446238979E-03    3.0282380302E-03
    3.0119399049E-03    2.9957290554E-03    2.9796050179E-03    2.9635673311E-03
    2.9476155369E-03    2.9317491795E-03    2.9159678058E-03    2.9002709699E-03
    2.8846582194E-03    2.8691291071E-03    2.8536831888E-03    2.8383200230E-03
    2.8230391702E-03    2.8078401934E-03    2.7927226577E-03    2.7776861308E-03
    2.7627301825E-03    2.7478543844E-03    2.7330583105E-03    2.7183415372E-03
    2.7037036430E-03    2.6891442085E-03    2.6746628165E-03    2.6602590521E-03
    2.6459325022E-03    2.6316827561E-03    2.6175094057E-03    2.6034120448E-03
    2.5893902691E-03    2.5754436767E-03    2.5615718675E-03    2.5477744439E-03
    2.5340510099E-03    2.5204011721E-03    2.5068245387E-03    2.4933207203E-03
    2.4798893293E-03    2.4665299802E-03    2.4532422896E-03    2.4400258760E-03
    2.4268803600E-03    2.4138053642E-03    2.4008005131E-03    2.3878654331E-03
    2.3749997529E-03    2.3622031028E-03    2.3494751151E-03    2.3368154242E-03
    2.3242236663E-03    2.3116994795E-03    2.2992425039E-03    2.2868523813E-03
    2.2745287557E-03    2.2622712726E-03    2.2500795796E-03    2.2379533261E-03
    2.2258921634E-03    2.2138957445E-03    2.2019637243E-03    2.1900957596E-03
    2.1782915089E-03    2.1665506326E-03    2.1548727926E-03    2.1432576530E-03
    2.1317048793E-03    2.1202141390E-03    2.1087851014E-03    2.0974174372E-03
    2.0861108192E-03    2.0748649217E-03    2.0636794208E-03    2.0525539943E-03
    2.0414883217E-03    2.0304820842E-03    2.0195349647E-03    2.0086466478E-03
    1.9978168195E-03    1.9870451678E-03    1.9763313821E-03    1.9656751537E-03
    1.9550761753E-03    1.9445341412E-03    1.9340487475E-03    1.9236196919E-03
    1.9132466734E-03    1.9029293929E-03    1.8926675528E-03    1.8824608571E-03
    1.8723090111E-03    1.8622117221E-03    1.8521686985E-03    1.8421796506E-03
    1.8322442900E-03    1.8223623300E-03    1.8125334852E-03    1.8027574719E-03
    1.7930340079E-03    1.7833628122E-03    1.7737436057E-03    1.7641761105E-03
    1.7546600503E-03    1.7451951501E-03    1.7357811366E-03    1.7264177377E-03
    1.7171046829E-03    1.7078417031E-03    1.6986285306E-03    1.6894648990E-03
    1.6803505436E-03    1.6712852009E-03    1.6622686087E-03    1.6533005064E-03
    1.6443806347E-03    1.6355087357E-03    1.6266845528E-03    1.6179078307E-03
    1.6091783156E-03    1.6004957551E-03    1.5918598978E-03    1.5832704940E-03
    1.5747272952E-03    1.5662300541E-03    1.5577785249E-03    1.5493724629E-03
    1.5410116249E-03    1.5326957688E-03    1.5244246539E-03    1.5161980409E-03
    1.5080156914E-03    1.4998773685E-03    1.4917828367E-03    1.4837318615E-03
    1.4757242098E-03    1.4677596495E-03    1.4598379501E-03    1.4519588819E-03
    1.4441222169E-03    1.4363277278E-03    1.4285751890E-03    1.4208643757E-03
    1.4131950644E-03    1.4055670330E-03    1.3979800603E-03    1.3904339264E-03
    1.3829284125E-03    1.3754633012E-03    1.3680383759E-03    1.3606534214E-03
    1.3533082235E-03    1.3460025692E-03    1.3387362467E-03    1.3315090453E-03
    1.3243207552E-03    1.3171711681E-03    1.3100600764E-03    1.3029872740E-03
    1.2959525555E-03    1.2889557169E-03    1.2819965552E-03    1.2750748684E-03
    1.2681904556E-03    1.2613431170E-03    1.2545326540E-03    1.2477588687E-03
    1.2410215646E-03    1.2343205460E-03    1.2276556185E-03    1.2210265885E-03
    1.2144332634E-03    1.2078754520E-03    1.2013529637E-03    1.1948656090E-03
    1.1884131996E-03    1.1819955481E-03    1.1756124679E-03    1.1692637738E-03
    1.1629492812E-03    1.1566688067E-03    1.1504221678E-03    1.1442091830E-03
    1.1380296718E-03    1.1318834545E-03    1.1257703525E-03    1.1196901882E-03
    1.1136427848E-03    1.1076279665E-03    1.1016455585E-03    1.0956953868E-03
    1.0897772786E-03    1.0838910616E-03    1.0780365647E-03    1.0722136177E-03
    1.0664220513E-03    1.0606616969E-03    1.0549323871E-03    1.0492339553E-03
    1.0435662356E-03    1.0379290632E-03    1.0323222741E-03    1.0267457052E-03
   </PP_CHI.4>
 </PP_PSWFC>
 <PP_NLCC type="real"  size="1636" columns="4">
    9.3082382181E+00    9.3030600043E+00    9.2875415408E+00    9.2617312922E+00
    9.2257097678E+00    9.1795891300E+00    9.1235126475E+00    9.0576539987E+00
    8.9822164295E+00    8.8974317701E+00    8.8035593193E+00    8.7008846001E+00
    8.5897179976E+00    8.4703932863E+00    8.3432660551E+00    8.2087120425E+00
    8.0671253895E+00    7.9189168228E+00    7.7645117787E+00    7.6043484791E+00
    7.4388759708E+00    7.2685521408E+00    7.0938417182E+00    6.9152142745E+00
    6.7331422338E+00    6.5480989047E+00    6.3605565438E+00    6.1709844610E+00
    5.9798471789E+00    5.7876026528E+00    5.5947005625E+00    5.4015806828E+00
    5.2086713416E+00    5.0163879714E+00    4.8251317606E+00    4.6352884110E+00
    4.4472270040E+00    4.2612989816E+00    4.0778372430E+00    3.8971553608E+00
    3.7195469163E+00    3.5452849552E+00    3.3746215638E+00    3.2077875633E+00
    3.0449923212E+00    2.8864236772E+00    2.7322479800E+00    2.5826102309E+00
    2.4376343302E+00    2.2974234211E+00    2.1620603260E+00    2.0316080678E+00
    1.9061104726E+00    1.7855928441E+00    1.6700627052E+00    1.5595105983E+00
    1.4539109386E+00    1.3532229109E+00    1.2573914051E+00    1.1663479816E+00
    1.0800118596E+00    9.9829092204E-01    9.2108272978E-01    8.4827553828E-01
    7.7974931107E-01    7.1537672355E-01    6.5502415157E-01    5.9855263958E-01
    5.4581884327E-01    4.9667594243E-01    4.5097451976E-01    4.0856340213E-01
    3.6929046113E-01    3.3300337001E-01    2.9955031496E-01    2.6878065875E-01
    2.4054555536E-01    2.1469851463E-01    1.9109591638E-01    1.6959747385E-01
    1.5006664655E-01    1.3237100328E-01    1.1638253598E-01    1.0197792578E-01
    8.9038762601E-02    7.7451720040E-02    6.7108687543E-02    5.7906861883E-02
    4.9748800307E-02    4.2542437744E-02    3.6201070599E-02    3.0643309758E-02
    2.5793005446E-02    2.1579146631E-02    1.7935737661E-02    1.4801654811E-02
    1.2120485352E-02    9.8403517318E-03    7.9137233380E-03    6.2972182536E-03
    4.9513972897E-03    3.8405524655E-03    2.9324919769E-03    2.1983235570E-03
    1.6122379879E-03    1.1512943728E-03    7.9520863020E-04    5.2614651490E-04
    3.2852232192E-04    1.8880427686E-04    9.5327470364E-05    3.8115050547E-05
    8.7082502335E-06    5.6942205948E-09    6.1123077810E-06    2.2198031242E-05
    4.4366437304E-05    6.9533248533E-05    9.5314662092E-05    1.1992530764E-04
    1.4208559255E-04    1.6093812586E-04    1.7597285884E-04    1.8696053529E-04
    1.9389400863E-04    1.9693695452E-04    1.9637948779E-04    1.9260017917E-04
    1.8603396095E-04    1.7714541065E-04    1.6640690695E-04    1.5428116266E-04
    1.4120765404E-04    1.2759248441E-04    1.1380124155E-04    1.0015443277E-04
    8.6925107789E-05    7.4338307440E-05    6.2572005145E-05    5.1759237545E-05
    4.1991150293E-05    3.3320714413E-05    2.5766897352E-05    1.9319100818E-05
    1.3941704228E-05    9.5785779415E-06    6.1574543101E-06    3.5940667077E-06
    1.7959869847E-06    6.6611036419E-07    1.0575329580E-07    1.7344481305E-08
    3.0670207656E-07    8.8490102689E-07    1.6697436827E-06    2.5868543542E-06
    3.5704243845E-06    4.5636387953E-06    5.5188186779E-06    6.3973154068E-06
    7.1691935875E-06    7.8127395302E-06    8.3138311134E-06    8.6652032943E-06
    8.8656413568E-06    8.9191313914E-06    8.8339945862E-06    8.6220287682E-06
    8.2976773845E-06    7.8772428190E-06    7.3781576899E-06    6.8183246312E-06
    6.2155320746E-06    5.5869507696E-06    4.9487132431E-06    4.3155761255E-06
    3.7006632838E-06    3.1152860068E-06    2.5688350879E-06    2.0687385394E-06
    1.6204778477E-06    1.2276551110E-06    8.9210308907E-07    6.1403009962E-07
    3.9219181154E-07    2.2408226114E-07    1.0613685950E-07    3.3940708494E-08
    2.4361936388E-09    6.1245409341E-09    3.9256788065E-08    9.6010406455E-08
    1.7064859708E-07    2.5766005958E-07    3.5187775949E-07    4.4857592209E-07
    5.4354511267E-07    6.3314582727E-07    7.1434151617E-07    7.8471238164E-07
    8.4245163444E-07    8.8634615205E-07    9.1574367710E-07    9.3050880627E-07
    9.3097006760E-07    9.1786037292E-07    8.9225305889E-07    8.5549562294E-07
    8.0914309768E-07    7.5489281869E-07    6.9452213219E-07    6.2983035247E-07
    5.6258604927E-07    4.9448050014E-07    4.2708789429E-07    3.6183265807E-07
    2.9996404164E-07    2.4253792849E-07    1.9040562539E-07    1.4420924925E-07
    1.0438319308E-07    7.1161050038E-08    4.4590276145E-08    2.4534121856E-08
    1.0687823948E-08    2.7828652541E-09   -9.7357165488E-11   -5.4274627600E-11
    7.0193786185E-11   -1.1973058807E-11   -2.1565725986E-13   -2.5312550890E-13
    0.0000000000E+00    0.0000000000E+00    0.0000000000E+00    0.0000000000E+00
    0.0000000000E+00    0.0000000000E+00    0.0000000000E+00    0.0000000000E+00
    0.0000000000E+00    0.0000000000E+00    0.0000000000E+00    0.0000000000E+00
    0.0000000000E+00    0.0000000000E+00    0.0000000000E+00    0.0000000000E+00
    0.0000000000E+00    0.0000000000E+00    0.0000000000E+00    0.0000000000E+00
    0.0000000000E+00    0.0000000000E+00    0.0000000000E+00    0.0000000000E+00
    0.0000000000E+00    0.0000000000E+00    0.0000000000E+00    0.0000000000E+00
    0.0000000000E+00    0.0000000000E+00    0.0000000000E+00    0.0000000000E+00
    0.0000000000E+00    0.0000000000E+00    0.0000000000E+00    0.0000000000E+00
    0.0000000000E+00    0.0000000000E+00    0.0000000000E+00    0.0000000000E+00
    0.0000000000E+00    0.0000000000E+00    0.0000000000E+00    0.0000000000E+00
    0.0000000000E+00    0.0000000000E+00    0.0000000000E+00    0.0000000000E+00
    0.0000000000E+00    0.0000000000E+00    0.0000000000E+00    0.0000000000E+00
    0.0000000000E+00    0.0000000000E+00    0.0000000000E+00    0.0000000000E+00
    0.0000000000E+00    0.0000000000E+00    0.0000000000E+00    0.0000000000E+00
    0.0000000000E+00    0.0000000000E+00    0.0000000000E+00    0.0000000000E+00
    0.0000000000E+00    0.0000000000E+00    0.0000000000E+00    0.0000000000E+00
    0.0000000000E+00    0.0000000000E+00    0.0000000000E+00    0.0000000000E+00
    0.0000000000E+00    0.0000000000E+00    0.0000000000E+00    0.0000000000E+00
    0.0000000000E+00    0.0000000000E+00    0.0000000000E+00    0.0000000000E+00
    0.0000000000E+00    0.0000000000E+00    0.0000000000E+00    0.0000000000E+00
    0.0000000000E+00    0.0000000000E+00    0.0000000000E+00    0.0000000000E+00
    0.0000000000E+00    0.0000000000E+00    0.0000000000E+00    0.0000000000E+00
    0.0000000000E+00    0.0000000000E+00    0.0000000000E+00    0.0000000000E+00
    0.0000000000E+00    0.0000000000E+00    0.0000000000E+00    0.0000000000E+00
    0.0000000000E+00    0.0000000000E+00    0.0000000000E+00    0.0000000000E+00
    0.0000000000E+00    0.0000000000E+00    0.0000000000E+00    0.0000000000E+00
    0.0000000000E+00    0.0000000000E+00    0.0000000000E+00    0.0000000000E+00
    0.0000000000E+00    0.0000000000E+00    0.0000000000E+00    0.0000000000E+00
    0.0000000000E+00    0.0000000000E+00    0.0000000000E+00    0.0000000000E+00
    0.0000000000E+00    0.0000000000E+00    0.0000000000E+00    0.0000000000E+00
    0.0000000000E+00    0.0000000000E+00    0.0000000000E+00    0.0000000000E+00
    0.0000000000E+00    0.0000000000E+00    0.0000000000E+00    0.0000000000E+00
    0.0000000000E+00    0.0000000000E+00    0.0000000000E+00    0.0000000000E+00
    0.0000000000E+00    0.0000000000E+00    0.0000000000E+00    0.0000000000E+00
    0.0000000000E+00    0.0000000000E+00    0.0000000000E+00    0.0000000000E+00
    0.0000000000E+00    0.0000000000E+00    0.0000000000E+00    0.0000000000E+00
    0.0000000000E+00    0.0000000000E+00    0.0000000000E+00    0.0000000000E+00
    0.0000000000E+00    0.0000000000E+00    0.0000000000E+00    0.0000000000E+00
    0.0000000000E+00    0.0000000000E+00    0.0000000000E+00    0.0000000000E+00
    0.0000000000E+00    0.0000000000E+00    0.0000000000E+00    0.0000000000E+00
    0.0000000000E+00    0.0000000000E+00    0.0000000000E+00    0.0000000000E+00
    0.0000000000E+00    0.0000000000E+00    0.0000000000E+00    0.0000000000E+00
    0.0000000000E+00    0.0000000000E+00    0.0000000000E+00    0.0000000000E+00
    0.0000000000E+00    0.0000000000E+00    0.0000000000E+00    0.0000000000E+00
    0.0000000000E+00    0.0000000000E+00    0.0000000000E+00    0.0000000000E+00
    0.0000000000E+00    0.0000000000E+00    0.0000000000E+00    0.0000000000E+00
    0.0000000000E+00    0.0000000000E+00    0.0000000000E+00    0.0000000000E+00
    0.0000000000E+00    0.0000000000E+00    0.0000000000E+00    0.0000000000E+00
    0.0000000000E+00    0.0000000000E+00    0.0000000000E+00    0.0000000000E+00
    0.0000000000E+00    0.0000000000E+00    0.0000000000E+00    0.0000000000E+00
    0.0000000000E+00    0.0000000000E+00    0.0000000000E+00    0.0000000000E+00
    0.0000000000E+00    0.0000000000E+00    0.0000000000E+00    0.0000000000E+00
    0.0000000000E+00    0.0000000000E+00    0.0000000000E+00    0.0000000000E+00
    0.0000000000E+00    0.0000000000E+00    0.0000000000E+00    0.0000000000E+00
    0.0000000000E+00    0.0000000000E+00    0.0000000000E+00    0.0000000000E+00
    0.0000000000E+00    0.0000000000E+00    0.0000000000E+00    0.0000000000E+00
    0.0000000000E+00    0.0000000000E+00    0.0000000000E+00    0.0000000000E+00
    0.0000000000E+00    0.0000000000E+00    0.0000000000E+00    0.0000000000E+00
    0.0000000000E+00    0.0000000000E+00    0.0000000000E+00    0.0000000000E+00
    0.0000000000E+00    0.0000000000E+00    0.0000000000E+00    0.0000000000E+00
    0.0000000000E+00    0.0000000000E+00    0.0000000000E+00    0.0000000000E+00
    0.0000000000E+00    0.0000000000E+00    0.0000000000E+00    0.0000000000E+00
    0.0000000000E+00    0.0000000000E+00    0.0000000000E+00    0.0000000000E+00
    0.0000000000E+00    0.0000000000E+00    0.0000000000E+00    0.0000000000E+00
    0.0000000000E+00    0.0000000000E+00    0.0000000000E+00    0.0000000000E+00
    0.0000000000E+00    0.0000000000E+00    0.0000000000E+00    0.0000000000E+00
    0.0000000000E+00    0.0000000000E+00    0.0000000000E+00    0.0000000000E+00
    0.0000000000E+00    0.0000000000E+00    0.0000000000E+00    0.0000000000E+00
    0.0000000000E+00    0.0000000000E+00    0.0000000000E+00    0.0000000000E+00
    0.0000000000E+00    0.0000000000E+00    0.0000000000E+00    0.0000000000E+00
    0.0000000000E+00    0.0000000000E+00    0.0000000000E+00    0.0000000000E+00
    0.0000000000E+00    0.0000000000E+00    0.0000000000E+00    0.0000000000E+00
    0.0000000000E+00    0.0000000000E+00    0.0000000000E+00    0.0000000000E+00
    0.0000000000E+00    0.0000000000E+00    0.0000000000E+00    0.0000000000E+00
    0.0000000000E+00    0.0000000000E+00    0.0000000000E+00    0.0000000000E+00
    0.0000000000E+00    0.0000000000E+00    0.0000000000E+00    0.0000000000E+00
    0.0000000000E+00    0.0000000000E+00    0.0000000000E+00    0.0000000000E+00
    0.0000000000E+00    0.0000000000E+00    0.0000000000E+00    0.0000000000E+00
    0.0000000000E+00    0.0000000000E+00    0.0000000000E+00    0.0000000000E+00
    0.0000000000E+00    0.0000000000E+00    0.0000000000E+00    0.0000000000E+00
    0.0000000000E+00    0.0000000000E+00    0.0000000000E+00    0.0000000000E+00
    0.0000000000E+00    0.0000000000E+00    0.0000000000E+00    0.0000000000E+00
    0.0000000000E+00    0.0000000000E+00    0.0000000000E+00    0.0000000000E+00
    0.0000000000E+00    0.0000000000E+00    0.0000000000E+00    0.0000000000E+00
    0.0000000000E+00    0.0000000000E+00    0.0000000000E+00    0.0000000000E+00
    0.0000000000E+00    0.0000000000E+00    0.0000000000E+00    0.0000000000E+00
    0.0000000000E+00    0.0000000000E+00    0.0000000000E+00    0.0000000000E+00
    0.0000000000E+00    0.0000000000E+00    0.0000000000E+00    0.0000000000E+00
    0.0000000000E+00    0.0000000000E+00    0.0000000000E+00    0.0000000000E+00
    0.0000000000E+00    0.0000000000E+00    0.0000000000E+00    0.0000000000E+00
    0.0000000000E+00    0.0000000000E+00    0.0000000000E+00    0.0000000000E+00
    0.0000000000E+00    0.0000000000E+00    0.0000000000E+00    0.0000000000E+00
    0.0000000000E+00    0.0000000000E+00    0.0000000000E+00    0.0000000000E+00
    0.0000000000E+00    0.0000000000E+00    0.0000000000E+00    0.0000000000E+00
    0.0000000000E+00    0.0000000000E+00    0.0000000000E+00    0.0000000000E+00
    0.0000000000E+00    0.0000000000E+00    0.0000000000E+00    0.0000000000E+00
    0.0000000000E+00    0.0000000000E+00    0.0000000000E+00    0.0000000000E+00
    0.0000000000E+00    0.0000000000E+00    0.0000000000E+00    0.0000000000E+00
    0.0000000000E+00    0.0000000000E+00    0.0000000000E+00    0.0000000000E+00
    0.0000000000E+00    0.0000000000E+00    0.0000000000E+00    0.0000000000E+00
    0.0000000000E+00    0.0000000000E+00    0.0000000000E+00    0.0000000000E+00
    0.0000000000E+00    0.0000000000E+00    0.0000000000E+00    0.0000000000E+00
    0.0000000000E+00    0.0000000000E+00    0.0000000000E+00    0.0000000000E+00
    0.0000000000E+00    0.0000000000E+00    0.0000000000E+00    0.0000000000E+00
    0.0000000000E+00    0.0000000000E+00    0.0000000000E+00    0.0000000000E+00
    0.0000000000E+00    0.0000000000E+00    0.0000000000E+00    0.0000000000E+00
    0.0000000000E+00    0.0000000000E+00    0.0000000000E+00    0.0000000000E+00
    0.0000000000E+00    0.0000000000E+00    0.0000000000E+00    0.0000000000E+00
    0.0000000000E+00    0.0000000000E+00    0.0000000000E+00    0.0000000000E+00
    0.0000000000E+00    0.0000000000E+00    0.0000000000E+00    0.0000000000E+00
    0.0000000000E+00    0.0000000000E+00    0.0000000000E+00    0.0000000000E+00
    0.0000000000E+00    0.0000000000E+00    0.0000000000E+00    0.0000000000E+00
    0.0000000000E+00    0.0000000000E+00    0.0000000000E+00    0.0000000000E+00
    0.0000000000E+00    0.0000000000E+00    0.0000000000E+00    0.0000000000E+00
    0.0000000000E+00    0.0000000000E+00    0.0000000000E+00    0.0000000000E+00
    0.0000000000E+00    0.0000000000E+00    0.0000000000E+00    0.0000000000E+00
    0.0000000000E+00    0.0000000000E+00    0.0000000000E+00    0.0000000000E+00
    0.0000000000E+00    0.0000000000E+00    0.0000000000E+00    0.0000000000E+00
    0.0000000000E+00    0.0000000000E+00    0.0000000000E+00    0.0000000000E+00
    0.0000000000E+00    0.0000000000E+00    0.0000000000E+00    0.0000000000E+00
    0.0000000000E+00    0.0000000000E+00    0.0000000000E+00    0.0000000000E+00
    0.0000000000E+00    0.0000000000E+00    0.0000000000E+00    0.0000000000E+00
    0.0000000000E+00    0.0000000000E+00    0.0000000000E+00    0.0000000000E+00
    0.0000000000E+00    0.0000000000E+00    0.0000000000E+00    0.0000000000E+00
    0.0000000000E+00    0.0000000000E+00    0.0000000000E+00    0.0000000000E+00
    0.0000000000E+00    0.0000000000E+00    0.0000000000E+00    0.0000000000E+00
    0.0000000000E+00    0.0000000000E+00    0.0000000000E+00    0.0000000000E+00
    0.0000000000E+00    0.0000000000E+00    0.0000000000E+00    0.0000000000E+00
    0.0000000000E+00    0.0000000000E+00    0.0000000000E+00    0.0000000000E+00
    0.0000000000E+00    0.0000000000E+00    0.0000000000E+00    0.0000000000E+00
    0.0000000000E+00    0.0000000000E+00    0.0000000000E+00    0.0000000000E+00
    0.0000000000E+00    0.0000000000E+00    0.0000000000E+00    0.0000000000E+00
    0.0000000000E+00    0.0000000000E+00    0.0000000000E+00    0.0000000000E+00
    0.0000000000E+00    0.0000000000E+00    0.0000000000E+00    0.0000000000E+00
    0.0000000000E+00    0.0000000000E+00    0.0000000000E+00    0.0000000000E+00
    0.0000000000E+00    0.0000000000E+00    0.0000000000E+00    0.0000000000E+00
    0.0000000000E+00    0.0000000000E+00    0.0000000000E+00    0.0000000000E+00
    0.0000000000E+00    0.0000000000E+00    0.0000000000E+00    0.0000000000E+00
    0.0000000000E+00    0.0000000000E+00    0.0000000000E+00    0.0000000000E+00
    0.0000000000E+00    0.0000000000E+00    0.0000000000E+00    0.0000000000E+00
    0.0000000000E+00    0.0000000000E+00    0.0000000000E+00    0.0000000000E+00
    0.0000000000E+00    0.0000000000E+00    0.0000000000E+00    0.0000000000E+00
    0.0000000000E+00    0.0000000000E+00    0.0000000000E+00    0.0000000000E+00
    0.0000000000E+00    0.0000000000E+00    0.0000000000E+00    0.0000000000E+00
    0.0000000000E+00    0.0000000000E+00    0.0000000000E+00    0.0000000000E+00
    0.0000000000E+00    0.0000000000E+00    0.0000000000E+00    0.0000000000E+00
    0.0000000000E+00    0.0000000000E+00    0.0000000000E+00    0.0000000000E+00
    0.0000000000E+00    0.0000000000E+00    0.0000000000E+00    0.0000000000E+00
    0.0000000000E+00    0.0000000000E+00    0.0000000000E+00    0.0000000000E+00
    0.0000000000E+00    0.0000000000E+00    0.0000000000E+00    0.0000000000E+00
    0.0000000000E+00    0.0000000000E+00    0.0000000000E+00    0.0000000000E+00
    0.0000000000E+00    0.0000000000E+00    0.0000000000E+00    0.0000000000E+00
    0.0000000000E+00    0.0000000000E+00    0.0000000000E+00    0.0000000000E+00
    0.0000000000E+00    0.0000000000E+00    0.0000000000E+00    0.0000000000E+00
    0.0000000000E+00    0.0000000000E+00    0.0000000000E+00    0.0000000000E+00
    0.0000000000E+00    0.0000000000E+00    0.0000000000E+00    0.0000000000E+00
    0.0000000000E+00    0.0000000000E+00    0.0000000000E+00    0.0000000000E+00
    0.0000000000E+00    0.0000000000E+00    0.0000000000E+00    0.0000000000E+00
    0.0000000000E+00    0.0000000000E+00    0.0000000000E+00    0.0000000000E+00
    0.0000000000E+00    0.0000000000E+00    0.0000000000E+00    0.0000000000E+00
    0.0000000000E+00    0.0000000000E+00    0.0000000000E+00    0.0000000000E+00
    0.0000000000E+00    0.0000000000E+00    0.0000000000E+00    0.0000000000E+00
    0.0000000000E+00    0.0000000000E+00    0.0000000000E+00    0.0000000000E+00
    0.0000000000E+00    0.0000000000E+00    0.0000000000E+00    0.0000000000E+00
    0.0000000000E+00    0.0000000000E+00    0.0000000000E+00    0.0000000000E+00
    0.0000000000E+00    0.0000000000E+00    0.0000000000E+00    0.0000000000E+00
    0.0000000000E+00    0.0000000000E+00    0.0000000000E+00    0.0000000000E+00
    0.0000000000E+00    0.0000000000E+00    0.0000000000E+00    0.0000000000E+00
    0.0000000000E+00    0.0000000000E+00    0.0000000000E+00    0.0000000000E+00
    0.0000000000E+00    0.0000000000E+00    0.0000000000E+00    0.0000000000E+00
    0.0000000000E+00    0.0000000000E+00    0.0000000000E+00    0.0000000000E+00
    0.0000000000E+00    0.0000000000E+00    0.0000000000E+00    0.0000000000E+00
    0.0000000000E+00    0.0000000000E+00    0.0000000000E+00    0.0000000000E+00
    0.0000000000E+00    0.0000000000E+00    0.0000000000E+00    0.0000000000E+00
    0.0000000000E+00    0.0000000000E+00    0.0000000000E+00    0.0000000000E+00
    0.0000000000E+00    0.0000000000E+00    0.0000000000E+00    0.0000000000E+00
    0.0000000000E+00    0.0000000000E+00    0.0000000000E+00    0.0000000000E+00
    0.0000000000E+00    0.0000000000E+00    0.0000000000E+00    0.0000000000E+00
    0.0000000000E+00    0.0000000000E+00    0.0000000000E+00    0.0000000000E+00
    0.0000000000E+00    0.0000000000E+00    0.0000000000E+00    0.0000000000E+00
    0.0000000000E+00    0.0000000000E+00    0.0000000000E+00    0.0000000000E+00
    0.0000000000E+00    0.0000000000E+00    0.0000000000E+00    0.0000000000E+00
    0.0000000000E+00    0.0000000000E+00    0.0000000000E+00    0.0000000000E+00
    0.0000000000E+00    0.0000000000E+00    0.0000000000E+00    0.0000000000E+00
    0.0000000000E+00    0.0000000000E+00    0.0000000000E+00    0.0000000000E+00
    0.0000000000E+00    0.0000000000E+00    0.0000000000E+00    0.0000000000E+00
    0.0000000000E+00    0.0000000000E+00    0.0000000000E+00    0.0000000000E+00
    0.0000000000E+00    0.0000000000E+00    0.0000000000E+00    0.0000000000E+00
    0.0000000000E+00    0.0000000000E+00    0.0000000000E+00    0.0000000000E+00
    0.0000000000E+00    0.0000000000E+00    0.0000000000E+00    0.0000000000E+00
    0.0000000000E+00    0.0000000000E+00    0.0000000000E+00    0.0000000000E+00
    0.0000000000E+00    0.0000000000E+00    0.0000000000E+00    0.0000000000E+00
    0.0000000000E+00    0.0000000000E+00    0.0000000000E+00    0.0000000000E+00
    0.0000000000E+00    0.0000000000E+00    0.0000000000E+00    0.0000000000E+00
    0.0000000000E+00    0.0000000000E+00    0.0000000000E+00    0.0000000000E+00
    0.0000000000E+00    0.0000000000E+00    0.0000000000E+00    0.0000000000E+00
    0.0000000000E+00    0.0000000000E+00    0.0000000000E+00    0.0000000000E+00
    0.0000000000E+00    0.0000000000E+00    0.0000000000E+00    0.0000000000E+00
    0.0000000000E+00    0.0000000000E+00    0.0000000000E+00    0.0000000000E+00
    0.0000000000E+00    0.0000000000E+00    0.0000000000E+00    0.0000000000E+00
    0.0000000000E+00    0.0000000000E+00    0.0000000000E+00    0.0000000000E+00
    0.0000000000E+00    0.0000000000E+00    0.0000000000E+00    0.0000000000E+00
    0.0000000000E+00    0.0000000000E+00    0.0000000000E+00    0.0000000000E+00
    0.0000000000E+00    0.0000000000E+00    0.0000000000E+00    0.0000000000E+00
    0.0000000000E+00    0.0000000000E+00    0.0000000000E+00    0.0000000000E+00
    0.0000000000E+00    0.0000000000E+00    0.0000000000E+00    0.0000000000E+00
    0.0000000000E+00    0.0000000000E+00    0.0000000000E+00    0.0000000000E+00
    0.0000000000E+00    0.0000000000E+00    0.0000000000E+00    0.0000000000E+00
    0.0000000000E+00    0.0000000000E+00    0.0000000000E+00    0.0000000000E+00
    0.0000000000E+00    0.0000000000E+00    0.0000000000E+00    0.0000000000E+00
    0.0000000000E+00    0.0000000000E+00    0.0000000000E+00    0.0000000000E+00
    0.0000000000E+00    0.0000000000E+00    0.0000000000E+00    0.0000000000E+00
    0.0000000000E+00    0.0000000000E+00    0.0000000000E+00    0.0000000000E+00
    0.0000000000E+00    0.0000000000E+00    0.0000000000E+00    0.0000000000E+00
    0.0000000000E+00    0.0000000000E+00    0.0000000000E+00    0.0000000000E+00
    0.0000000000E+00    0.0000000000E+00    0.0000000000E+00    0.0000000000E+00
    0.0000000000E+00    0.0000000000E+00    0.0000000000E+00    0.0000000000E+00
    0.0000000000E+00    0.0000000000E+00    0.0000000000E+00    0.0000000000E+00
    0.0000000000E+00    0.0000000000E+00    0.0000000000E+00    0.0000000000E+00
    0.0000000000E+00    0.0000000000E+00    0.0000000000E+00    0.0000000000E+00
    0.0000000000E+00    0.0000000000E+00    0.0000000000E+00    0.0000000000E+00
    0.0000000000E+00    0.0000000000E+00    0.0000000000E+00    0.0000000000E+00
    0.0000000000E+00    0.0000000000E+00    0.0000000000E+00    0.0000000000E+00
    0.0000000000E+00    0.0000000000E+00    0.0000000000E+00    0.0000000000E+00
    0.0000000000E+00    0.0000000000E+00    0.0000000000E+00    0.0000000000E+00
    0.0000000000E+00    0.0000000000E+00    0.0000000000E+00    0.0000000000E+00
    0.0000000000E+00    0.0000000000E+00    0.0000000000E+00    0.0000000000E+00
    0.0000000000E+00    0.0000000000E+00    0.0000000000E+00    0.0000000000E+00
    0.0000000000E+00    0.0000000000E+00    0.0000000000E+00    0.0000000000E+00
    0.0000000000E+00    0.0000000000E+00    0.0000000000E+00    0.0000000000E+00
    0.0000000000E+00    0.0000000000E+00    0.0000000000E+00    0.0000000000E+00
    0.0000000000E+00    0.0000000000E+00    0.0000000000E+00    0.0000000000E+00
    0.0000000000E+00    0.0000000000E+00    0.0000000000E+00    0.0000000000E+00
    0.0000000000E+00    0.0000000000E+00    0.0000000000E+00    0.0000000000E+00
    0.0000000000E+00    0.0000000000E+00    0.0000000000E+00    0.0000000000E+00
    0.0000000000E+00    0.0000000000E+00    0.0000000000E+00    0.0000000000E+00
    0.0000000000E+00    0.0000000000E+00    0.0000000000E+00    0.0000000000E+00
    0.0000000000E+00    0.0000000000E+00    0.0000000000E+00    0.0000000000E+00
    0.0000000000E+00    0.0000000000E+00    0.0000000000E+00    0.0000000000E+00
    0.0000000000E+00    0.0000000000E+00    0.0000000000E+00    0.0000000000E+00
    0.0000000000E+00    0.0000000000E+00    0.0000000000E+00    0.0000000000E+00
    0.0000000000E+00    0.0000000000E+00    0.0000000000E+00    0.0000000000E+00
    0.0000000000E+00    0.0000000000E+00    0.0000000000E+00    0.0000000000E+00
    0.0000000000E+00    0.0000000000E+00    0.0000000000E+00    0.0000000000E+00
    0.0000000000E+00    0.0000000000E+00    0.0000000000E+00    0.0000000000E+00
    0.0000000000E+00    0.0000000000E+00    0.0000000000E+00    0.0000000000E+00
    0.0000000000E+00    0.0000000000E+00    0.0000000000E+00    0.0000000000E+00
    0.0000000000E+00    0.0000000000E+00    0.0000000000E+00    0.0000000000E+00
    0.0000000000E+00    0.0000000000E+00    0.0000000000E+00    0.0000000000E+00
    0.0000000000E+00    0.0000000000E+00    0.0000000000E+00    0.0000000000E+00
    0.0000000000E+00    0.0000000000E+00    0.0000000000E+00    0.0000000000E+00
    0.0000000000E+00    0.0000000000E+00    0.0000000000E+00    0.0000000000E+00
    0.0000000000E+00    0.0000000000E+00    0.0000000000E+00    0.0000000000E+00
    0.0000000000E+00    0.0000000000E+00    0.0000000000E+00    0.0000000000E+00
    0.0000000000E+00    0.0000000000E+00    0.0000000000E+00    0.0000000000E+00
    0.0000000000E+00    0.0000000000E+00    0.0000000000E+00    0.0000000000E+00
    0.0000000000E+00    0.0000000000E+00    0.0000000000E+00    0.0000000000E+00
    0.0000000000E+00    0.0000000000E+00    0.0000000000E+00    0.0000000000E+00
    0.0000000000E+00    0.0000000000E+00    0.0000000000E+00    0.0000000000E+00
    0.0000000000E+00    0.0000000000E+00    0.0000000000E+00    0.0000000000E+00
    0.0000000000E+00    0.0000000000E+00    0.0000000000E+00    0.0000000000E+00
    0.0000000000E+00    0.0000000000E+00    0.0000000000E+00    0.0000000000E+00
    0.0000000000E+00    0.0000000000E+00    0.0000000000E+00    0.0000000000E+00
    0.0000000000E+00    0.0000000000E+00    0.0000000000E+00    0.0000000000E+00
    0.0000000000E+00    0.0000000000E+00    0.0000000000E+00    0.0000000000E+00
    0.0000000000E+00    0.0000000000E+00    0.0000000000E+00    0.0000000000E+00
    0.0000000000E+00    0.0000000000E+00    0.0000000000E+00    0.0000000000E+00
    0.0000000000E+00    0.0000000000E+00    0.0000000000E+00    0.0000000000E+00
    0.0000000000E+00    0.0000000000E+00    0.0000000000E+00    0.0000000000E+00
    0.0000000000E+00    0.0000000000E+00    0.0000000000E+00    0.0000000000E+00
    0.0000000000E+00    0.0000000000E+00    0.0000000000E+00    0.0000000000E+00
    0.0000000000E+00    0.0000000000E+00    0.0000000000E+00    0.0000000000E+00
    0.0000000000E+00    0.0000000000E+00    0.0000000000E+00    0.0000000000E+00
    0.0000000000E+00    0.0000000000E+00    0.0000000000E+00    0.0000000000E+00
    0.0000000000E+00    0.0000000000E+00    0.0000000000E+00    0.0000000000E+00
    0.0000000000E+00    0.0000000000E+00    0.0000000000E+00    0.0000000000E+00
    0.0000000000E+00    0.0000000000E+00    0.0000000000E+00    0.0000000000E+00
    0.0000000000E+00    0.0000000000E+00    0.0000000000E+00    0.0000000000E+00
    0.0000000000E+00    0.0000000000E+00    0.0000000000E+00    0.0000000000E+00
    0.0000000000E+00    0.0000000000E+00    0.0000000000E+00    0.0000000000E+00
    0.0000000000E+00    0.0000000000E+00    0.0000000000E+00    0.0000000000E+00
    0.0000000000E+00    0.0000000000E+00    0.0000000000E+00    0.0000000000E+00
    0.0000000000E+00    0.0000000000E+00    0.0000000000E+00    0.0000000000E+00
    0.0000000000E+00    0.0000000000E+00    0.0000000000E+00    0.0000000000E+00
    0.0000000000E+00    0.0000000000E+00    0.0000000000E+00    0.0000000000E+00
    0.0000000000E+00    0.0000000000E+00    0.0000000000E+00    0.0000000000E+00
    0.0000000000E+00    0.0000000000E+00    0.0000000000E+00    0.0000000000E+00
    0.0000000000E+00    0.0000000000E+00    0.0000000000E+00    0.0000000000E+00
    0.0000000000E+00    0.0000000000E+00    0.0000000000E+00    0.0000000000E+00
    0.0000000000E+00    0.0000000000E+00    0.0000000000E+00    0.0000000000E+00
    0.0000000000E+00    0.0000000000E+00    0.0000000000E+00    0.0000000000E+00
    0.0000000000E+00    0.0000000000E+00    0.0000000000E+00    0.0000000000E+00
    0.0000000000E+00    0.0000000000E+00    0.0000000000E+00    0.0000000000E+00
    0.0000000000E+00    0.0000000000E+00    0.0000000000E+00    0.0000000000E+00
    0.0000000000E+00    0.0000000000E+00    0.0000000000E+00    0.0000000000E+00
    0.0000000000E+00    0.0000000000E+00    0.0000000000E+00    0.0000000000E+00
    0.0000000000E+00    0.0000000000E+00    0.0000000000E+00    0.0000000000E+00
    0.0000000000E+00    0.0000000000E+00    0.0000000000E+00    0.0000000000E+00
    0.0000000000E+00    0.0000000000E+00    0.0000000000E+00    0.0000000000E+00
    0.0000000000E+00    0.0000000000E+00    0.0000000000E+00    0.0000000000E+00
    0.0000000000E+00    0.0000000000E+00    0.0000000000E+00    0.0000000000E+00
    0.0000000000E+00    0.0000000000E+00    0.0000000000E+00    0.0000000000E+00
    0.0000000000E+00    0.0000000000E+00    0.0000000000E+00    0.0000000000E+00
    0.0000000000E+00    0.0000000000E+00    0.0000000000E+00    0.0000000000E+00
    0.0000000000E+00    0.0000000000E+00    0.0000000000E+00    0.0000000000E+00
    0.0000000000E+00    0.0000000000E+00    0.0000000000E+00    0.0000000000E+00
    0.0000000000E+00    0.0000000000E+00    0.0000000000E+00    0.0000000000E+00
    0.0000000000E+00    0.0000000000E+00    0.0000000000E+00    0.0000000000E+00
    0.0000000000E+00    0.0000000000E+00    0.0000000000E+00    0.0000000000E+00
    0.0000000000E+00    0.0000000000E+00    0.0000000000E+00    0.0000000000E+00
    0.0000000000E+00    0.0000000000E+00    0.0000000000E+00    0.0000000000E+00
    0.0000000000E+00    0.0000000000E+00    0.0000000000E+00    0.0000000000E+00
    0.0000000000E+00    0.0000000000E+00    0.0000000000E+00    0.0000000000E+00
    0.0000000000E+00    0.0000000000E+00    0.0000000000E+00    0.0000000000E+00
    0.0000000000E+00    0.0000000000E+00    0.0000000000E+00    0.0000000000E+00
    0.0000000000E+00    0.0000000000E+00    0.0000000000E+00    0.0000000000E+00
    0.0000000000E+00    0.0000000000E+00    0.0000000000E+00    0.0000000000E+00
    0.0000000000E+00    0.0000000000E+00    0.0000000000E+00    0.0000000000E+00
    0.0000000000E+00    0.0000000000E+00    0.0000000000E+00    0.0000000000E+00
    0.0000000000E+00    0.0000000000E+00    0.0000000000E+00    0.0000000000E+00
    0.0000000000E+00    0.0000000000E+00    0.0000000000E+00    0.0000000000E+00
    0.0000000000E+00    0.0000000000E+00    0.0000000000E+00    0.0000000000E+00
    0.0000000000E+00    0.0000000000E+00    0.0000000000E+00    0.0000000000E+00
    0.0000000000E+00    0.0000000000E+00    0.0000000000E+00    0.0000000000E+00
    0.0000000000E+00    0.0000000000E+00    0.0000000000E+00    0.0000000000E+00
    0.0000000000E+00    0.0000000000E+00    0.0000000000E+00    0.0000000000E+00
    0.0000000000E+00    0.0000000000E+00    0.0000000000E+00    0.0000000000E+00
    0.0000000000E+00    0.0000000000E+00    0.0000000000E+00    0.0000000000E+00
    0.0000000000E+00    0.0000000000E+00    0.0000000000E+00    0.0000000000E+00
    0.0000000000E+00    0.0000000000E+00    0.0000000000E+00    0.0000000000E+00
    0.0000000000E+00    0.0000000000E+00    0.0000000000E+00    0.0000000000E+00
    0.0000000000E+00    0.0000000000E+00    0.0000000000E+00    0.0000000000E+00
    0.0000000000E+00    0.0000000000E+00    0.0000000000E+00    0.0000000000E+00
    0.0000000000E+00    0.0000000000E+00    0.0000000000E+00    0.0000000000E+00
    0.0000000000E+00    0.0000000000E+00    0.0000000000E+00    0.0000000000E+00
    0.0000000000E+00    0.0000000000E+00    0.0000000000E+00    0.0000000000E+00
    0.0000000000E+00    0.0000000000E+00    0.0000000000E+00    0.0000000000E+00
    0.0000000000E+00    0.0000000000E+00    0.0000000000E+00    0.0000000000E+00
    0.0000000000E+00    0.0000000000E+00    0.0000000000E+00    0.0000000000E+00
    0.0000000000E+00    0.0000000000E+00    0.0000000000E+00    0.0000000000E+00
    0.0000000000E+00    0.0000000000E+00    0.0000000000E+00    0.0000000000E+00
    0.0000000000E+00    0.0000000000E+00    0.0000000000E+00    0.0000000000E+00
    0.0000000000E+00    0.0000000000E+00    0.0000000000E+00    0.0000000000E+00
    0.0000000000E+00    0.0000000000E+00    0.0000000000E+00    0.0000000000E+00
    0.0000000000E+00    0.0000000000E+00    0.0000000000E+00    0.0000000000E+00
    0.0000000000E+00    0.0000000000E+00    0.0000000000E+00    0.0000000000E+00
    0.0000000000E+00    0.0000000000E+00    0.0000000000E+00    0.0000000000E+00
    0.0000000000E+00    0.0000000000E+00    0.0000000000E+00    0.0000000000E+00
    0.0000000000E+00    0.0000000000E+00    0.0000000000E+00    0.0000000000E+00
    0.0000000000E+00    0.0000000000E+00    0.0000000000E+00    0.0000000000E+00
 </PP_NLCC>
 <PP_RHOATOM type="real"  size="1636" columns="4">
    0.0000000000E+00    6.7742928433E-05    2.8822690258E-04    7.1328030193E-04
    1.4294873680E-03    2.5584736038E-03    4.2572659162E-03    6.7186894996E-03
    1.0171754577E-02    1.4881978653E-02    2.1151584107E-02    2.9319507020E-02
    3.9761151105E-02    5.2887820802E-02    6.9145769796E-02    8.9014805627E-02
    1.1300639748E-01    1.4166124263E-01    1.7554625698E-01    2.1525096706E-01
    2.6138329333E-01    3.1456472883E-01    3.7542493157E-01    4.4459576358E-01
    5.2270482468E-01    6.1036854262E-01    7.0818489523E-01    8.1672585189E-01
    9.3652963287E-01    1.0680928937E+00    1.2118629490E+00    1.3682301547E+00
    1.5375205704E+00    1.7199890232E+00    1.9158126918E+00    2.1250853258E+00
    2.3478122052E+00    2.5839059393E+00    2.8331831890E+00    3.0953623853E+00
    3.3700625005E+00    3.6568029140E+00    3.9550043953E+00    4.2639912121E+00
    4.5829943497E+00    4.9111558151E+00    5.2475339773E+00    5.5911098840E+00
    5.9407944750E+00    6.2954366036E+00    6.6538317632E+00    7.0147314057E+00
    7.3768527346E+00    7.7388888441E+00    8.0995190781E+00    8.4574194782E+00
    8.8112731926E+00    9.1597807191E+00    9.5016698647E+00    9.8357053050E+00
    1.0160697643E+01    1.0475511868E+01    1.0779075135E+01    1.1070383793E+01
    1.1348509600E+01    1.1612605080E+01    1.1861907997E+01    1.2095744914E+01
    1.2313533839E+01    1.2514785960E+01    1.2699106489E+01    1.2866194641E+01
    1.3015842778E+01    1.3147934778E+01    1.3262443669E+01    1.3359428594E+01
    1.3439031165E+01    1.3501471282E+01    1.3547042476E+01    1.3576106858E+01
    1.3589089736E+01    1.3586473981E+01    1.3568794199E+01    1.3536630785E+01
    1.3490603925E+01    1.3431367590E+01    1.3359603602E+01    1.3276015802E+01
    1.3181324377E+01    1.3076260388E+01    1.2961560533E+01    1.2837962178E+01
    1.2706198678E+01    1.2566995022E+01    1.2421063803E+01    1.2269101538E+01
    1.2111785339E+01    1.1949769944E+01    1.1783685108E+01    1.1614133342E+01
    1.1441688016E+01    1.1266891787E+01    1.1090255373E+01    1.0912256633E+01
    1.0733339960E+01    1.0553915948E+01    1.0374361334E+01    1.0195019150E+01
    1.0016199175E+01    9.8381786109E+00    9.6612029511E+00    9.4854872709E+00
    9.3112204424E+00    9.1385709526E+00    8.9676884844E+00    8.7987050599E+00
    8.6317361997E+00    8.4668820527E+00    8.3042285054E+00    8.1438482675E+00
    7.9858019307E+00    7.8301389959E+00    7.6768988675E+00    7.5261118114E+00
    7.3777998749E+00    7.2319777665E+00    7.0886536947E+00    6.9478301634E+00
    6.8095047233E+00    6.6736706783E+00    6.5403177464E+00    6.4094326729E+00
    6.2809997984E+00    6.1550015771E+00    6.0314190499E+00    5.9102322681E+00
    5.7914206722E+00    5.6749634213E+00    5.5608396749E+00    5.4490288298E+00
    5.3395107107E+00    5.2322657285E+00    5.1272746534E+00    5.0245171598E+00
    4.9239710229E+00    4.8256122919E+00    4.7294154504E+00    4.6353535741E+00
    4.5433984799E+00    4.4535208661E+00    4.3656904429E+00    4.2798760561E+00
    4.1960458024E+00    4.1141671375E+00    4.0342069766E+00    3.9561317895E+00
    3.8799076875E+00    3.8055005061E+00    3.7328758805E+00    3.6619993165E+00
    3.5928362559E+00    3.5253521371E+00    3.4595124511E+00    3.3952827927E+00
    3.3326289085E+00    3.2715167399E+00    3.2119124632E+00    3.1537825261E+00
    3.0970936802E+00    3.0418130120E+00    2.9879079690E+00    2.9353463850E+00
    2.8840965014E+00    2.8341269868E+00    2.7854069545E+00    2.7379059776E+00
    2.6915941019E+00    2.6464418578E+00    2.6024202693E+00    2.5595008630E+00
    2.5176556738E+00    2.4768572508E+00    2.4370786611E+00    2.3982934924E+00
    2.3604758552E+00    2.3236003828E+00    2.2876422318E+00    2.2525770805E+00
    2.2183811275E+00    2.1850310886E+00    2.1525041940E+00    2.1207781844E+00
    2.0898313062E+00    2.0596423074E+00    2.0301904315E+00    2.0014554124E+00
    1.9734174678E+00    1.9460572934E+00    1.9193560556E+00    1.8932953851E+00
    1.8678573695E+00    1.8430245459E+00    1.8187798937E+00    1.7951068267E+00
    1.7719891858E+00    1.7494112305E+00    1.7273576316E+00    1.7058134634E+00
    1.6847641949E+00    1.6641956829E+00    1.6440941633E+00    1.6244462433E+00
    1.6052388938E+00    1.5864594411E+00    1.5680955594E+00    1.5501352627E+00
    1.5325668975E+00    1.5153791345E+00    1.4985609621E+00    1.4821016777E+00
    1.4659908813E+00    1.4502184679E+00    1.4347746200E+00    1.4196498010E+00
    1.4048347481E+00    1.3903204654E+00    1.3760982170E+00    1.3621595209E+00
    1.3484961418E+00    1.3351000853E+00    1.3219635915E+00    1.3090791286E+00
    1.2964393871E+00    1.2840372739E+00    1.2718659066E+00    1.2599186075E+00
    1.2481888986E+00    1.2366704955E+00    1.2253573028E+00    1.2142434085E+00
    1.2033230790E+00    1.1925907543E+00    1.1820410428E+00    1.1716687171E+00
    1.1614687091E+00    1.1514361054E+00    1.1415661431E+00    1.1318542054E+00
    1.1222958177E+00    1.1128866429E+00    1.1036224783E+00    1.0944992509E+00
    1.0855130142E+00    1.0766599442E+00    1.0679363359E+00    1.0593385999E+00
    1.0508632590E+00    1.0425069448E+00    1.0342663945E+00    1.0261384476E+00
    1.0181200434E+00    1.0102082174E+00    1.0024000987E+00    9.9469290722E-01
    9.8708395096E-01    9.7957062322E-01    9.7215040010E-01    9.6482083800E-01
    9.5757957117E-01    9.5042430930E-01    9.4335283527E-01    9.3636300287E-01
    9.2945273463E-01    9.2262001971E-01    9.1586291185E-01    9.0917952734E-01
    9.0256804314E-01    8.9602669494E-01    8.8955377538E-01    8.8314763224E-01
    8.7680666671E-01    8.7052933177E-01    8.6431413050E-01    8.5815961456E-01
    8.5206438262E-01    8.4602707891E-01    8.4004639173E-01    8.3412105211E-01
    8.2824983242E-01    8.2243154507E-01    8.1666504122E-01    8.1094920954E-01
    8.0528297505E-01    7.9966529789E-01    7.9409517224E-01    7.8857162522E-01
    7.8309371581E-01    7.7766053382E-01    7.7227119894E-01    7.6692485969E-01
    7.6162069256E-01    7.5635790105E-01    7.5113571482E-01    7.4595338880E-01
    7.4081020241E-01    7.3570545873E-01    7.3063848371E-01    7.2560862545E-01
    7.2061525343E-01    7.1565775785E-01    7.1073554889E-01    7.0584805610E-01
    7.0099472773E-01    6.9617503008E-01    6.9138844697E-01    6.8663447906E-01
    6.8191264338E-01    6.7722247270E-01    6.7256351505E-01    6.6793533319E-01
    6.6333750409E-01    6.5876961850E-01    6.5423128042E-01    6.4972210669E-01
    6.4524172654E-01    6.4078978116E-01    6.3636592330E-01    6.3196981687E-01
    6.2760113653E-01    6.2325956735E-01    6.1894480446E-01    6.1465655263E-01
    6.1039452602E-01    6.0615844780E-01    6.0194804984E-01    5.9776307242E-01
    5.9360326390E-01    5.8946838048E-01    5.8535818589E-01    5.8127245111E-01
    5.7721095416E-01    5.7317347980E-01    5.6915981929E-01    5.6516977019E-01
    5.6120313609E-01    5.5725972642E-01    5.5333935622E-01    5.4944184594E-01
    5.4556702124E-01    5.4171471279E-01    5.3788475610E-01    5.3407699132E-01
    5.3029126307E-01    5.2652742028E-01    5.2278531603E-01    5.1906480736E-01
    5.1536575517E-01    5.1168802401E-01    5.0803148200E-01    5.0439600065E-01
    5.0078145473E-01    4.9718772216E-01    4.9361468388E-01    4.9006222371E-01
    4.8653022826E-01    4.8301858680E-01    4.7952719115E-01    4.7605593560E-01
    4.7260471677E-01    4.6917343355E-01    4.6576198698E-01    4.6237028016E-01
    4.5899821817E-01    4.5564570800E-01    4.5231265843E-01    4.4899897996E-01
    4.4570458478E-01    4.4242938663E-01    4.3917330077E-01    4.3593624389E-01
    4.3271813405E-01    4.2951889064E-01    4.2633843427E-01    4.2317668675E-01
    4.2003357101E-01    4.1690901106E-01    4.1380293191E-01    4.1071525957E-01
    4.0764592093E-01    4.0459484378E-01    4.0156195671E-01    3.9854718909E-01
    3.9555047103E-01    3.9257173334E-01    3.8961090748E-01    3.8666792551E-01
    3.8374272008E-01    3.8083522438E-01    3.7794537211E-01    3.7507309744E-01
    3.7221833500E-01    3.6938101980E-01    3.6656108727E-01    3.6375847317E-01
    3.6097311361E-01    3.5820494499E-01    3.5545390398E-01    3.5271992752E-01
    3.5000295279E-01    3.4730291716E-01    3.4461975820E-01    3.4195341364E-01
    3.3930382138E-01    3.3667091943E-01    3.3405464594E-01    3.3145493913E-01
    3.2887173733E-01    3.2630497891E-01    3.2375460232E-01    3.2122054604E-01
    3.1870274857E-01    3.1620114843E-01    3.1371568415E-01    3.1124629424E-01
    3.0879291719E-01    3.0635549148E-01    3.0393395553E-01    3.0152824775E-01
    2.9913830645E-01    2.9676406991E-01    2.9440547633E-01    2.9206246385E-01
    2.8973497049E-01    2.8742293423E-01    2.8512629294E-01    2.8284498438E-01
    2.8057894622E-01    2.7832811602E-01    2.7609243126E-01    2.7387182925E-01
    2.7166624725E-01    2.6947562236E-01    2.6729989158E-01    2.6513899177E-01
    2.6299285969E-01    2.6086143198E-01    2.5874464512E-01    2.5664243551E-01
    2.5455473939E-01    2.5248149290E-01    2.5042263204E-01    2.4837809270E-01
    2.4634781063E-01    2.4433172147E-01    2.4232976073E-01    2.4034186382E-01
    2.3836796601E-01    2.3640800247E-01    2.3446190824E-01    2.3252961827E-01
    2.3061106739E-01    2.2870619032E-01    2.2681492169E-01    2.2493719601E-01
    2.2307294771E-01    2.2122211112E-01    2.1938462049E-01    2.1756040996E-01
    2.1574941360E-01    2.1395156541E-01    2.1216679930E-01    2.1039504911E-01
    2.0863624863E-01    2.0689033156E-01    2.0515723155E-01    2.0343688222E-01
    2.0172921709E-01    2.0003416969E-01    1.9835167348E-01    1.9668166186E-01
    1.9502406826E-01    1.9337882602E-01    1.9174586849E-01    1.9012512900E-01
    1.8851654088E-01    1.8692003741E-01    1.8533555191E-01    1.8376301768E-01
    1.8220236805E-01    1.8065353632E-01    1.7911645585E-01    1.7759106001E-01
    1.7607728217E-01    1.7457505578E-01    1.7308431428E-01    1.7160499119E-01
    1.7013702006E-01    1.6868033448E-01    1.6723486812E-01    1.6580055471E-01
    1.6437732803E-01    1.6296512195E-01    1.6156387040E-01    1.6017350740E-01
    1.5879396707E-01    1.5742518360E-01    1.5606709129E-01    1.5471962453E-01
    1.5338271782E-01    1.5205630579E-01    1.5074032314E-01    1.4943470474E-01
    1.4813938554E-01    1.4685430066E-01    1.4557938531E-01    1.4431457488E-01
    1.4305980486E-01    1.4181501092E-01    1.4058012886E-01    1.3935509464E-01
    1.3813984438E-01    1.3693431437E-01    1.3573844103E-01    1.3455216101E-01
    1.3337541107E-01    1.3220812820E-01    1.3105024954E-01    1.2990171243E-01
    1.2876245439E-01    1.2763241313E-01    1.2651152657E-01    1.2539973282E-01
    1.2429697019E-01    1.2320317720E-01    1.2211829258E-01    1.2104225525E-01
    1.1997500439E-01    1.1891647936E-01    1.1786661974E-01    1.1682536537E-01
    1.1579265628E-01    1.1476843274E-01    1.1375263526E-01    1.1274520457E-01
    1.1174608165E-01    1.1075520772E-01    1.0977252423E-01    1.0879797287E-01
    1.0783149561E-01    1.0687303462E-01    1.0592253236E-01    1.0497993152E-01
    1.0404517506E-01    1.0311820618E-01    1.0219896836E-01    1.0128740530E-01
    1.0038346102E-01    9.9487079750E-02    9.8598206015E-02    9.7716784597E-02
    9.6842760546E-02    9.5976079183E-02    9.5116686100E-02    9.4264527158E-02
    9.3419548495E-02    9.2581696520E-02    9.1750917919E-02    9.0927159655E-02
    9.0110368967E-02    8.9300493373E-02    8.8497480670E-02    8.7701278935E-02
    8.6911836528E-02    8.6129102087E-02    8.5353024534E-02    8.4583553074E-02
    8.3820637195E-02    8.3064226668E-02    8.2314271551E-02    8.1570722184E-02
    8.0833529192E-02    8.0102643489E-02    7.9378016269E-02    7.8659599018E-02
    7.7947343504E-02    7.7241201781E-02    7.6541126193E-02    7.5847069367E-02
    7.5158984217E-02    7.4476823944E-02    7.3800542035E-02    7.3130092264E-02
    7.2465428688E-02    7.1806505654E-02    7.1153277792E-02    7.0505700017E-02
    6.9863727530E-02    6.9227315818E-02    6.8596420648E-02    6.7970998076E-02
    6.7351004439E-02    6.6736396355E-02    6.6127130729E-02    6.5523164745E-02
    6.4924455868E-02    6.4330961846E-02    6.3742640706E-02    6.3159450754E-02
    6.2581350576E-02    6.2008299036E-02    6.1440255274E-02    6.0877178710E-02
    6.0319029036E-02    5.9765766222E-02    5.9217350512E-02    5.8673742422E-02
    5.8134902742E-02    5.7600792533E-02    5.7071373128E-02    5.6546606129E-02
    5.6026453407E-02    5.5510877100E-02    5.4999839617E-02    5.4493303628E-02
    5.3991232071E-02    5.3493588148E-02    5.3000335323E-02    5.2511437321E-02
    5.2026858131E-02    5.1546561999E-02    5.1070513430E-02    5.0598677187E-02
    5.0131018290E-02    4.9667502013E-02    4.9208093884E-02    4.8752759686E-02
    4.8301465451E-02    4.7854177463E-02    4.7410862256E-02    4.6971486610E-02
    4.6536017554E-02    4.6104422361E-02    4.5676668551E-02    4.5252723884E-02
    4.4832556363E-02    4.4416134234E-02    4.4003425980E-02    4.3594400323E-02
    4.3189026221E-02    4.2787272869E-02    4.2389109696E-02    4.1994506363E-02
    4.1603432764E-02    4.1215859023E-02    4.0831755493E-02    4.0451092754E-02
    4.0073841616E-02    3.9699973109E-02    3.9329458491E-02    3.8962269241E-02
    3.8598377060E-02    3.8237753867E-02    3.7880371802E-02    3.7526203222E-02
    3.7175220698E-02    3.6827397017E-02    3.6482705181E-02    3.6141118401E-02
    3.5802610099E-02    3.5467153909E-02    3.5134723671E-02    3.4805293431E-02
    3.4478837443E-02    3.4155330162E-02    3.3834746248E-02    3.3517060562E-02
    3.3202248163E-02    3.2890284312E-02    3.2581144466E-02    3.2274804277E-02
    3.1971239593E-02    3.1670426457E-02    3.1372341101E-02    3.1076959951E-02
    3.0784259621E-02    3.0494216913E-02    3.0206808817E-02    2.9922012509E-02
    2.9639805348E-02    2.9360164878E-02    2.9083068825E-02    2.8808495093E-02
    2.8536421768E-02    2.8266827113E-02    2.7999689569E-02    2.7734987752E-02
    2.7472700451E-02    2.7212806631E-02    2.6955285426E-02    2.6700116143E-02
    2.6447278256E-02    2.6196751410E-02    2.5948515414E-02    2.5702550247E-02
    2.5458836047E-02    2.5217353121E-02    2.4978081933E-02    2.4741003113E-02
    2.4506097446E-02    2.4273345880E-02    2.4042729517E-02    2.3814229617E-02
    2.3587827594E-02    2.3363505018E-02    2.3141243610E-02    2.2921025243E-02
    2.2702831942E-02    2.2486645878E-02    2.2272449373E-02    2.2060224896E-02
    2.1849955061E-02    2.1641622628E-02    2.1435210501E-02    2.1230701724E-02
    2.1028079486E-02    2.0827327115E-02    2.0628428078E-02    2.0431365982E-02
    2.0236124569E-02    2.0042687721E-02    1.9851039450E-02    1.9661163908E-02
    1.9473045375E-02    1.9286668267E-02    1.9102017128E-02    1.8919076634E-02
    1.8737831590E-02    1.8558266928E-02    1.8380367709E-02    1.8204119117E-02
    1.8029506464E-02    1.7856515184E-02    1.7685130836E-02    1.7515339099E-02
    1.7347125776E-02    1.7180476786E-02    1.7015378173E-02    1.6851816094E-02
    1.6689776826E-02    1.6529246762E-02    1.6370212412E-02    1.6212660397E-02
    1.6056577456E-02    1.5901950437E-02    1.5748766303E-02    1.5597012126E-02
    1.5446675090E-02    1.5297742486E-02    1.5150201715E-02    1.5004040284E-02
    1.4859245810E-02    1.4715806011E-02    1.4573708714E-02    1.4432941848E-02
    1.4293493446E-02    1.4155351643E-02    1.4018504676E-02    1.3882940883E-02
    1.3748648702E-02    1.3615616669E-02    1.3483833420E-02    1.3353287687E-02
    1.3223968301E-02    1.3095864186E-02    1.2968964363E-02    1.2843257949E-02
    1.2718734151E-02    1.2595382273E-02    1.2473191707E-02    1.2352151940E-02
    1.2232252547E-02    1.2113483196E-02    1.1995833641E-02    1.1879293726E-02
    1.1763853383E-02    1.1649502630E-02    1.1536231573E-02    1.1424030403E-02
    1.1312889394E-02    1.1202798906E-02    1.1093749384E-02    1.0985731353E-02
    1.0878735421E-02    1.0772752279E-02    1.0667772697E-02    1.0563787527E-02
    1.0460787698E-02    1.0358764220E-02    1.0257708180E-02    1.0157610744E-02
    1.0058463153E-02    9.9602567263E-03    9.8629828574E-03    9.7666330154E-03
    9.6711987436E-03    9.5766716595E-03    9.4830434535E-03    9.3903058886E-03
    9.2984508000E-03    9.2074700940E-03    9.1173557479E-03    9.0280998093E-03
    8.9396943954E-03    8.8521316922E-03    8.7654039546E-03    8.6795035052E-03
    8.5944227338E-03    8.5101540975E-03    8.4266901191E-03    8.3440233875E-03
    8.2621465564E-03    8.1810523445E-03    8.1007335343E-03    8.0211829718E-03
    7.9423935663E-03    7.8643582892E-03    7.7870701743E-03    7.7105223163E-03
    7.6347078714E-03    7.5596200558E-03    7.4852521458E-03    7.4115974772E-03
    7.3386494445E-03    7.2664015007E-03    7.1948471569E-03    7.1239799816E-03
    7.0537936000E-03    6.9842816942E-03    6.9154380019E-03    6.8472563168E-03
    6.7797304874E-03    6.7128544168E-03    6.6466220624E-03    6.5810274353E-03
    6.5160645998E-03    6.4517276729E-03    6.3880108243E-03    6.3249082752E-03
    6.2624142986E-03    6.2005232184E-03    6.1392294093E-03    6.0785272959E-03
    6.0184113528E-03    5.9588761039E-03    5.8999161220E-03    5.8415260284E-03
    5.7837004927E-03    5.7264342318E-03    5.6697220104E-03    5.6135586396E-03
    5.5579389775E-03    5.5028579279E-03    5.4483104404E-03    5.3942915102E-03
    5.3407961771E-03    5.2878195256E-03    5.2353566844E-03    5.1834028260E-03
    5.1319531663E-03    5.0810029643E-03    5.0305475217E-03    4.9805821825E-03
    4.9311023326E-03    4.8821033997E-03    4.8335808527E-03    4.7855302012E-03
    4.7379469957E-03    4.6908268266E-03    4.6441653244E-03    4.5979581590E-03
    4.5522010395E-03    4.5068897139E-03    4.4620199686E-03    4.4175876284E-03
    4.3735885557E-03    4.3300186507E-03    4.2868738506E-03    4.2441501296E-03
    4.2018434985E-03    4.1599500043E-03    4.1184657299E-03    4.0773867940E-03
    4.0367093505E-03    3.9964295884E-03    3.9565437314E-03    3.9170480376E-03
    3.8779387993E-03    3.8392123426E-03    3.8008650271E-03    3.7628932457E-03
    3.7252934242E-03    3.6880620212E-03    3.6511955276E-03    3.6146904665E-03
    3.5785433927E-03    3.5427508927E-03    3.5073095842E-03    3.4722161160E-03
    3.4374671676E-03    3.4030594489E-03    3.3689897001E-03    3.3352546913E-03
    3.3018512224E-03    3.2687761226E-03    3.2360262504E-03    3.2035984930E-03
    3.1714897666E-03    3.1396970154E-03    3.1082172122E-03    3.0770473575E-03
    3.0461844794E-03    3.0156256335E-03    2.9853679028E-03    2.9554083969E-03
    2.9257442524E-03    2.8963726322E-03    2.8672907256E-03    2.8384957479E-03
    2.8099849400E-03    2.7817555687E-03    2.7538049259E-03    2.7261303286E-03
    2.6987291189E-03    2.6715986633E-03    2.6447363530E-03    2.6181396033E-03
    2.5918058537E-03    2.5657325673E-03    2.5399172310E-03    2.5143573549E-03
    2.4890504724E-03    2.4639941399E-03    2.4391859366E-03    2.4146234643E-03
    2.3903043470E-03    2.3662262310E-03    2.3423867846E-03    2.3187836980E-03
    2.2954146827E-03    2.2722774719E-03    2.2493698197E-03    2.2266895016E-03
    2.2042343137E-03    2.1820020726E-03    2.1599906158E-03    2.1381978007E-03
    2.1166215050E-03    2.0952596262E-03    2.0741100816E-03    2.0531708081E-03
    2.0324397619E-03    2.0119149185E-03    1.9915942725E-03    1.9714758372E-03
    1.9515576447E-03    1.9318377456E-03    1.9123142091E-03    1.8929851221E-03
    1.8738485901E-03    1.8549027362E-03    1.8361457012E-03    1.8175756434E-03
    1.7991907388E-03    1.7809891803E-03    1.7629691781E-03    1.7451289592E-03
    1.7274667675E-03    1.7099808635E-03    1.6926695242E-03    1.6755310427E-03
    1.6585637286E-03    1.6417659074E-03    1.6251359203E-03    1.6086721247E-03
    1.5923728931E-03    1.5762366138E-03    1.5602616903E-03    1.5444465413E-03
    1.5287896004E-03    1.5132893164E-03    1.4979441525E-03    1.4827525869E-03
    1.4677131121E-03    1.4528242350E-03    1.4380844767E-03    1.4234923724E-03
    1.4090464714E-03    1.3947453368E-03    1.3805875453E-03    1.3665716874E-03
    1.3526963669E-03    1.3389602010E-03    1.3253618201E-03    1.3118998679E-03
    1.2985730009E-03    1.2853798884E-03    1.2723192126E-03    1.2593896682E-03
    1.2465899627E-03    1.2339188156E-03    1.2213749589E-03    1.2089571369E-03
    1.1966641056E-03    1.1844946334E-03    1.1724475000E-03    1.1605214974E-03
    1.1487154288E-03    1.1370281090E-03    1.1254583644E-03    1.1140050326E-03
    1.1026669622E-03    1.0914430131E-03    1.0803320562E-03    1.0693329732E-03
    1.0584446567E-03    1.0476660098E-03    1.0369959462E-03    1.0264333904E-03
    1.0159772770E-03    1.0056265509E-03    9.9538016732E-04    9.8523709151E-04
    9.7519629875E-04    9.6525677425E-04    9.5541751302E-04    9.4567751981E-04
    9.3603580902E-04    9.2649140459E-04    9.1704333993E-04    9.0769065783E-04
    8.9843241034E-04    8.8926765873E-04    8.8019547339E-04    8.7121493371E-04
    8.6232512806E-04    8.5352515362E-04    8.4481411640E-04    8.3619113107E-04
    8.2765532091E-04    8.1920581775E-04    8.1084176186E-04    8.0256230189E-04
    7.9436659475E-04    7.8625380562E-04    7.7822310777E-04    7.7027368255E-04
    7.6240471929E-04    7.5461541523E-04    7.4690497545E-04    7.3927261279E-04
    7.3171754776E-04    7.2423900851E-04    7.1683623071E-04    7.0950845752E-04
    7.0225493949E-04    6.9507493450E-04    6.8796770769E-04    6.8093253140E-04
    6.7396868510E-04    6.6707545529E-04    6.6025213548E-04    6.5349802611E-04
    6.4681243446E-04    6.4019467461E-04    6.3364406736E-04    6.2715994019E-04
    6.2074162717E-04    6.1438846891E-04    6.0809981249E-04    6.0187501141E-04
    5.9571342552E-04    5.8961442096E-04    5.8357737010E-04    5.7760165150E-04
    5.7168664981E-04    5.6583175575E-04    5.6003636604E-04    5.5429988331E-04
    5.4862171612E-04    5.4300127882E-04    5.3743799154E-04    5.3193128015E-04
    5.2648057614E-04    5.2108531663E-04    5.1574494430E-04    5.1045890732E-04
    5.0522665930E-04    5.0004765926E-04    4.9492137155E-04    4.8984726583E-04
    4.8482481697E-04    4.7985350505E-04    4.7493281531E-04    4.7006223804E-04
    4.6524126860E-04    4.6046940733E-04    4.5574615953E-04    4.5107103538E-04
    4.4644354993E-04    4.4186322301E-04    4.3732957923E-04    4.3284214790E-04
    4.2840046300E-04    4.2400406313E-04    4.1965249146E-04    4.1534529570E-04
    4.1108202804E-04    4.0686224513E-04    4.0268550801E-04    3.9855138208E-04
    3.9445943706E-04    3.9040924694E-04    3.8640038995E-04    3.8243244851E-04
    3.7850500918E-04    3.7461766267E-04    3.7077000371E-04    3.6696163110E-04
    3.6319214762E-04    3.5946116001E-04    3.5576827891E-04    3.5211311885E-04
    3.4849529821E-04    3.4491443915E-04    3.4137016761E-04    3.3786211327E-04
    3.3438990947E-04    3.3095319323E-04    3.2755160520E-04    3.2418478959E-04
    3.2085239418E-04    3.1755407025E-04    3.1428947259E-04    3.1105825940E-04
    3.0786009233E-04    3.0469463639E-04    3.0156155993E-04    2.9846053465E-04
    2.9539123549E-04    2.9235334067E-04    2.8934653162E-04    2.8637049296E-04
    2.8342491246E-04    2.8050948101E-04    2.7762389261E-04    2.7476784432E-04
    2.7194103622E-04    2.6914317142E-04    2.6637395597E-04    2.6363309890E-04
    2.6092031215E-04    2.5823531052E-04    2.5557781170E-04    2.5294753620E-04
    2.5034420734E-04    2.4776755121E-04    2.4521729665E-04    2.4269317523E-04
    2.4019492119E-04    2.3772227147E-04    2.3527496564E-04    2.3285274588E-04
    2.3045535697E-04    2.2808254624E-04    2.2573406358E-04    2.2340966139E-04
    2.2110909454E-04    2.1883212039E-04    2.1657849873E-04    2.1434799176E-04
    2.1214036410E-04    2.0995538270E-04    2.0779281688E-04    2.0565243828E-04
    2.0353402084E-04    2.0143734078E-04    1.9936217657E-04    1.9730830890E-04
    1.9527552069E-04    1.9326359705E-04    1.9127232523E-04    1.8930149465E-04
    1.8735089685E-04    1.8542032546E-04    1.8350957621E-04    1.8161844687E-04
    1.7974673728E-04    1.7789424927E-04    1.7606078668E-04    1.7424615535E-04
    1.7245016306E-04    1.7067261953E-04    1.6891333641E-04    1.6717212726E-04
    1.6544880752E-04    1.6374319448E-04    1.6205510730E-04    1.6038436695E-04
    1.5873079622E-04    1.5709421969E-04    1.5547446373E-04    1.5387135643E-04
    1.5228472765E-04    1.5071440896E-04    1.4916023365E-04    1.4762203667E-04
    1.4609965467E-04    1.4459292594E-04    1.4310169040E-04    1.4162578962E-04
    1.4016506673E-04    1.3871936649E-04    1.3728853523E-04    1.3587242081E-04
    1.3447087265E-04    1.3308374170E-04    1.3171088043E-04    1.3035214277E-04
    1.2900738417E-04    1.2767646153E-04    1.2635923321E-04    1.2505555899E-04
    1.2376530009E-04    1.2248831914E-04    1.2122448015E-04    1.1997364851E-04
    1.1873569101E-04    1.1751047575E-04    1.1629787219E-04    1.1509775113E-04
    1.1390998465E-04    1.1273444616E-04    1.1157101035E-04    1.1041955316E-04
    1.0927995182E-04    1.0815208480E-04    1.0703583180E-04    1.0593107375E-04
    1.0483769278E-04    1.0375557225E-04    1.0268459666E-04    1.0162465173E-04
    1.0057562431E-04    9.9537402418E-05    9.8509875212E-05    9.7492932973E-05
    9.6486467102E-05    9.5490370106E-05    9.4504535586E-05    9.3528858227E-05
    9.2563233788E-05    9.1607559089E-05    9.0661732002E-05    8.9725651439E-05
    8.8799217343E-05    8.7882330678E-05    8.6974893415E-05    8.6076808527E-05
    8.5187979975E-05    8.4308312701E-05    8.3437712615E-05    8.2576086588E-05
    8.1723342440E-05    8.0879388931E-05    8.0044135756E-05    7.9217493526E-05
    7.8399373770E-05    7.7589688915E-05    7.6788352286E-05    7.5995278091E-05
    7.5210381413E-05    7.4433578206E-05    7.3664785279E-05    7.2903920291E-05
    7.2150901745E-05    7.1405648974E-05    7.0668082135E-05    6.9938122204E-05
    6.9215690961E-05    6.8500710987E-05    6.7793105655E-05    6.7092799122E-05
    6.6399716318E-05    6.5713782942E-05    6.5034925454E-05    6.4363071064E-05
    6.3698147728E-05    6.3040084138E-05    6.2388809718E-05    6.1744254609E-05
    6.1106349673E-05    6.0475026476E-05    5.9850217284E-05    5.9231855058E-05
    5.8619873444E-05    5.8014206769E-05    5.7414790030E-05    5.6821558892E-05
    5.6234449677E-05    5.5653399361E-05    5.5078345563E-05    5.4509226543E-05
    5.3945981193E-05    5.3388549031E-05    5.2836870195E-05    5.2290885436E-05
    5.1750536111E-05    5.1215764182E-05    5.0686512201E-05    5.0162723311E-05
    4.9644341240E-05    4.9131310289E-05    4.8623575333E-05    4.8121081810E-05
    4.7623775721E-05    4.7131603617E-05    4.6644512600E-05    4.6162450311E-05
    4.5685364933E-05    4.5213205178E-05    4.4745920284E-05    4.4283460011E-05
    4.3825774635E-05    4.3372814939E-05    4.2924532215E-05    4.2480878257E-05
    4.2041805347E-05    4.1607266258E-05    4.1177214248E-05    4.0751603056E-05
    4.0330386898E-05    3.9913520457E-05    3.9500958885E-05    3.9092657771E-05
    3.8688573199E-05    3.8288661700E-05    3.7892880243E-05    3.7501186238E-05
    3.7113537534E-05    3.6729892410E-05    3.6350209575E-05    3.5974448218E-05
    3.5602567850E-05    3.5234528395E-05    3.4870290215E-05    3.4509814082E-05
    3.4153061170E-05    3.3799993058E-05    3.3450571722E-05    3.3104759415E-05
    3.2762518939E-05    3.2423813561E-05    3.2088606840E-05    3.1756862707E-05
    3.1428545467E-05    3.1103619785E-05    3.0782050686E-05    3.0463803701E-05
    3.0148844602E-05    2.9837139193E-05    2.9528653838E-05    2.9223355243E-05
    2.8921210456E-05    2.8622186868E-05    2.8326252210E-05    2.8034606277E-05
    2.7750375021E-05    2.7468348455E-05    2.7187875333E-05    2.6908423634E-05
    2.6629631444E-05    2.6351350048E-05    2.6073676471E-05    2.5796972718E-05
    2.5481668759E-05    2.5171810351E-05    2.4874662922E-05    2.4595359562E-05
    2.4337970505E-05    2.4105058512E-05    2.3897270141E-05    2.3712979295E-05
    2.3635684554E-05    2.3605576609E-05    2.3553852294E-05    2.3454991731E-05
    2.3283905433E-05    2.3017292787E-05    2.2634980695E-05    2.2121201828E-05
    2.1392577477E-05    2.0369957231E-05    1.9238981601E-05    1.8035199344E-05
    1.6797985869E-05    1.5568709504E-05    1.4388829078E-05    1.3297976245E-05
    1.2332076577E-05    1.1740192519E-05    1.1322920301E-05    1.1049959249E-05
    1.0904555319E-05    1.0865254894E-05    1.0907178108E-05    1.1003377000E-05
    1.1126238442E-05    1.1177964225E-05    1.1132400695E-05    1.1064038200E-05
    1.0970850739E-05    1.0853331765E-05    1.0714148630E-05    1.0557733117E-05
    1.0389823881E-05    1.0216976803E-05    1.0096435530E-05    9.9806802810E-06
    9.8687736284E-06    9.7609561207E-06    9.6571755005E-06    9.5571146301E-06
    9.4602325718E-06    9.3658161898E-06    9.2697346831E-06    9.1702255781E-06
    9.0717820072E-06    8.9743925934E-06    8.8780460833E-06    8.7827313453E-06
    8.6884373685E-06    8.5951532605E-06    8.5028682461E-06    8.4115716983E-06
    8.3212530421E-06    8.2319018321E-06    8.1435077411E-06    8.0560605518E-06
    7.9695501555E-06    7.8839665509E-06    7.7992998428E-06    7.7155402411E-06
    7.6326780603E-06    7.5507037161E-06    7.4696077267E-06    7.3893807109E-06
    7.3100133870E-06    7.2314965722E-06    7.1538211808E-06    7.0769782239E-06
    7.0009588062E-06    6.9257541289E-06    6.8513554892E-06    6.7777542751E-06
    6.7049419659E-06    6.6329101318E-06    6.5616504325E-06    6.4911546168E-06
    6.4214145209E-06    6.3524220682E-06    6.2841692680E-06    6.2166482142E-06
    6.1498510854E-06    6.0837701430E-06    6.0183977312E-06    5.9537262754E-06
    5.8897482817E-06    5.8264563361E-06    5.7638431035E-06    5.7019013267E-06
    5.6406238262E-06    5.5800034987E-06    5.5200333165E-06    5.4607063268E-06
    5.4020156510E-06    5.3439544836E-06    5.2865160917E-06    5.2296938140E-06
    5.1734810602E-06    5.1178713105E-06    5.0628581142E-06    5.0084350896E-06
    4.9545959228E-06    4.9013343673E-06    4.8486442432E-06    4.7965194364E-06
    4.7449538979E-06    4.6939416434E-06    4.6434767522E-06    4.5935533669E-06
    4.5441656923E-06    4.4953079953E-06    4.4469746037E-06    4.3991599058E-06
    4.3518583498E-06    4.3050644431E-06    4.2587727516E-06    4.2129778994E-06
    4.1676745676E-06    4.1228574944E-06    4.0785214738E-06    4.0346613555E-06
    3.9912720441E-06    3.9483484987E-06    3.9058857319E-06    3.8638788098E-06
    3.8223228510E-06    3.7812130262E-06    3.7405445577E-06    3.7003127188E-06
    3.6605128332E-06    3.6211402745E-06    3.5821904656E-06    3.5436588784E-06
    3.5055410331E-06    3.4678324977E-06    3.4305288877E-06    3.3936258650E-06
    3.3571191383E-06    3.3210044618E-06    3.2852776350E-06    3.2499345026E-06
    3.2149709533E-06    3.1803829199E-06    3.1461663787E-06    3.1123173487E-06
    3.0788318919E-06    3.0457061118E-06    3.0129361540E-06    2.9805182049E-06
    2.9484484920E-06    2.9167232828E-06    2.8853388848E-06    2.8542916450E-06
    2.8235779493E-06    2.7931942226E-06    2.7631369274E-06    2.7334025645E-06
    2.7039876719E-06    2.6748888246E-06    2.6461026342E-06    2.6176257486E-06
    2.5894548514E-06    2.5615866619E-06    2.5340179342E-06    2.5067454572E-06
    2.4797660542E-06    2.4530765824E-06    2.4266739326E-06    2.4005550288E-06
    2.3747168280E-06    2.3491563197E-06    2.3238705255E-06    2.2988564990E-06
    2.2741113253E-06    2.2496321206E-06    2.2254160319E-06    2.2014602369E-06
    2.1777619433E-06    2.1543183887E-06    2.1311268404E-06    2.1081845948E-06
    2.0854889772E-06    2.0630373417E-06    2.0408270705E-06    2.0188555739E-06
    1.9971202900E-06    1.9756186842E-06    1.9543482489E-06    1.9333065035E-06
    1.9124909941E-06    1.8918992928E-06    1.8715289978E-06    1.8513777330E-06
    1.8314431476E-06    1.8117229163E-06    1.7922147383E-06    1.7729163377E-06
    1.7538254627E-06    1.7349398860E-06    1.7162574038E-06    1.6977758361E-06
    1.6794930261E-06    1.6614068401E-06    1.6435151675E-06    1.6258159199E-06
    1.6083070316E-06    1.5909864589E-06    1.5738521798E-06    1.5569021943E-06
    1.5401345236E-06    1.5235472102E-06    1.5071383175E-06    1.4909059297E-06
    1.4748481513E-06    1.4589631075E-06    1.4432489433E-06    1.4277038236E-06
    1.4123259330E-06    1.3971134756E-06    1.3820646747E-06    1.3671777727E-06
    1.3524510307E-06    1.3378827284E-06    1.3234711642E-06    1.3092146545E-06
    1.2951115338E-06    1.2811601545E-06    1.2673588865E-06    1.2537061174E-06
    1.2402002520E-06    1.2268397121E-06    1.2136229365E-06    1.2005483807E-06
    1.1876145168E-06    1.1748198333E-06    1.1621628348E-06    1.1496420420E-06
    1.1372559914E-06    1.1250032353E-06    1.1128823414E-06    1.1008918929E-06
    1.0890304881E-06    1.0772967403E-06    1.0656892777E-06    1.0542067432E-06
 </PP_RHOATOM>
</UPF>

END_PSP
