<UPF version="2.0.1">
  <PP_INFO>
Generated using Vanderbilt code, version   7  3  6
Author: kfg    Generation date:   23    7 2013
Automatically converted from original format
1        The Pseudo was generated with a Scalar-Relativistic Calculation
1.70000000000E+00    Local Potential cutoff radius
nl pn  l   occ               Rcut            Rcut US             E pseu
3S  3  0  2.00      0.00000000000      1.70000000000     -0.56704600300
3P  3  1  1.00      0.00000000000      1.70000000000     -0.19767874900
</PP_INFO>
  <PP_HEADER element="Al" pseudo_type="US" relativistic="scalar" is_ultrasoft="T" is_paw="F" is_coulomb="F" has_so="F" has_wfc="F" has_gipaw="F" core_correction="T" functional="PBESOL" z_valence="3.0" total_psenergy="-6.36349853391" wfc_cutoff="0.0" rho_cutoff="0.0" l_max="2" mesh_size="893" number_of_wfc="2" number_of_proj="3"/>
  <PP_MESH>
    <PP_R>
0.00000000000000E+00 1.17887612203000E-06 2.37756482565000E-06 3.59639908765000E-06 
4.83571748095000E-06 6.09586426862000E-06 7.37718949954000E-06 8.68004910562000E-06 
1.00048050007000E-05 1.13518251810000E-05 1.27214838275000E-05 1.41141614098000E-05 
1.55302447916000E-05 1.69701273385000E-05 1.84342090273000E-05 1.99228965567000E-05 
2.14366034605000E-05 2.29757502226000E-05 2.45407643938000E-05 2.61320807101000E-05 
2.77501412143000E-05 2.93953953778000E-05 3.10683002264000E-05 3.27693204666000E-05 
3.44989286149000E-05 3.62576051292000E-05 3.80458385420000E-05 3.98641255964000E-05 
4.17129713838000E-05 4.35928894843000E-05 4.55044021095000E-05 4.74480402474000E-05 
4.94243438100000E-05 5.14338617832000E-05 5.34771523794000E-05 5.55547831924000E-05 
5.76673313553000E-05 5.98153837006000E-05 6.19995369233000E-05 6.42203977467000E-05 
6.64785830908000E-05 6.87747202438000E-05 7.11094470365000E-05 7.34834120190000E-05 
7.58972746413000E-05 7.83517054364000E-05 8.08473862063000E-05 8.33850102118000E-05 
8.59652823647000E-05 8.85889194239000E-05 9.12566501943000E-05 9.39692157295000E-05 
9.67273695372000E-05 9.95318777891000E-05 1.02383519533000E-04 1.05283086911000E-04 
1.08231385375000E-04 1.11229233918000E-04 1.14277465294000E-04 1.17376926253000E-04 
1.20528477778000E-04 1.23732995318000E-04 1.26991369039000E-04 1.30304504066000E-04 
1.33673320734000E-04 1.37098754848000E-04 1.40581757940000E-04 1.44123297532000E-04 
1.47724357408000E-04 1.51385937887000E-04 1.55109056097000E-04 1.58894746262000E-04 
1.62744059986000E-04 1.66658066549000E-04 1.70637853199000E-04 1.74684525458000E-04 
1.78799207428000E-04 1.82983042103000E-04 1.87237191686000E-04 1.91562837912000E-04 
1.95961182378000E-04 2.00433446874000E-04 2.04980873724000E-04 2.09604726133000E-04 
2.14306288533000E-04 2.19086866944000E-04 2.23947789335000E-04 2.28890405994000E-04 
2.33916089901000E-04 2.39026237113000E-04 2.44222267147000E-04 2.49505623378000E-04 
2.54877773440000E-04 2.60340209631000E-04 2.65894449329000E-04 2.71542035414000E-04 
2.77284536697000E-04 2.83123548354000E-04 2.89060692369000E-04 2.95097617989000E-04 
3.01236002175000E-04 3.07477550074000E-04 3.13823995489000E-04 3.20277101362000E-04 
3.26838660265000E-04 3.33510494894000E-04 3.40294458581000E-04 3.47192435802000E-04 
3.54206342708000E-04 3.61338127651000E-04 3.68589771727000E-04 3.75963289330000E-04 
3.83460728705000E-04 3.91084172524000E-04 3.98835738459000E-04 4.06717579771000E-04 
4.14731885913000E-04 4.22880883131000E-04 4.31166835089000E-04 4.39592043493000E-04 
4.48158848733000E-04 4.56869630533000E-04 4.65726808609000E-04 4.74732843346000E-04 
4.83890236478000E-04 4.93201531785000E-04 5.02669315798000E-04 5.12296218516000E-04 
5.22084914142000E-04 5.32038121821000E-04 5.42158606396000E-04 5.52449179179000E-04 
5.62912698728000E-04 5.73552071644000E-04 5.84370253375000E-04 5.95370249044000E-04 
6.06555114273000E-04 6.17927956043000E-04 6.29491933549000E-04 6.41250259082000E-04 
6.53206198919000E-04 6.65363074230000E-04 6.77724262004000E-04 6.90293195984000E-04 
7.03073367621000E-04 7.16068327046000E-04 7.29281684051000E-04 7.42717109100000E-04 
7.56378334341000E-04 7.70269154647000E-04 7.84393428668000E-04 7.98755079905000E-04 
8.13358097798000E-04 8.28206538834000E-04 8.43304527676000E-04 8.58656258306000E-04 
8.74265995193000E-04 8.90138074476000E-04 9.06276905167000E-04 9.22686970379000E-04 
9.39372828568000E-04 9.56339114803000E-04 9.73590542050000E-04 9.91131902482000E-04 
1.00896806881000E-03 1.02710399565000E-03 1.04554472086000E-03 1.06429536700000E-03 
1.08336114269000E-03 1.10274734410000E-03 1.12245935642000E-03 1.14250265533000E-03 
1.16288280855000E-03 1.18360547735000E-03 1.20467641817000E-03 1.22610148418000E-03 
1.24788662694000E-03 1.27003789800000E-03 1.29256145063000E-03 1.31546354154000E-03 
1.33875053255000E-03 1.36242889243000E-03 1.38650519865000E-03 1.41098613922000E-03 
1.43587851457000E-03 1.46118923940000E-03 1.48692534463000E-03 1.51309397936000E-03 
1.53970241280000E-03 1.56675803637000E-03 1.59426836569000E-03 1.62224104269000E-03 
1.65068383774000E-03 1.67960465180000E-03 1.70901151862000E-03 1.73891260696000E-03 
1.76931622287000E-03 1.80023081199000E-03 1.83166496191000E-03 1.86362740454000E-03 
1.89612701853000E-03 1.92917283178000E-03 1.96277402389000E-03 1.99693992873000E-03 
2.03168003706000E-03 2.06700399912000E-03 2.10292162736000E-03 2.13944289913000E-03 
2.17657795946000E-03 2.21433712388000E-03 2.25273088129000E-03 2.29176989687000E-03 
2.33146501505000E-03 2.37182726250000E-03 2.41286785122000E-03 2.45459818162000E-03 
2.49702984575000E-03 2.54017463045000E-03 2.58404452065000E-03 2.62865170271000E-03 
2.67400856782000E-03 2.72012771539000E-03 2.76702195659000E-03 2.81470431790000E-03 
2.86318804473000E-03 2.91248660509000E-03 2.96261369334000E-03 3.01358323400000E-03 
3.06540938560000E-03 3.11810654463000E-03 3.17168934952000E-03 3.22617268473000E-03 
3.28157168487000E-03 3.33790173892000E-03 3.39517849446000E-03 3.45341786208000E-03 
3.51263601976000E-03 3.57284941735000E-03 3.63407478120000E-03 3.69632911875000E-03 
3.75962972325000E-03 3.82399417864000E-03 3.88944036432000E-03 3.95598646022000E-03 
4.02365095180000E-03 4.09245263517000E-03 4.16241062237000E-03 4.23354434662000E-03 
4.30587356773000E-03 4.37941837764000E-03 4.45419920591000E-03 4.53023682550000E-03 
4.60755235844000E-03 4.68616728177000E-03 4.76610343347000E-03 4.84738301855000E-03 
4.93002861519000E-03 5.01406318103000E-03 5.09951005955000E-03 5.18639298654000E-03 
5.27473609671000E-03 5.36456393038000E-03 5.45590144029000E-03 5.54877399857000E-03 
5.64320740375000E-03 5.73922788794000E-03 5.83686212411000E-03 5.93613723351000E-03 
6.03708079319000E-03 6.13972084370000E-03 6.24408589680000E-03 6.35020494346000E-03 
6.45810746188000E-03 6.56782342568000E-03 6.67938331221000E-03 6.79281811105000E-03 
6.90815933260000E-03 7.02543901683000E-03 7.14468974218000E-03 7.26594463462000E-03 
7.38923737683000E-03 7.51460221761000E-03 7.64207398133000E-03 7.77168807762000E-03 
7.90348051123000E-03 8.03748789202000E-03 8.17374744513000E-03 8.31229702131000E-03 
8.45317510744000E-03 8.59642083724000E-03 8.74207400209000E-03 8.89017506215000E-03 
9.04076515756000E-03 9.19388611986000E-03 9.34958048365000E-03 9.50789149835000E-03 
9.66886314027000E-03 9.83254012479000E-03 9.99896791878000E-03 1.01681927533000E-02 
1.03402616362000E-02 1.05152223657000E-02 1.06931235430000E-02 1.08740145862000E-02 
1.10579457441000E-02 1.12449681098000E-02 1.14351336352000E-02 1.16284951452000E-02 
1.18251063526000E-02 1.20250218729000E-02 1.22282972395000E-02 1.24349889191000E-02 
1.26451543274000E-02 1.28588518449000E-02 1.30761408335000E-02 1.32970816527000E-02 
1.35217356762000E-02 1.37501653095000E-02 1.39824340067000E-02 1.42186062883000E-02 
1.44587477594000E-02 1.47029251273000E-02 1.49512062208000E-02 1.52036600083000E-02 
1.54603566176000E-02 1.57213673550000E-02 1.59867647250000E-02 1.62566224509000E-02 
1.65310154949000E-02 1.68100200790000E-02 1.70937137064000E-02 1.73821751826000E-02 
1.76754846376000E-02 1.79737235483000E-02 1.82769747607000E-02 1.85853225131000E-02 
1.88988524597000E-02 1.92176516942000E-02 1.95418087739000E-02 1.98714137446000E-02 
2.02065581654000E-02 2.05473351340000E-02 2.08938393130000E-02 2.12461669556000E-02 
2.16044159330000E-02 2.19686857611000E-02 2.23390776283000E-02 2.27156944236000E-02 
2.30986407651000E-02 2.34880230294000E-02 2.38839493807000E-02 2.42865298010000E-02 
2.46958761209000E-02 2.51121020503000E-02 2.55353232102000E-02 2.59656571647000E-02 
2.64032234538000E-02 2.68481436266000E-02 2.73005412748000E-02 2.77605420673000E-02 
2.82282737851000E-02 2.87038663567000E-02 2.91874518941000E-02 2.96791647299000E-02 
3.01791414541000E-02 3.06875209523000E-02 3.12044444442000E-02 3.17300555232000E-02 
3.22645001956000E-02 3.28079269218000E-02 3.33604866570000E-02 3.39223328938000E-02 
3.44936217040000E-02 3.50745117827000E-02 3.56651644920000E-02 3.62657439058000E-02 
3.68764168557000E-02 3.74973529770000E-02 3.81287247558000E-02 3.87707075774000E-02 
3.94234797744000E-02 4.00872226766000E-02 4.07621206613000E-02 4.14483612045000E-02 
4.21461349330000E-02 4.28556356773000E-02 4.35770605255000E-02 4.43106098781000E-02 
4.50564875034000E-02 4.58149005946000E-02 4.65860598267000E-02 4.73701794157000E-02 
4.81674771775000E-02 4.89781745889000E-02 4.98024968489000E-02 5.06406729411000E-02 
5.14929356977000E-02 5.23595218637000E-02 5.32406721631000E-02 5.41366313656000E-02 
5.50476483545000E-02 5.59739761958000E-02 5.69158722089000E-02 5.78735980376000E-02 
5.88474197230000E-02 5.98376077774000E-02 6.08444372593000E-02 6.18681878502000E-02 
6.29091439317000E-02 6.39675946651000E-02 6.50438340712000E-02 6.61381611123000E-02 
6.72508797752000E-02 6.83822991556000E-02 6.95327335439000E-02 7.07025025126000E-02 
7.18919310051000E-02 7.31013494258000E-02 7.43310937320000E-02 7.55815055274000E-02 
7.68529321565000E-02 7.81457268016000E-02 7.94602485806000E-02 8.07968626470000E-02 
8.21559402909000E-02 8.35378590427000E-02 8.49430027777000E-02 8.63717618225000E-02 
8.78245330639000E-02 8.93017200587000E-02 9.08037331462000E-02 9.23309895618000E-02 
9.38839135534000E-02 9.54629364987000E-02 9.70684970252000E-02 9.87010411325000E-02 
1.00361022315000E-01 1.02048901690000E-01 1.03765148124000E-01 1.05510238362000E-01 
1.07284657163000E-01 1.09088897433000E-01 1.10923460361000E-01 1.12788855559000E-01 
1.14685601206000E-01 1.16614224186000E-01 1.18575260242000E-01 1.20569254117000E-01 
1.22596759713000E-01 1.24658340237000E-01 1.26754568364000E-01 1.28886026394000E-01 
1.31053306412000E-01 1.33257010454000E-01 1.35497750674000E-01 1.37776149515000E-01 
1.40092839879000E-01 1.42448465307000E-01 1.44843680154000E-01 1.47279149773000E-01 
1.49755550699000E-01 1.52273570838000E-01 1.54833909654000E-01 1.57437278371000E-01 
1.60084400163000E-01 1.62776010357000E-01 1.65512856643000E-01 1.68295699271000E-01 
1.71125311271000E-01 1.74002478666000E-01 1.76928000687000E-01 1.79902689997000E-01 
1.82927372919000E-01 1.86002889661000E-01 1.89130094553000E-01 1.92309856284000E-01 
1.95543058142000E-01 1.98830598258000E-01 2.02173389859000E-01 2.05572361520000E-01 
2.09028457423000E-01 2.12542637614000E-01 2.16115878279000E-01 2.19749172008000E-01 
2.23443528070000E-01 2.27199972702000E-01 2.31019549383000E-01 2.34903319132000E-01 
2.38852360798000E-01 2.42867771363000E-01 2.46950666245000E-01 2.51102179607000E-01 
2.55323464675000E-01 2.59615694054000E-01 2.63980060057000E-01 2.68417775038000E-01 
2.72930071723000E-01 2.77518203557000E-01 2.82183445050000E-01 2.86927092133000E-01 
2.91750462517000E-01 2.96654896056000E-01 3.01641755126000E-01 3.06712424997000E-01 
3.11868314221000E-01 3.17110855023000E-01 3.22441503698000E-01 3.27861741016000E-01 
3.33373072632000E-01 3.38977029509000E-01 3.44675168336000E-01 3.50469071967000E-01 
3.56360349857000E-01 3.62350638510000E-01 3.68441601932000E-01 3.74634932098000E-01 
3.80932349418000E-01 3.87335603213000E-01 3.93846472207000E-01 4.00466765016000E-01 
4.07198320654000E-01 4.14043009040000E-01 4.21002731520000E-01 4.28079421396000E-01 
4.35275044459000E-01 4.42591599542000E-01 4.50031119066000E-01 4.57595669613000E-01 
4.65287352496000E-01 4.73108304343000E-01 4.81060697690000E-01 4.89146741587000E-01 
4.97368682210000E-01 5.05728803483000E-01 5.14229427716000E-01 5.22872916249000E-01 
5.31661670106000E-01 5.40598130663000E-01 5.49684780330000E-01 5.58924143232000E-01 
5.68318785920000E-01 5.77871318077000E-01 5.87584393246000E-01 5.97460709565000E-01 
6.07503010519000E-01 6.17714085700000E-01 6.28096771585000E-01 6.38653952319000E-01 
6.49388560520000E-01 6.60303578093000E-01 6.71402037058000E-01 6.82687020391000E-01 
6.94161662882000E-01 7.05829152006000E-01 7.17692728807000E-01 7.29755688799000E-01 
7.42021382883000E-01 7.54493218273000E-01 7.67174659450000E-01 7.80069229117000E-01 
7.93180509182000E-01 8.06512141751000E-01 8.20067830142000E-01 8.33851339910000E-01 
8.47866499898000E-01 8.62117203295000E-01 8.76607408721000E-01 8.91341141328000E-01 
9.06322493912000E-01 9.21555628057000E-01 9.37044775288000E-01 9.52794238244000E-01 
9.68808391878000E-01 9.85091684669000E-01 1.00164863986000E+00 1.01848385671000E+00 
1.03560201177000E+00 1.05300786021000E+00 1.07070623708000E+00 1.08870205872000E+00 
1.10700032409000E+00 1.12560611615000E+00 1.14452460330000E+00 1.16376104079000E+00 
1.18332077221000E+00 1.20320923094000E+00 1.22343194168000E+00 1.24399452197000E+00 
1.26490268378000E+00 1.28616223507000E+00 1.30777908139000E+00 1.32975922758000E+00 
1.35210877937000E+00 1.37483394511000E+00 1.39794103750000E+00 1.42143647531000E+00 
1.44532678521000E+00 1.46961860356000E+00 1.49431867823000E+00 1.51943387051000E+00 
1.54497115702000E+00 1.57093763160000E+00 1.59734050732000E+00 1.62418711851000E+00 
1.65148492270000E+00 1.67924150282000E+00 1.70746456919000E+00 1.73616196174000E+00 
1.76534165215000E+00 1.79501174608000E+00 1.82518048540000E+00 1.85585625053000E+00 
1.88704756270000E+00 1.91876308637000E+00 1.95101163161000E+00 1.98380215656000E+00 
2.01714376990000E+00 2.05104573341000E+00 2.08551746451000E+00 2.12056853893000E+00 
2.15620869327000E+00 2.19244782783000E+00 2.22929600926000E+00 2.26676347339000E+00 
2.30486062811000E+00 2.34359805620000E+00 2.38298651830000E+00 2.42303695591000E+00 
2.46376049440000E+00 2.50516844614000E+00 2.54727231359000E+00 2.59008379256000E+00 
2.63361477538000E+00 2.67787735428000E+00 2.72288382471000E+00 2.76864668874000E+00 
2.81517865859000E+00 2.86249266010000E+00 2.91060183635000E+00 2.95951955131000E+00 
3.00925939355000E+00 3.05983518002000E+00 3.11126095985000E+00 3.16355101834000E+00 
3.21671988082000E+00 3.27078231678000E+00 3.32575334389000E+00 3.38164823225000E+00 
3.43848250856000E+00 3.49627196051000E+00 3.55503264107000E+00 3.61478087305000E+00 
3.67553325355000E+00 3.73730665863000E+00 3.80011824797000E+00 3.86398546962000E+00 
3.92892606491000E+00 3.99495807330000E+00 4.06209983743000E+00 4.13037000824000E+00 
4.19978755009000E+00 4.27037174609000E+00 4.34214220340000E+00 4.41511885873000E+00 
4.48932198384000E+00 4.56477219119000E+00 4.64149043965000E+00 4.71949804034000E+00 
4.79881666253000E+00 4.87946833970000E+00 4.96147547561000E+00 5.04486085053000E+00 
5.12964762761000E+00 5.21585935928000E+00 5.30351999380000E+00 5.39265388190000E+00 
5.48328578358000E+00 5.57544087493000E+00 5.66914475520000E+00 5.76442345384000E+00 
5.86130343777000E+00 5.95981161872000E+00 6.05997536070000E+00 6.16182248762000E+00 
6.26538129100000E+00 6.37068053785000E+00 6.47774947863000E+00 6.58661785540000E+00 
6.69731591008000E+00 6.80987439285000E+00 6.92432457066000E+00 7.04069823597000E+00 
7.15902771555000E+00 7.27934587946000E+00 7.40168615018000E+00 7.52608251191000E+00 
7.65256952000000E+00 7.78118231053000E+00 7.91195661011000E+00 8.04492874578000E+00 
8.18013565509000E+00 8.31761489639000E+00 8.45740465924000E+00 8.59954377503000E+00 
8.74407172776000E+00 8.89102866502000E+00 9.04045540911000E+00 9.19239346844000E+00 
9.34688504898000E+00 9.50397306607000E+00 9.66370115628000E+00 9.82611368954000E+00 
9.99125578150000E+00 1.01591733060000E+01 1.03299129079000E+01 1.05035220160000E+01 
1.06800488561000E+01 1.08595424646000E+01 1.10420527020000E+01 1.12276302667000E+01 
1.14163267093000E+01 1.16081944466000E+01 1.18032867766000E+01 1.20016578926000E+01 
1.22033628993000E+01 1.24084578268000E+01 1.26169996475000E+01 1.28290462910000E+01 
1.30446566604000E+01 1.32638906488000E+01 1.34868091562000E+01 1.37134741056000E+01 
1.39439484610000E+01 1.41782962446000E+01 1.44165825545000E+01 1.46588735828000E+01 
1.49052366342000E+01 1.51557401445000E+01 1.54104536994000E+01 1.56694480546000E+01 
1.59327951545000E+01 1.62005681527000E+01 1.64728414324000E+01 1.67496906268000E+01 
1.70311926402000E+01 1.73174256694000E+01 1.76084692255000E+01 1.79044041558000E+01 
1.82053126663000E+01 1.85112783446000E+01 1.88223861833000E+01 1.91387226030000E+01 
1.94603754771000E+01 1.97874341557000E+01 2.01199894905000E+01 2.04581338601000E+01 
2.08019611957000E+01 2.11515670071000E+01 2.15070484093000E+01 2.18685041494000E+01 
2.22360346340000E+01 2.26097419575000E+01 2.29897299296000E+01 2.33761041052000E+01 
2.37689718128000E+01 2.41684421849000E+01 2.45746261881000E+01 2.49876366538000E+01 
2.54075883098000E+01 2.58345978122000E+01 2.62687837773000E+01 2.67102668151000E+01 
2.71591695628000E+01 2.76156167184000E+01 2.80797350756000E+01 2.85516535594000E+01 
2.90315032610000E+01 2.95194174753000E+01 3.00155317371000E+01 3.05199838591000E+01 
3.10329139701000E+01 3.15544645540000E+01 3.20847804893000E+01 3.26240090894000E+01 
3.31723001436000E+01 3.37298059584000E+01 3.42966814000000E+01 3.48730839377000E+01 
3.54591736868000E+01 3.60551134539000E+01 3.66610687816000E+01 3.72772079947000E+01 
3.79037022470000E+01 3.85407255687000E+01 3.91884549148000E+01 3.98470702143000E+01 
4.05167544202000E+01 4.11976935600000E+01 4.18900767880000E+01 4.25940964373000E+01 
4.33099480734000E+01 4.40378305486000E+01 4.47779460572000E+01 4.55305001915000E+01 
4.62957019992000E+01 4.70737640414000E+01 4.78649024513000E+01 4.86693369946000E+01 
4.94872911307000E+01 5.03189920743000E+01 5.11646708586000E+01 5.20245624001000E+01 
5.28989055628000E+01 5.37879432257000E+01 5.46919223492000E+01 5.56110940445000E+01 
5.65457136431000E+01 5.74960407674000E+01 5.84623394033000E+01 5.94448779733000E+01 
6.04439294112000E+01 6.14597712376000E+01 6.24926856374000E+01 6.35429595378000E+01 
6.46108846884000E+01 6.56967577419000E+01 6.68008803367000E+01 6.79235591806000E+01 
6.90651061360000E+01 7.02258383068000E+01 7.14060781259000E+01 7.26061534454000E+01 
7.38263976271000E+01 7.50671496357000E+01 7.63287541325000E+01 7.76115615713000E+01 
7.89159282958000E+01 8.02422166383000E+01 8.15907950210000E+01 8.29620380574000E+01 
8.43563266574000E+01 8.57740481323000E+01 8.72155963026000E+01 8.86813716078000E+01 
9.01717812170000E+01 9.16872391426000E+01 9.32281663547000E+01 9.47949908986000E+01 
9.63881480135000E+01 9.80080802532000E+01 9.96552376093000E+01 1.01330077636000E+02 
1.03033065578000E+02 1.04764674498000E+02 1.06525385409000E+02 1.08315687409000E+02 
1.10136077817000E+02 1.11987062307000E+02 1.13869155054000E+02 1.15782878874000E+02 
1.17728765368000E+02 1.19707355073000E+02 1.21719197611000E+02 1.23764851840000E+02 
1.25844886009000E+02 1.27959877919000E+02 1.30110415083000E+02 1.32297094884000E+02 
1.34520524749000E+02 1.36781322310000E+02 1.39080115583000E+02 1.41417543134000E+02 
1.43794254265000E+02 1.46210909189000E+02 1.48668179214000E+02 1.51166746930000E+02 
1.53707306402000E+02 1.56290563355000E+02 1.58917235378000E+02 1.61588052118000E+02 
1.64303755488000E+02 1.67065099865000E+02 1.69872852308000E+02 1.72727792767000E+02 
1.75630714298000E+02 1.78582423287000E+02 1.81583739673000E+02 1.84635497173000E+02 
1.87738543519000E+02 1.90893740686000E+02 1.94101965140000E+02 1.97364108073000E+02 
2.00681075659000E+02 
</PP_R>
    <PP_RAB>
1.16907944302000E-06 1.18872737839000E-06 1.20870552345000E-06 1.22901942781000E-06 
1.24967473437000E-06 1.27067718083000E-06 1.29203260134000E-06 1.31374692811000E-06 
1.33582619303000E-06 1.35827652937000E-06 1.38110417348000E-06 1.40431546651000E-06 
1.42791685621000E-06 1.45191489866000E-06 1.47631626014000E-06 1.50112771896000E-06 
1.52635616736000E-06 1.55200861340000E-06 1.57809218291000E-06 1.60461412152000E-06 
1.63158179659000E-06 1.65900269932000E-06 1.68688444679000E-06 1.71523478413000E-06 
1.74406158660000E-06 1.77337286184000E-06 1.80317675205000E-06 1.83348153629000E-06 
1.86429563275000E-06 1.89562760109000E-06 1.92748614484000E-06 1.95988011381000E-06 
1.99281850652000E-06 2.02631047274000E-06 2.06036531601000E-06 2.09499249623000E-06 
2.13020163227000E-06 2.16600250470000E-06 2.20240505841000E-06 2.23941940546000E-06 
2.27705582786000E-06 2.31532478042000E-06 2.35423689363000E-06 2.39380297667000E-06 
2.43403402037000E-06 2.47494120029000E-06 2.51653587979000E-06 2.55882961322000E-06 
2.60183414910000E-06 2.64556143342000E-06 2.69002361292000E-06 2.73523303851000E-06 
2.78120226864000E-06 2.82794407284000E-06 2.87547143524000E-06 2.92379755820000E-06 
2.97293586594000E-06 3.02290000832000E-06 3.07370386459000E-06 3.12536154724000E-06 
3.17788740598000E-06 3.23129603166000E-06 3.28560226034000E-06 3.34082117745000E-06 
3.39696812192000E-06 3.45405869048000E-06 3.51210874201000E-06 3.57113440188000E-06 
3.63115206649000E-06 3.69217840781000E-06 3.75423037797000E-06 3.81732521405000E-06 
3.88148044279000E-06 3.94671388550000E-06 4.01304366300000E-06 4.08048820065000E-06 
4.14906623349000E-06 4.21879681141000E-06 4.28969930445000E-06 4.36179340822000E-06 
4.43509914931000E-06 4.50963689091000E-06 4.58542733842000E-06 4.66249154524000E-06 
4.74085091857000E-06 4.82052722542000E-06 4.90154259860000E-06 4.98391954292000E-06 
5.06768094137000E-06 5.15285006157000E-06 5.23945056213000E-06 5.32750649932000E-06 
5.41704233369000E-06 5.50808293686000E-06 5.60065359849000E-06 5.69478003325000E-06 
5.79048838796000E-06 5.88780524891000E-06 5.98675764917000E-06 6.08737307617000E-06 
6.18967947927000E-06 6.29370527758000E-06 6.39947936783000E-06 6.50703113239000E-06 
6.61639044743000E-06 6.72758769126000E-06 6.84065375270000E-06 6.95562003973000E-06 
7.07251848815000E-06 7.19138157053000E-06 7.31224230514000E-06 7.43513426518000E-06 
7.56009158811000E-06 7.68714898509000E-06 7.81634175066000E-06 7.94770577253000E-06 
8.08127754156000E-06 8.21709416187000E-06 8.35519336117000E-06 8.49561350124000E-06 
8.63839358857000E-06 8.78357328523000E-06 8.93119291983000E-06 9.08129349878000E-06 
9.23391671766000E-06 9.38910497278000E-06 9.54690137298000E-06 9.70734975162000E-06 
9.87049467872000E-06 1.00363814734000E-05 1.02050562163000E-05 1.03765657627000E-05 
1.05509577552000E-05 1.07282806371000E-05 1.09085836659000E-05 1.10919169271000E-05 
1.12783313476000E-05 1.14678787104000E-05 1.16606116688000E-05 1.18565837611000E-05 
1.20558494250000E-05 1.22584640135000E-05 1.24644838098000E-05 1.26739660428000E-05 
1.28869689034000E-05 1.31035515604000E-05 1.33237741772000E-05 1.35476979280000E-05 
1.37753850154000E-05 1.40068986871000E-05 1.42423032542000E-05 1.44816641081000E-05 
1.47250477397000E-05 1.49725217569000E-05 1.52241549043000E-05 1.54800170815000E-05 
1.57401793629000E-05 1.60047140176000E-05 1.62736945291000E-05 1.65471956160000E-05 
1.68252932525000E-05 1.71080646897000E-05 1.73955884772000E-05 1.76879444844000E-05 
1.79852139233000E-05 1.82874793705000E-05 1.85948247907000E-05 1.89073355597000E-05 
1.92250984878000E-05 1.95482018447000E-05 1.98767353833000E-05 2.02107903652000E-05 
2.05504595854000E-05 2.08958373988000E-05 2.12470197458000E-05 2.16041041794000E-05 
2.19671898920000E-05 2.23363777429000E-05 2.27117702869000E-05 2.30934718020000E-05 
2.34815883189000E-05 2.38762276502000E-05 2.42774994204000E-05 2.46855150966000E-05 
2.51003880191000E-05 2.55222334330000E-05 2.59511685203000E-05 2.63873124323000E-05 
2.68307863231000E-05 2.72817133825000E-05 2.77402188711000E-05 2.82064301545000E-05 
2.86804767387000E-05 2.91624903064000E-05 2.96526047534000E-05 3.01509562257000E-05 
3.06576831574000E-05 3.11729263095000E-05 3.16968288081000E-05 3.22295361853000E-05 
3.27711964186000E-05 3.33219599728000E-05 3.38819798412000E-05 3.44514115885000E-05 
3.50304133940000E-05 3.56191460950000E-05 3.62177732324000E-05 3.68264610952000E-05 
3.74453787673000E-05 3.80746981743000E-05 3.87145941312000E-05 3.93652443909000E-05 
4.00268296939000E-05 4.06995338180000E-05 4.13835436299000E-05 4.20790491367000E-05 
4.27862435389000E-05 4.35053232838000E-05 4.42364881204000E-05 4.49799411549000E-05 
4.57358889067000E-05 4.65045413662000E-05 4.72861120529000E-05 4.80808180747000E-05 
4.88888801885000E-05 4.97105228612000E-05 5.05459743321000E-05 5.13954666764000E-05 
5.22592358697000E-05 5.31375218535000E-05 5.40305686016000E-05 5.49386241885000E-05 
5.58619408576000E-05 5.68007750917000E-05 5.77553876840000E-05 5.87260438111000E-05 
5.97130131056000E-05 6.07165697322000E-05 6.17369924631000E-05 6.27745647555000E-05 
6.38295748306000E-05 6.49023157536000E-05 6.59930855150000E-05 6.71021871134000E-05 
6.82299286396000E-05 6.93766233626000E-05 7.05425898159000E-05 7.17281518867000E-05 
7.29336389053000E-05 7.41593857370000E-05 7.54057328749000E-05 7.66730265346000E-05 
7.79616187503000E-05 7.92718674724000E-05 8.06041366675000E-05 8.19587964189000E-05 
8.33362230295000E-05 8.47367991269000E-05 8.61609137689000E-05 8.76089625521000E-05 
8.90813477215000E-05 9.05784782826000E-05 9.21007701145000E-05 9.36486460859000E-05 
9.52225361722000E-05 9.68228775754000E-05 9.84501148448000E-05 1.00104700001000E-04 
1.01787092663000E-04 1.03497760171000E-04 1.05237177723000E-04 1.07005828501000E-04 
1.08804203808000E-04 1.10632803204000E-04 1.12492134647000E-04 1.14382714627000E-04 
1.16305068320000E-04 1.18259729724000E-04 1.20247241813000E-04 1.22268156687000E-04 
1.24323035724000E-04 1.26412449737000E-04 1.28536979132000E-04 1.30697214070000E-04 
1.32893754630000E-04 1.35127210977000E-04 1.37398203529000E-04 1.39707363132000E-04 
1.42055331234000E-04 1.44442760064000E-04 1.46870312811000E-04 1.49338663812000E-04 
1.51848498736000E-04 1.54400514774000E-04 1.56995420837000E-04 1.59633937749000E-04 
1.62316798448000E-04 1.65044748189000E-04 1.67818544756000E-04 1.70638958664000E-04 
1.73506773380000E-04 1.76422785538000E-04 1.79387805159000E-04 1.82402655880000E-04 
1.85468175178000E-04 1.88585214606000E-04 1.91754640029000E-04 1.94977331862000E-04 
1.98254185320000E-04 2.01586110658000E-04 2.04974033436000E-04 2.08418894762000E-04 
2.11921651566000E-04 2.15483276858000E-04 2.19104760002000E-04 2.22787106988000E-04 
2.26531340714000E-04 2.30338501268000E-04 2.34209646221000E-04 2.38145850916000E-04 
2.42148208766000E-04 2.46217831565000E-04 2.50355849789000E-04 2.54563412915000E-04 
2.58841689737000E-04 2.63191868692000E-04 2.67615158192000E-04 2.72112786957000E-04 
2.76686004357000E-04 2.81336080760000E-04 2.86064307883000E-04 2.90871999153000E-04 
2.95760490070000E-04 3.00731138582000E-04 3.05785325454000E-04 3.10924454661000E-04 
3.16149953771000E-04 3.21463274346000E-04 3.26865892342000E-04 3.32359308520000E-04 
3.37945048866000E-04 3.43624665010000E-04 3.49399734659000E-04 3.55271862037000E-04 
3.61242678327000E-04 3.67313842128000E-04 3.73487039915000E-04 3.79763986502000E-04 
3.86146425528000E-04 3.92636129933000E-04 3.99234902455000E-04 4.05944576127000E-04 
4.12767014792000E-04 4.19704113615000E-04 4.26757799613000E-04 4.33930032188000E-04 
4.41222803674000E-04 4.48638139886000E-04 4.56178100689000E-04 4.63844780564000E-04 
4.71640309194000E-04 4.79566852054000E-04 4.87626611012000E-04 4.95821824942000E-04 
5.04154770344000E-04 5.12627761981000E-04 5.21243153514000E-04 5.30003338163000E-04 
5.38910749370000E-04 5.47967861473000E-04 5.57177190394000E-04 5.66541294339000E-04 
5.76062774509000E-04 5.85744275821000E-04 5.95588487642000E-04 6.05598144540000E-04 
6.15776027038000E-04 6.26124962393000E-04 6.36647825374000E-04 6.47347539067000E-04 
6.58227075683000E-04 6.69289457386000E-04 6.80537757131000E-04 6.91975099517000E-04 
7.03604661659000E-04 7.15429674064000E-04 7.27453421535000E-04 7.39679244078000E-04 
7.52110537833000E-04 7.64750756019000E-04 7.77603409888000E-04 7.90672069704000E-04 
8.03960365735000E-04 8.17471989259000E-04 8.31210693592000E-04 8.45180295129000E-04 
8.59384674405000E-04 8.73827777172000E-04 8.88513615495000E-04 9.03446268870000E-04 
9.18629885351000E-04 9.34068682707000E-04 9.49766949592000E-04 9.65729046737000E-04 
9.81959408160000E-04 9.98462542399000E-04 1.01524303377000E-03 1.03230554361000E-03 
1.04965481164000E-03 1.06729565719000E-03 1.08523298063000E-03 1.10347176465000E-03 
1.12201707570000E-03 1.14087406537000E-03 1.16004797184000E-03 1.17954412132000E-03 
1.19936792953000E-03 1.21952490321000E-03 1.24002064164000E-03 1.26086083823000E-03 
1.28205128205000E-03 1.30359785947000E-03 1.32550655579000E-03 1.34778345689000E-03 
1.37043475096000E-03 1.39346673016000E-03 1.41688579240000E-03 1.44069844315000E-03 
1.46491129717000E-03 1.48953108042000E-03 1.51456463188000E-03 1.54001890547000E-03 
1.56590097200000E-03 1.59221802109000E-03 1.61897736320000E-03 1.64618643165000E-03 
1.67385278470000E-03 1.70198410762000E-03 1.73058821484000E-03 1.75967305214000E-03 
1.78924669883000E-03 1.81931736999000E-03 1.84989341879000E-03 1.88098333876000E-03 
1.91259576621000E-03 1.94473948255000E-03 1.97742341681000E-03 2.01065664806000E-03 
2.04444840799000E-03 2.07880808339000E-03 2.11374521885000E-03 2.14926951935000E-03 
2.18539085298000E-03 2.22211925368000E-03 2.25946492401000E-03 2.29743823802000E-03 
2.33604974409000E-03 2.37531016789000E-03 2.41523041534000E-03 2.45582157566000E-03 
2.49709492443000E-03 2.53906192673000E-03 2.58173424035000E-03 2.62512371896000E-03 
2.66924241549000E-03 2.71410258540000E-03 2.75971669015000E-03 2.80609740062000E-03 
2.85325760063000E-03 2.90121039054000E-03 2.94996909089000E-03 2.99954724606000E-03 
3.04995862809000E-03 3.10121724045000E-03 3.15333732200000E-03 3.20633335085000E-03 
3.26022004847000E-03 3.31501238374000E-03 3.37072557709000E-03 3.42737510478000E-03 
3.48497670315000E-03 3.54354637301000E-03 3.60310038410000E-03 3.66365527957000E-03 
3.72522788062000E-03 3.78783529114000E-03 3.85149490250000E-03 3.91622439831000E-03 
3.98204175941000E-03 4.04896526883000E-03 4.11701351686000E-03 4.18620540623000E-03 
4.25656015735000E-03 4.32809731367000E-03 4.40083674707000E-03 4.47479866341000E-03 
4.55000360816000E-03 4.62647247206000E-03 4.70422649695000E-03 4.78328728167000E-03 
4.86367678806000E-03 4.94541734705000E-03 5.02853166488000E-03 5.11304282940000E-03 
5.19897431647000E-03 5.28634999650000E-03 5.37519414108000E-03 5.46553142970000E-03 
5.55738695665000E-03 5.65078623793000E-03 5.74575521838000E-03 5.84232027890000E-03 
5.94050824373000E-03 6.04034638794000E-03 6.14186244498000E-03 6.24508461442000E-03 
6.35004156974000E-03 6.45676246632000E-03 6.56527694956000E-03 6.67561516305000E-03 
6.78780775701000E-03 6.90188589678000E-03 7.01788127145000E-03 7.13582610270000E-03 
7.25575315377000E-03 7.37769573847000E-03 7.50168773054000E-03 7.62776357299000E-03 
7.75595828771000E-03 7.88630748515000E-03 8.01884737428000E-03 8.15361477257000E-03 
8.29064711628000E-03 8.42998247083000E-03 8.57165954138000E-03 8.71571768359000E-03 
8.86219691454000E-03 9.01113792383000E-03 9.16258208494000E-03 9.31657146665000E-03 
9.47314884478000E-03 9.63235771407000E-03 9.79424230021000E-03 9.95884757219000E-03 
1.01262192548000E-02 1.02964038411000E-02 1.04694486059000E-02 1.06454016181000E-02 
1.08243117548000E-02 1.10062287143000E-02 1.11912030304000E-02 1.13792860860000E-02 
1.15705301275000E-02 1.17649882795000E-02 1.19627145596000E-02 1.21637638928000E-02 
1.23681921275000E-02 1.25760560507000E-02 1.27874134036000E-02 1.30023228981000E-02 
1.32208442325000E-02 1.34430381086000E-02 1.36689662485000E-02 1.38986914113000E-02 
1.41322774111000E-02 1.43697891344000E-02 1.46112925581000E-02 1.48568547682000E-02 
1.51065439780000E-02 1.53604295471000E-02 1.56185820009000E-02 1.58810730502000E-02 
1.61479756107000E-02 1.64193638239000E-02 1.66953130771000E-02 1.69759000246000E-02 
1.72612026090000E-02 1.75513000829000E-02 1.78462730308000E-02 1.81462033915000E-02 
1.84511744810000E-02 1.87612710153000E-02 1.90765791345000E-02 1.93971864260000E-02 
1.97231819497000E-02 2.00546562618000E-02 2.03917014407000E-02 2.07344111122000E-02 
2.10828804758000E-02 2.14372063305000E-02 2.17974871027000E-02 2.21638228725000E-02 
2.25363154023000E-02 2.29150681647000E-02 2.33001863711000E-02 2.36917770013000E-02 
2.40899488330000E-02 2.44948124721000E-02 2.49064803832000E-02 2.53250669213000E-02 
2.57506883631000E-02 2.61834629394000E-02 2.66235108682000E-02 2.70709543879000E-02 
2.75259177912000E-02 2.79885274598000E-02 2.84589118993000E-02 2.89372017751000E-02 
2.94235299486000E-02 2.99180315140000E-02 3.04208438362000E-02 3.09321065883000E-02 
3.14519617912000E-02 3.19805538523000E-02 3.25180296063000E-02 3.30645383554000E-02 
3.36202319110000E-02 3.41852646362000E-02 3.47597934880000E-02 3.53439780615000E-02 
3.59379806340000E-02 3.65419662100000E-02 3.71561025670000E-02 3.77805603027000E-02 
3.84155128813000E-02 3.90611366827000E-02 3.97176110511000E-02 4.03851183445000E-02 
4.10638439861000E-02 4.17539765151000E-02 4.24557076393000E-02 4.31692322887000E-02 
4.38947486691000E-02 4.46324583174000E-02 4.53825661579000E-02 4.61452805585000E-02 
4.69208133893000E-02 4.77093800811000E-02 4.85111996853000E-02 4.93264949347000E-02 
5.01554923053000E-02 5.09984220797000E-02 5.18555184103000E-02 5.27270193851000E-02 
5.36131670932000E-02 5.45142076924000E-02 5.54303914776000E-02 5.63619729502000E-02 
5.73092108888000E-02 5.82723684212000E-02 5.92517130973000E-02 6.02475169636000E-02 
6.12600566386000E-02 6.22896133900000E-02 6.33364732122000E-02 6.44009269065000E-02 
6.54832701613000E-02 6.65838036344000E-02 6.77028330367000E-02 6.88406692168000E-02 
6.99976282476000E-02 7.11740315142000E-02 7.23702058028000E-02 7.35864833916000E-02 
7.48232021434000E-02 7.60807055992000E-02 7.73593430735000E-02 7.86594697517000E-02 
7.99814467884000E-02 8.13256414079000E-02 8.26924270062000E-02 8.40821832549000E-02 
8.54952962063000E-02 8.69321584008000E-02 8.83931689761000E-02 8.98787337778000E-02 
9.13892654724000E-02 9.29251836617000E-02 9.44869149995000E-02 9.60748933101000E-02 
9.76895597089000E-02 9.93313627247000E-02 1.01000758424000E-01 1.02698210540000E-01 
1.04424190596000E-01 1.06179178044000E-01 1.07963660390000E-01 1.09778133336000E-01 
1.11623100914000E-01 1.13499075627000E-01 1.15406578590000E-01 1.17346139679000E-01 
1.19318297672000E-01 1.21323600404000E-01 1.23362604916000E-01 1.25435877611000E-01 
1.27543994413000E-01 1.29687540922000E-01 1.31867112581000E-01 1.34083314842000E-01 
1.36336763331000E-01 1.38628084019000E-01 1.40957913400000E-01 1.43326898663000E-01 
1.45735697875000E-01 1.48184980163000E-01 1.50675425898000E-01 1.53207726887000E-01 
1.55782586562000E-01 1.58400720181000E-01 1.61062855017000E-01 1.63769730572000E-01 
1.66522098771000E-01 1.69320724180000E-01 1.72166384211000E-01 1.75059869346000E-01 
1.78001983348000E-01 1.80993543489000E-01 1.84035380779000E-01 1.87128340191000E-01 
1.90273280901000E-01 1.93471076523000E-01 1.96722615355000E-01 2.00028800624000E-01 
2.03390550734000E-01 2.06808799527000E-01 2.10284496538000E-01 2.13818607262000E-01 
2.17412113419000E-01 2.21066013227000E-01 2.24781321682000E-01 2.28559070839000E-01 
2.32400310096000E-01 2.36306106490000E-01 2.40277544988000E-01 2.44315728793000E-01 
2.48421779650000E-01 2.52596838154000E-01 2.56842064070000E-01 2.61158636656000E-01 
2.65547754987000E-01 2.70010638291000E-01 2.74548526286000E-01 2.79162679525000E-01 
2.83854379749000E-01 2.88624930237000E-01 2.93475656172000E-01 2.98407905010000E-01 
3.03423046851000E-01 3.08522474823000E-01 3.13707605467000E-01 3.18979879129000E-01 
3.24340760364000E-01 3.29791738341000E-01 3.35334327254000E-01 3.40970066748000E-01 
3.46700522341000E-01 3.52527285865000E-01 3.58451975901000E-01 3.64476238236000E-01 
3.70601746314000E-01 3.76830201704000E-01 3.83163334573000E-01 3.89602904166000E-01 
3.96150699293000E-01 4.02808538828000E-01 4.09578272214000E-01 4.16461779976000E-01 
4.23460974243000E-01 4.30577799282000E-01 4.37814232034000E-01 4.45172282665000E-01 
4.52653995126000E-01 4.60261447719000E-01 4.67996753673000E-01 4.75862061735000E-01 
4.83859556763000E-01 4.91991460335000E-01 5.00260031364000E-01 5.08667566731000E-01 
5.17216401914000E-01 5.25908911646000E-01 5.34747510568000E-01 5.43734653904000E-01 
5.52872838140000E-01 5.62164601719000E-01 5.71612525747000E-01 5.81219234707000E-01 
5.90987397193000E-01 6.00919726644000E-01 6.11018982106000E-01 6.21287968991000E-01 
6.31729539863000E-01 6.42346595225000E-01 6.53142084327000E-01 6.64119005985000E-01 
6.75280409415000E-01 6.86629395079000E-01 6.98169115546000E-01 7.09902776367000E-01 
7.21833636969000E-01 7.33965011556000E-01 7.46300270032000E-01 7.58842838938000E-01 
7.71596202400000E-01 7.84563903102000E-01 7.97749543267000E-01 8.11156785657000E-01 
8.24789354592000E-01 8.38651036984000E-01 8.52745683390000E-01 8.67077209081000E-01 
8.81649595127000E-01 8.96466889508000E-01 9.11533208233000E-01 9.26852736489000E-01 
9.42429729797000E-01 9.58268515202000E-01 9.74373492467000E-01 9.90749135301000E-01 
1.00739999260000E+00 1.02433068971000E+00 1.04154592970000E+00 1.05905049471000E+00 
1.07684924722000E+00 1.09494713144000E+00 1.11334917469000E+00 1.13206048876000E+00 
1.15108627135000E+00 1.17043180753000E+00 1.19010247118000E+00 1.21010372650000E+00 
1.23044112953000E+00 1.25112032968000E+00 1.27214707129000E+00 1.29352719527000E+00 
1.31526664068000E+00 1.33737144639000E+00 1.35984775276000E+00 1.38270180337000E+00 
1.40593994670000E+00 1.42956863795000E+00 1.45359444079000E+00 1.47802402921000E+00 
1.50286418936000E+00 1.52812182146000E+00 1.55380394166000E+00 1.57991768406000E+00 
1.60647030264000E+00 1.63346917330000E+00 1.66092179590000E+00 1.68883579635000E+00 
1.71721892871000E+00 1.74607907737000E+00 1.77542425923000E+00 1.80526262590000E+00 
1.83560246603000E+00 1.86645220753000E+00 1.89782041998000E+00 1.92971581697000E+00 
1.96214725854000E+00 1.99512375364000E+00 2.02865446260000E+00 2.06274869974000E+00 
2.09741593589000E+00 2.13266580107000E+00 2.16850808712000E+00 2.20495275048000E+00 
2.24200991489000E+00 2.27968987425000E+00 2.31800309546000E+00 2.35696022132000E+00 
2.39657207350000E+00 2.43684965556000E+00 2.47780415598000E+00 2.51944695125000E+00 
2.56178960911000E+00 2.60484389166000E+00 2.64862175871000E+00 2.69313537105000E+00 
2.73839709387000E+00 2.78441950016000E+00 2.83121537421000E+00 2.87879771519000E+00 
2.92717974070000E+00 2.97637489053000E+00 3.02639683029000E+00 3.07725945530000E+00 
3.12897689439000E+00 3.18156351385000E+00 3.23503392141000E+00 3.28940297030000E+00 
3.34468576339000E+00 
</PP_RAB>
  </PP_MESH>
  <PP_NLCC>
0.00000000000000E+00 7.79569264883000E-01 7.79569264881000E-01 7.79569264875000E-01 
7.79569264864000E-01 7.79569264852000E-01 7.79569264837000E-01 7.79569264818000E-01 
7.79569264794000E-01 7.79569264771000E-01 7.79569264744000E-01 7.79569264704000E-01 
7.79569264667000E-01 7.79569264632000E-01 7.79569264584000E-01 7.79569264529000E-01 
7.79569264474000E-01 7.79569264417000E-01 7.79569264346000E-01 7.79569264279000E-01 
7.79569264197000E-01 7.79569264115000E-01 7.79569264024000E-01 7.79569263928000E-01 
7.79569263823000E-01 7.79569263710000E-01 7.79569263599000E-01 7.79569263469000E-01 
7.79569263335000E-01 7.79569263190000E-01 7.79569263040000E-01 7.79569262879000E-01 
7.79569262708000E-01 7.79569262529000E-01 7.79569262339000E-01 7.79569262137000E-01 
7.79569261924000E-01 7.79569261698000E-01 7.79569261460000E-01 7.79569261209000E-01 
7.79569260946000E-01 7.79569260672000E-01 7.79569260379000E-01 7.79569260074000E-01 
7.79569259754000E-01 7.79569259415000E-01 7.79569259062000E-01 7.79569258690000E-01 
7.79569258300000E-01 7.79569257893000E-01 7.79569257466000E-01 7.79569257017000E-01 
7.79569256548000E-01 7.79569256057000E-01 7.79569255548000E-01 7.79569255003000E-01 
7.79569254455000E-01 7.79569253863000E-01 7.79569253251000E-01 7.79569252613000E-01 
7.79569251940000E-01 7.79569251249000E-01 7.79569250519000E-01 7.79569249750000E-01 
7.79569248964000E-01 7.79569248136000E-01 7.79569247269000E-01 7.79569246372000E-01 
7.79569245444000E-01 7.79569244467000E-01 7.79569243447000E-01 7.79569242387000E-01 
7.79569241286000E-01 7.79569240133000E-01 7.79569238937000E-01 7.79569237695000E-01 
7.79569236401000E-01 7.79569235050000E-01 7.79569233645000E-01 7.79569232185000E-01 
7.79569230664000E-01 7.79569229084000E-01 7.79569227446000E-01 7.79569225736000E-01 
7.79569223959000E-01 7.79569222112000E-01 7.79569220196000E-01 7.79569218200000E-01 
7.79569216130000E-01 7.79569213973000E-01 7.79569211735000E-01 7.79569209414000E-01 
7.79569206997000E-01 7.79569204487000E-01 7.79569201882000E-01 7.79569199179000E-01 
7.79569196371000E-01 7.79569193453000E-01 7.79569190430000E-01 7.79569187286000E-01 
7.79569184025000E-01 7.79569180638000E-01 7.79569177125000E-01 7.79569173481000E-01 
7.79569169695000E-01 7.79569165769000E-01 7.79569161693000E-01 7.79569157474000E-01 
7.79569153086000E-01 7.79569148537000E-01 7.79569143821000E-01 7.79569138930000E-01 
7.79569133859000E-01 7.79569128596000E-01 7.79569123135000E-01 7.79569117479000E-01 
7.79569111613000E-01 7.79569105530000E-01 7.79569099224000E-01 7.79569092690000E-01 
7.79569085912000E-01 7.79569078885000E-01 7.79569071605000E-01 7.79569064058000E-01 
7.79569056235000E-01 7.79569048127000E-01 7.79569039725000E-01 7.79569031019000E-01 
7.79569021996000E-01 7.79569012645000E-01 7.79569002959000E-01 7.79568992923000E-01 
7.79568982521000E-01 7.79568971746000E-01 7.79568960585000E-01 7.79568949020000E-01 
7.79568937042000E-01 7.79568924632000E-01 7.79568911779000E-01 7.79568898463000E-01 
7.79568884669000E-01 7.79568870386000E-01 7.79568855594000E-01 7.79568840272000E-01 
7.79568824404000E-01 7.79568807968000E-01 7.79568790951000E-01 7.79568773327000E-01 
7.79568755078000E-01 7.79568736181000E-01 7.79568716615000E-01 7.79568696354000E-01 
7.79568675375000E-01 7.79568653655000E-01 7.79568631166000E-01 7.79568607884000E-01 
7.79568583780000E-01 7.79568558824000E-01 7.79568532989000E-01 7.79568506244000E-01 
7.79568478558000E-01 7.79568449897000E-01 7.79568420227000E-01 7.79568389518000E-01 
7.79568357734000E-01 7.79568324822000E-01 7.79568290770000E-01 7.79568255509000E-01 
7.79568219021000E-01 7.79568181259000E-01 7.79568142171000E-01 7.79568101720000E-01 
7.79568059845000E-01 7.79568016519000E-01 7.79567971676000E-01 7.79567925276000E-01 
7.79567877239000E-01 7.79567827533000E-01 7.79567776113000E-01 7.79567722884000E-01 
7.79567667805000E-01 7.79567610808000E-01 7.79567551827000E-01 7.79567490803000E-01 
7.79567427654000E-01 7.79567362315000E-01 7.79567294711000E-01 7.79567224744000E-01 
7.79567152367000E-01 7.79567077469000E-01 7.79566999976000E-01 7.79566919800000E-01 
7.79566836846000E-01 7.79566751023000E-01 7.79566662225000E-01 7.79566570354000E-01 
7.79566475303000E-01 7.79566376971000E-01 7.79566275237000E-01 7.79566169987000E-01 
7.79566061112000E-01 7.79565948468000E-01 7.79565831930000E-01 7.79565711376000E-01 
7.79565586660000E-01 7.79565457648000E-01 7.79565324185000E-01 7.79565186118000E-01 
7.79565043295000E-01 7.79564895553000E-01 7.79564742725000E-01 7.79564584635000E-01 
7.79564421100000E-01 7.79564251936000E-01 7.79564076950000E-01 7.79563895954000E-01 
7.79563708728000E-01 7.79563515062000E-01 7.79563314743000E-01 7.79563107547000E-01 
7.79562893226000E-01 7.79562671544000E-01 7.79562442249000E-01 7.79562205084000E-01 
7.79561959776000E-01 7.79561706051000E-01 7.79561443623000E-01 7.79561172190000E-01 
7.79560891448000E-01 7.79560601078000E-01 7.79560300756000E-01 7.79559990143000E-01 
7.79559668882000E-01 7.79559336608000E-01 7.79558992965000E-01 7.79558637538000E-01 
7.79558269944000E-01 7.79557889768000E-01 7.79557496578000E-01 7.79557089925000E-01 
7.79556669359000E-01 7.79556234398000E-01 7.79555784557000E-01 7.79555319336000E-01 
7.79554838196000E-01 7.79554340608000E-01 7.79553826010000E-01 7.79553293812000E-01 
7.79552743433000E-01 7.79552174235000E-01 7.79551585595000E-01 7.79550976839000E-01 
7.79550347286000E-01 7.79549696230000E-01 7.79549022944000E-01 7.79548326662000E-01 
7.79547606608000E-01 7.79546861970000E-01 7.79546091913000E-01 7.79545295574000E-01 
7.79544472056000E-01 7.79543620436000E-01 7.79542739760000E-01 7.79541829040000E-01 
7.79540887253000E-01 7.79539913340000E-01 7.79538906213000E-01 7.79537864744000E-01 
7.79536787761000E-01 7.79535674056000E-01 7.79534522388000E-01 7.79533331460000E-01 
7.79532099940000E-01 7.79530826446000E-01 7.79529509557000E-01 7.79528147793000E-01 
7.79526739631000E-01 7.79525283493000E-01 7.79523777749000E-01 7.79522220715000E-01 
7.79520610651000E-01 7.79518945749000E-01 7.79517224149000E-01 7.79515443925000E-01 
7.79513603086000E-01 7.79511699572000E-01 7.79509731255000E-01 7.79507695931000E-01 
7.79505591328000E-01 7.79503415088000E-01 7.79501164785000E-01 7.79498837900000E-01 
7.79496431830000E-01 7.79493943890000E-01 7.79491371295000E-01 7.79488711176000E-01 
7.79485960558000E-01 7.79483116367000E-01 7.79480175430000E-01 7.79477134454000E-01 
7.79473990059000E-01 7.79470738715000E-01 7.79467376801000E-01 7.79463900567000E-01 
7.79460306117000E-01 7.79456589453000E-01 7.79452746415000E-01 7.79448772731000E-01 
7.79444663958000E-01 7.79440415505000E-01 7.79436022635000E-01 7.79431480448000E-01 
7.79426783864000E-01 7.79421927665000E-01 7.79416906422000E-01 7.79411714530000E-01 
7.79406346211000E-01 7.79400795470000E-01 7.79395056111000E-01 7.79389121755000E-01 
7.79382985755000E-01 7.79376641297000E-01 7.79370081293000E-01 7.79363298442000E-01 
7.79356285170000E-01 7.79349033661000E-01 7.79341535848000E-01 7.79333783361000E-01 
7.79325767566000E-01 7.79317479538000E-01 7.79308910025000E-01 7.79300049495000E-01 
7.79290888076000E-01 7.79281415550000E-01 7.79271621370000E-01 7.79261494637000E-01 
7.79251024067000E-01 7.79240197992000E-01 7.79229004368000E-01 7.79217430724000E-01 
7.79205464168000E-01 7.79193091386000E-01 7.79180298594000E-01 7.79167071566000E-01 
7.79153395564000E-01 7.79139255367000E-01 7.79124635239000E-01 7.79109518909000E-01 
7.79093889560000E-01 7.79077729791000E-01 7.79061021621000E-01 7.79043746469000E-01 
7.79025885105000E-01 7.79007417663000E-01 7.78988323598000E-01 7.78968581675000E-01 
7.78948169935000E-01 7.78927065670000E-01 7.78905245415000E-01 7.78882684909000E-01 
7.78859359064000E-01 7.78835241941000E-01 7.78810306738000E-01 7.78784525721000E-01 
7.78757870239000E-01 7.78730310664000E-01 7.78701816372000E-01 7.78672355685000E-01 
7.78641895875000E-01 7.78610403090000E-01 7.78577842348000E-01 7.78544177456000E-01 
7.78509371050000E-01 7.78473384444000E-01 7.78436177673000E-01 7.78397709427000E-01 
7.78357936983000E-01 7.78316816177000E-01 7.78274301365000E-01 7.78230345337000E-01 
7.78184899317000E-01 7.78137912864000E-01 7.78089333828000E-01 7.78039108308000E-01 
7.77987180579000E-01 7.77933493031000E-01 7.77877986120000E-01 7.77820598278000E-01 
7.77761265864000E-01 7.77699923091000E-01 7.77636501950000E-01 7.77570932140000E-01 
7.77503140987000E-01 7.77433053363000E-01 7.77360591606000E-01 7.77285675444000E-01 
7.77208221891000E-01 7.77128145170000E-01 7.77045356608000E-01 7.76959764546000E-01 
7.76871274239000E-01 7.76779787758000E-01 7.76685203864000E-01 7.76587417919000E-01 
7.76486321763000E-01 7.76381803596000E-01 7.76273747864000E-01 7.76162035118000E-01 
7.76046541903000E-01 7.75927140607000E-01 7.75803699341000E-01 7.75676081779000E-01 
7.75544147025000E-01 7.75407749449000E-01 7.75266738540000E-01 7.75120958738000E-01 
7.74970249268000E-01 7.74814443970000E-01 7.74653371117000E-01 7.74486853229000E-01 
7.74314706896000E-01 7.74136742562000E-01 7.73952764344000E-01 7.73762569803000E-01 
7.73565949745000E-01 7.73362687991000E-01 7.73152561145000E-01 7.72935338367000E-01 
7.72710781121000E-01 7.72478642927000E-01 7.72238669099000E-01 7.71990596481000E-01 
7.71734153166000E-01 7.71469058215000E-01 7.71195021369000E-01 7.70911742731000E-01 
7.70618912478000E-01 7.70316210504000E-01 7.70003306133000E-01 7.69679857746000E-01 
7.69345512444000E-01 7.68999905678000E-01 7.68642660880000E-01 7.68273389101000E-01 
7.67891688536000E-01 7.67497144261000E-01 7.67089327649000E-01 7.66667796081000E-01 
7.66232092398000E-01 7.65781744526000E-01 7.65316264950000E-01 7.64835150252000E-01 
7.64337880620000E-01 7.63823919340000E-01 7.63292712273000E-01 7.62743687303000E-01 
7.62176253806000E-01 7.61589802074000E-01 7.60983702731000E-01 7.60357306145000E-01 
7.59709941815000E-01 7.59040917736000E-01 7.58349519792000E-01 7.57635011029000E-01 
7.56896631063000E-01 7.56133595352000E-01 7.55345094460000E-01 7.54530293421000E-01 
7.53688330931000E-01 7.52818318609000E-01 7.51919340272000E-01 7.50990451116000E-01 
7.50030676924000E-01 7.49039013281000E-01 7.48014424725000E-01 7.46955843909000E-01 
7.45862170769000E-01 7.44732271667000E-01 7.43564978490000E-01 7.42359087783000E-01 
7.41113359851000E-01 7.39826517890000E-01 7.38497247015000E-01 7.37124193405000E-01 
7.35705963385000E-01 7.34241122452000E-01 7.32728194437000E-01 7.31165660532000E-01 
7.29551958425000E-01 7.27885481363000E-01 7.26164577296000E-01 7.24387548000000E-01 
7.22552648208000E-01 7.20658084817000E-01 7.18702016061000E-01 7.16682550744000E-01 
7.14597747543000E-01 7.12445614304000E-01 7.10224107430000E-01 7.07931131301000E-01 
7.05564537781000E-01 7.03122125814000E-01 7.00601641054000E-01 6.98000775655000E-01 
6.95317168132000E-01 6.92548403348000E-01 6.89692012644000E-01 6.86745474110000E-01 
6.83706213025000E-01 6.80571602456000E-01 6.77338964106000E-01 6.74005569315000E-01 
6.70568640356000E-01 6.67025351970000E-01 6.63372833177000E-01 6.59608169436000E-01 
6.55728405080000E-01 6.51730546231000E-01 6.47611564010000E-01 6.43368398239000E-01 
6.38997961613000E-01 6.34497144414000E-01 6.29862819712000E-01 6.25091849260000E-01 
6.20181089952000E-01 6.15127401052000E-01 6.09927652136000E-01 6.04578731841000E-01 
5.99077557519000E-01 5.93421085774000E-01 5.87606324008000E-01 5.81630343045000E-01 
5.75490290840000E-01 5.69183407420000E-01 5.62707041071000E-01 5.56058665863000E-01 
5.49235900598000E-01 5.42236529225000E-01 5.35058522817000E-01 5.27700063159000E-01 
5.20159568024000E-01 5.12435718175000E-01 5.04527486176000E-01 4.96434167001000E-01 
4.88155410524000E-01 4.79691255849000E-01 4.71042167517000E-01 4.62209073527000E-01 
4.53193405130000E-01 4.43997138294000E-01 4.34622836732000E-01 4.25073696302000E-01 
4.15353590575000E-01 4.05467117262000E-01 3.95419645210000E-01 3.85217361492000E-01 
3.74867318136000E-01 3.64377477870000E-01 3.53756758223000E-01 3.43015073156000E-01 
3.32163371330000E-01 3.21213669950000E-01 3.10179083027000E-01 2.99073842762000E-01 
2.87913312590000E-01 2.76713990335000E-01 2.65493499808000E-01 2.54270569006000E-01 
2.43064993122000E-01 2.31897580401000E-01 2.20790078999000E-01 2.09765083015000E-01 
1.98845916062000E-01 1.88056491006000E-01 1.77421144928000E-01 1.66964448876000E-01 
1.56710992790000E-01 1.46685146858000E-01 1.36910801835000E-01 1.27411092166000E-01 
1.18208107555000E-01 1.09322600380000E-01 1.00773698438000E-01 9.25786345706000E-02 
8.47525065463000E-02 7.73080820236000E-02 7.02556637728000E-02 6.36030291018000E-02 
5.73554534139000E-02 5.15158196858000E-02 4.60848012797000E-02 4.10610820781000E-02 
3.64415416363000E-02 3.22212784188000E-02 2.83932642180000E-02 2.49473077015000E-02 
2.18678417558000E-02 1.91300819319000E-02 1.67025037549000E-02 1.45541869332000E-02 
1.26568063638000E-02 1.09844149169000E-02 9.51331772230000E-03 8.22193891269000E-03 
7.09068332317000E-03 6.10179689382000E-03 5.23922903830000E-03 4.48849975466000E-03 
3.83657309195000E-03 3.27173787031000E-03 2.78349583109000E-03 2.36245709625000E-03 
2.00024260930000E-03 1.68939319669000E-03 1.42328490350000E-03 1.19605027776000E-03 
1.00250533272000E-03 8.38081916941000E-04 6.98765266222000E-04 5.81036488994000E-04 
4.81819768201000E-04 3.98434031879000E-04 3.28548868776000E-04 2.70144437191000E-04 
2.21475136001000E-04 1.81036786498000E-04 1.47537092839000E-04 1.19869137133000E-04 
9.70876836314000E-05 7.83880620906000E-05 6.30874180485000E-05 5.06081191598000E-05 
4.04631234442000E-05 3.22431207461000E-05 2.56052743004000E-05 2.02633972745000E-05 
1.59794134794000E-05 1.25559607420000E-05 9.83000839017000E-06 7.66736997068000E-06 
5.95800388642000E-06 4.61200399990000E-06 3.55619240367000E-06 2.73123517854000E-06 
2.08921071329000E-06 1.59156779240000E-06 1.20741805542000E-06 9.12113973106000E-07 
6.86069609975000E-07 5.13786886481000E-07 3.83055021458000E-07 2.84295244019000E-07 
2.10026808560000E-07 1.54433827562000E-07 1.13015501501000E-07 8.23050081504000E-08 
5.96446425636000E-08 4.30068184729000E-08 3.08522727592000E-08 2.20182994810000E-08 
1.56310976207000E-08 1.10373832780000E-08 7.75131013522000E-09 5.41349043303000E-09 
3.75952828836000E-09 2.59599010374000E-09 1.78215660101000E-09 1.21624422140000E-09 
8.25061264502000E-10 5.56288261557000E-10 3.72751221590000E-10 2.48199146109000E-10 
1.64209915819000E-10 1.07937288039000E-10 7.04808338265000E-11 4.57142457122000E-11 
2.94486797174000E-11 1.88393420707000E-11 1.19674673784000E-11 7.54788796103000E-12 
4.72589861193000E-12 2.93715739513000E-12 1.81176133765000E-12 1.10905158758000E-12 
6.73634744836000E-13 4.05941150395000E-13 2.42666784963000E-13 1.43882483962000E-13 
8.46050693327000E-14 4.93304527958000E-14 2.85168992891000E-14 1.63416176031000E-14 
9.28173586345000E-15 5.22443681014000E-15 2.91379754690000E-15 1.60998264377000E-15 
8.81162604399000E-16 4.77632514501000E-16 2.56367749981000E-16 1.36236070101000E-16 
7.16648765032000E-17 3.73105172989000E-17 1.92216548568000E-17 9.79732713538000E-18 
4.93973118277000E-18 2.46319146703000E-18 1.21453891498000E-18 5.92053650296000E-19 
2.85274293642000E-19 1.35841537594000E-19 6.39124199457000E-20 2.97053186754000E-20 
1.36358537296000E-20 6.18108962140000E-21 2.76623086811000E-21 1.22203656283000E-21 
5.32809507525000E-22 2.29304911171000E-22 9.74668399968000E-23 4.08955604774000E-23 
1.70348969016000E-23 7.09034110824000E-24 2.82390672808000E-24 1.10827156050000E-24 
4.28498784742000E-25 1.63174869913000E-25 0.00000000000000E+00 0.00000000000000E+00 
0.00000000000000E+00 0.00000000000000E+00 0.00000000000000E+00 0.00000000000000E+00 
0.00000000000000E+00 0.00000000000000E+00 0.00000000000000E+00 0.00000000000000E+00 
0.00000000000000E+00 0.00000000000000E+00 0.00000000000000E+00 0.00000000000000E+00 
0.00000000000000E+00 0.00000000000000E+00 0.00000000000000E+00 0.00000000000000E+00 
0.00000000000000E+00 0.00000000000000E+00 0.00000000000000E+00 0.00000000000000E+00 
0.00000000000000E+00 0.00000000000000E+00 0.00000000000000E+00 0.00000000000000E+00 
0.00000000000000E+00 0.00000000000000E+00 0.00000000000000E+00 0.00000000000000E+00 
0.00000000000000E+00 0.00000000000000E+00 0.00000000000000E+00 0.00000000000000E+00 
0.00000000000000E+00 0.00000000000000E+00 0.00000000000000E+00 0.00000000000000E+00 
0.00000000000000E+00 0.00000000000000E+00 0.00000000000000E+00 0.00000000000000E+00 
0.00000000000000E+00 0.00000000000000E+00 0.00000000000000E+00 0.00000000000000E+00 
0.00000000000000E+00 0.00000000000000E+00 0.00000000000000E+00 0.00000000000000E+00 
0.00000000000000E+00 0.00000000000000E+00 0.00000000000000E+00 0.00000000000000E+00 
0.00000000000000E+00 0.00000000000000E+00 0.00000000000000E+00 0.00000000000000E+00 
0.00000000000000E+00 0.00000000000000E+00 0.00000000000000E+00 0.00000000000000E+00 
0.00000000000000E+00 0.00000000000000E+00 0.00000000000000E+00 0.00000000000000E+00 
0.00000000000000E+00 0.00000000000000E+00 0.00000000000000E+00 0.00000000000000E+00 
0.00000000000000E+00 0.00000000000000E+00 0.00000000000000E+00 0.00000000000000E+00 
0.00000000000000E+00 0.00000000000000E+00 0.00000000000000E+00 0.00000000000000E+00 
0.00000000000000E+00 0.00000000000000E+00 0.00000000000000E+00 0.00000000000000E+00 
0.00000000000000E+00 0.00000000000000E+00 0.00000000000000E+00 0.00000000000000E+00 
0.00000000000000E+00 0.00000000000000E+00 0.00000000000000E+00 0.00000000000000E+00 
0.00000000000000E+00 0.00000000000000E+00 0.00000000000000E+00 0.00000000000000E+00 
0.00000000000000E+00 0.00000000000000E+00 0.00000000000000E+00 0.00000000000000E+00 
0.00000000000000E+00 0.00000000000000E+00 0.00000000000000E+00 0.00000000000000E+00 
0.00000000000000E+00 0.00000000000000E+00 0.00000000000000E+00 0.00000000000000E+00 
0.00000000000000E+00 0.00000000000000E+00 0.00000000000000E+00 0.00000000000000E+00 
0.00000000000000E+00 0.00000000000000E+00 0.00000000000000E+00 0.00000000000000E+00 
0.00000000000000E+00 0.00000000000000E+00 0.00000000000000E+00 0.00000000000000E+00 
0.00000000000000E+00 0.00000000000000E+00 0.00000000000000E+00 0.00000000000000E+00 
0.00000000000000E+00 0.00000000000000E+00 0.00000000000000E+00 0.00000000000000E+00 
0.00000000000000E+00 0.00000000000000E+00 0.00000000000000E+00 0.00000000000000E+00 
0.00000000000000E+00 0.00000000000000E+00 0.00000000000000E+00 0.00000000000000E+00 
0.00000000000000E+00 0.00000000000000E+00 0.00000000000000E+00 0.00000000000000E+00 
0.00000000000000E+00 0.00000000000000E+00 0.00000000000000E+00 0.00000000000000E+00 
0.00000000000000E+00 0.00000000000000E+00 0.00000000000000E+00 0.00000000000000E+00 
0.00000000000000E+00 0.00000000000000E+00 0.00000000000000E+00 0.00000000000000E+00 
0.00000000000000E+00 0.00000000000000E+00 0.00000000000000E+00 0.00000000000000E+00 
0.00000000000000E+00 0.00000000000000E+00 0.00000000000000E+00 0.00000000000000E+00 
0.00000000000000E+00 0.00000000000000E+00 0.00000000000000E+00 0.00000000000000E+00 
0.00000000000000E+00 0.00000000000000E+00 0.00000000000000E+00 0.00000000000000E+00 
0.00000000000000E+00 
</PP_NLCC>
  <PP_LOCAL>
-8.13011080943000E+00 -8.13011080943000E+00 -8.13061310781000E+00 -8.13032524886000E+00 
-8.13039884966000E+00 -8.13039364783000E+00 -8.13039418645000E+00 -8.13039416705000E+00 
-8.13039356352000E+00 -8.13039408816000E+00 -8.13039403591000E+00 -8.13039363857000E+00 
-8.13039408009000E+00 -8.13039406882000E+00 -8.13039379412000E+00 -8.13039387466000E+00 
-8.13039406836000E+00 -8.13039394419000E+00 -8.13039395445000E+00 -8.13039386703000E+00 
-8.13039374581000E+00 -8.13039397179000E+00 -8.13039410818000E+00 -8.13039400376000E+00 
-8.13039380692000E+00 -8.13039393737000E+00 -8.13039400292000E+00 -8.13039385937000E+00 
-8.13039389200000E+00 -8.13039384321000E+00 -8.13039402154000E+00 -8.13039411096000E+00 
-8.13039376083000E+00 -8.13039379115000E+00 -8.13039404698000E+00 -8.13039398395000E+00 
-8.13039386479000E+00 -8.13039397405000E+00 -8.13039395634000E+00 -8.13039383592000E+00 
-8.13039393467000E+00 -8.13039392820000E+00 -8.13039389017000E+00 -8.13039392233000E+00 
-8.13039392164000E+00 -8.13039390793000E+00 -8.13039390860000E+00 -8.13039393809000E+00 
-8.13039388986000E+00 -8.13039391607000E+00 -8.13039391409000E+00 -8.13039387651000E+00 
-8.13039391003000E+00 -8.13039392325000E+00 -8.13039390983000E+00 -8.13039386923000E+00 
-8.13039389797000E+00 -8.13039389687000E+00 -8.13039386206000E+00 -8.13039388696000E+00 
-8.13039390849000E+00 -8.13039389715000E+00 -8.13039384073000E+00 -8.13039383292000E+00 
-8.13039391841000E+00 -8.13039390209000E+00 -8.13039381915000E+00 -8.13039387667000E+00 
-8.13039387982000E+00 -8.13039382422000E+00 -8.13039385509000E+00 -8.13039382919000E+00 
-8.13039382994000E+00 -8.13039385844000E+00 -8.13039381199000E+00 -8.13039382840000E+00 
-8.13039384464000E+00 -8.13039379946000E+00 -8.13039379197000E+00 -8.13039380350000E+00 
-8.13039380976000E+00 -8.13039379078000E+00 -8.13039376607000E+00 -8.13039377499000E+00 
-8.13039378619000E+00 -8.13039375818000E+00 -8.13039373551000E+00 -8.13039375953000E+00 
-8.13039374104000E+00 -8.13039370817000E+00 -8.13039371563000E+00 -8.13039371753000E+00 
-8.13039369805000E+00 -8.13039368133000E+00 -8.13039368345000E+00 -8.13039366485000E+00 
-8.13039364753000E+00 -8.13039364487000E+00 -8.13039363021000E+00 -8.13039361917000E+00 
-8.13039360364000E+00 -8.13039358001000E+00 -8.13039357601000E+00 -8.13039357121000E+00 
-8.13039353984000E+00 -8.13039352040000E+00 -8.13039351642000E+00 -8.13039349659000E+00 
-8.13039346804000E+00 -8.13039345626000E+00 -8.13039344708000E+00 -8.13039341101000E+00 
-8.13039339045000E+00 -8.13039338306000E+00 -8.13039334744000E+00 -8.13039332500000E+00 
-8.13039331132000E+00 -8.13039327598000E+00 -8.13039325030000E+00 -8.13039323151000E+00 
-8.13039319692000E+00 -8.13039316896000E+00 -8.13039313959000E+00 -8.13039310305000E+00 
-8.13039308031000E+00 -8.13039304659000E+00 -8.13039300243000E+00 -8.13039296867000E+00 
-8.13039293760000E+00 -8.13039289648000E+00 -8.13039285524000E+00 -8.13039281743000E+00 
-8.13039277103000E+00 -8.13039272662000E+00 -8.13039267921000E+00 -8.13039263136000E+00 
-8.13039258772000E+00 -8.13039253332000E+00 -8.13039247726000E+00 -8.13039242509000E+00 
-8.13039236908000E+00 -8.13039230954000E+00 -8.13039224777000E+00 -8.13039218409000E+00 
-8.13039211824000E+00 -8.13039205233000E+00 -8.13039198233000E+00 -8.13039190694000E+00 
-8.13039183332000E+00 -8.13039175789000E+00 -8.13039167361000E+00 -8.13039158796000E+00 
-8.13039150485000E+00 -8.13039141547000E+00 -8.13039132228000E+00 -8.13039122673000E+00 
-8.13039112630000E+00 -8.13039102202000E+00 -8.13039091657000E+00 -8.13039080887000E+00 
-8.13039069214000E+00 -8.13039057204000E+00 -8.13039045109000E+00 -8.13039032557000E+00 
-8.13039019511000E+00 -8.13039005727000E+00 -8.13038991708000E+00 -8.13038977281000E+00 
-8.13038962070000E+00 -8.13038946511000E+00 -8.13038930454000E+00 -8.13038913687000E+00 
-8.13038896469000E+00 -8.13038878676000E+00 -8.13038860018000E+00 -8.13038840884000E+00 
-8.13038821161000E+00 -8.13038800666000E+00 -8.13038779385000E+00 -8.13038757310000E+00 
-8.13038734750000E+00 -8.13038711220000E+00 -8.13038686784000E+00 -8.13038661687000E+00 
-8.13038635626000E+00 -8.13038608639000E+00 -8.13038580737000E+00 -8.13038551935000E+00 
-8.13038522011000E+00 -8.13038491062000E+00 -8.13038459149000E+00 -8.13038426061000E+00 
-8.13038391875000E+00 -8.13038356387000E+00 -8.13038319749000E+00 -8.13038281902000E+00 
-8.13038242687000E+00 -8.13038202125000E+00 -8.13038160012000E+00 -8.13038116642000E+00 
-8.13038071814000E+00 -8.13038025278000E+00 -8.13037977193000E+00 -8.13037927422000E+00 
-8.13037875999000E+00 -8.13037822769000E+00 -8.13037767654000E+00 -8.13037710727000E+00 
-8.13037651800000E+00 -8.13037590819000E+00 -8.13037527777000E+00 -8.13037462537000E+00 
-8.13037395056000E+00 -8.13037325268000E+00 -8.13037253059000E+00 -8.13037178392000E+00 
-8.13037101109000E+00 -8.13037021212000E+00 -8.13036938575000E+00 -8.13036853048000E+00 
-8.13036764659000E+00 -8.13036673189000E+00 -8.13036578540000E+00 -8.13036480698000E+00 
-8.13036379495000E+00 -8.13036274791000E+00 -8.13036166502000E+00 -8.13036054524000E+00 
-8.13035938687000E+00 -8.13035818864000E+00 -8.13035694956000E+00 -8.13035566796000E+00 
-8.13035434235000E+00 -8.13035297138000E+00 -8.13035155343000E+00 -8.13035008685000E+00 
-8.13034857012000E+00 -8.13034700145000E+00 -8.13034537920000E+00 -8.13034370136000E+00 
-8.13034196596000E+00 -8.13034017122000E+00 -8.13033831512000E+00 -8.13033639562000E+00 
-8.13033441046000E+00 -8.13033235727000E+00 -8.13033023396000E+00 -8.13032803811000E+00 
-8.13032576724000E+00 -8.13032341865000E+00 -8.13032098974000E+00 -8.13031847803000E+00 
-8.13031588051000E+00 -8.13031319416000E+00 -8.13031041605000E+00 -8.13030754318000E+00 
-8.13030457221000E+00 -8.13030149974000E+00 -8.13029832251000E+00 -8.13029503667000E+00 
-8.13029163879000E+00 -8.13028812497000E+00 -8.13028449120000E+00 -8.13028073359000E+00 
-8.13027684774000E+00 -8.13027282923000E+00 -8.13026867383000E+00 -8.13026437672000E+00 
-8.13025993301000E+00 -8.13025533777000E+00 -8.13025058599000E+00 -8.13024567221000E+00 
-8.13024059092000E+00 -8.13023533643000E+00 -8.13022990300000E+00 -8.13022428429000E+00 
-8.13021847421000E+00 -8.13021246622000E+00 -8.13020625352000E+00 -8.13019982916000E+00 
-8.13019318616000E+00 -8.13018631675000E+00 -8.13017921348000E+00 -8.13017186838000E+00 
-8.13016427315000E+00 -8.13015641932000E+00 -8.13014829820000E+00 -8.13013990055000E+00 
-8.13013121713000E+00 -8.13012223812000E+00 -8.13011295360000E+00 -8.13010335306000E+00 
-8.13009342590000E+00 -8.13008316093000E+00 -8.13007254678000E+00 -8.13006157142000E+00 
-8.13005022280000E+00 -8.13003848808000E+00 -8.13002635429000E+00 -8.13001380771000E+00 
-8.13000083459000E+00 -8.12998742016000E+00 -8.12997354962000E+00 -8.12995920742000E+00 
-8.12994437765000E+00 -8.12992904357000E+00 -8.12991318826000E+00 -8.12989679390000E+00 
-8.12987984235000E+00 -8.12986231451000E+00 -8.12984419102000E+00 -8.12982545145000E+00 
-8.12980607506000E+00 -8.12978604015000E+00 -8.12976532454000E+00 -8.12974390490000E+00 
-8.12972175758000E+00 -8.12969885771000E+00 -8.12967517991000E+00 -8.12965069763000E+00 
-8.12962538375000E+00 -8.12959920989000E+00 -8.12957214709000E+00 -8.12954416493000E+00 
-8.12951523259000E+00 -8.12948531740000E+00 -8.12945438653000E+00 -8.12942240506000E+00 
-8.12938933785000E+00 -8.12935514757000E+00 -8.12931979661000E+00 -8.12928324520000E+00 
-8.12924545313000E+00 -8.12920637776000E+00 -8.12916597612000E+00 -8.12912420280000E+00 
-8.12908101180000E+00 -8.12903635449000E+00 -8.12899018182000E+00 -8.12894244175000E+00 
-8.12889308176000E+00 -8.12884204646000E+00 -8.12878927959000E+00 -8.12873472193000E+00 
-8.12867831339000E+00 -8.12861999061000E+00 -8.12855968941000E+00 -8.12849734209000E+00 
-8.12843288007000E+00 -8.12836623095000E+00 -8.12829732138000E+00 -8.12822607415000E+00 
-8.12815241076000E+00 -8.12807624858000E+00 -8.12799750395000E+00 -8.12791608844000E+00 
-8.12783191263000E+00 -8.12774488199000E+00 -8.12765490100000E+00 -8.12756186875000E+00 
-8.12746568297000E+00 -8.12736623586000E+00 -8.12726341822000E+00 -8.12715711477000E+00 
-8.12704720882000E+00 -8.12693357722000E+00 -8.12681609530000E+00 -8.12669463136000E+00 
-8.12656905222000E+00 -8.12643921719000E+00 -8.12630498390000E+00 -8.12616620207000E+00 
-8.12602271957000E+00 -8.12587437578000E+00 -8.12572100816000E+00 -8.12556244514000E+00 
-8.12539851297000E+00 -8.12522902838000E+00 -8.12505380574000E+00 -8.12487264921000E+00 
-8.12468536047000E+00 -8.12449173033000E+00 -8.12429154689000E+00 -8.12408458664000E+00 
-8.12387062319000E+00 -8.12364941779000E+00 -8.12342072862000E+00 -8.12318430060000E+00 
-8.12293987540000E+00 -8.12268718057000E+00 -8.12242594018000E+00 -8.12215586318000E+00 
-8.12187665483000E+00 -8.12158800433000E+00 -8.12128959681000E+00 -8.12098110034000E+00 
-8.12066217865000E+00 -8.12033247723000E+00 -8.11999163701000E+00 -8.11963927937000E+00 
-8.11927502085000E+00 -8.11889845721000E+00 -8.11850917895000E+00 -8.11810675444000E+00 
-8.11769074649000E+00 -8.11726069423000E+00 -8.11681613090000E+00 -8.11635656454000E+00 
-8.11588149680000E+00 -8.11539040254000E+00 -8.11488274983000E+00 -8.11435797815000E+00 
-8.11381551972000E+00 -8.11325477637000E+00 -8.11267514209000E+00 -8.11207597858000E+00 
-8.11145663918000E+00 -8.11081644280000E+00 -8.11015469947000E+00 -8.10947068254000E+00 
-8.10876365593000E+00 -8.10803284452000E+00 -8.10727746310000E+00 -8.10649668498000E+00 
-8.10568967270000E+00 -8.10485554469000E+00 -8.10399340784000E+00 -8.10310232225000E+00 
-8.10218133569000E+00 -8.10122944621000E+00 -8.10024563868000E+00 -8.09922884523000E+00 
-8.09817798394000E+00 -8.09709191686000E+00 -8.09596949110000E+00 -8.09480949437000E+00 
-8.09361069844000E+00 -8.09237181204000E+00 -8.09109152689000E+00 -8.08976846820000E+00 
-8.08840124279000E+00 -8.08698838702000E+00 -8.08552841783000E+00 -8.08401977764000E+00 
-8.08246088794000E+00 -8.08085009170000E+00 -8.07918570949000E+00 -8.07746597894000E+00 
-8.07568911384000E+00 -8.07385324052000E+00 -8.07195645984000E+00 -8.06999678041000E+00 
-8.06797218390000E+00 -8.06588055471000E+00 -8.06371974867000E+00 -8.06148751906000E+00 
-8.05918158905000E+00 -8.05679957398000E+00 -8.05433905690000E+00 -8.05179750805000E+00 
-8.04917236319000E+00 -8.04646093992000E+00 -8.04366051902000E+00 -8.04076825786000E+00 
-8.03778127456000E+00 -8.03469655830000E+00 -8.03151105649000E+00 -8.02822158238000E+00 
-8.02482490445000E+00 -8.02131765180000E+00 -8.01769640584000E+00 -8.01395760321000E+00 
-8.01009763000000E+00 -8.00611272214000E+00 -8.00199906169000E+00 -7.99775267576000E+00 
-7.99336953391000E+00 -7.98884544606000E+00 -7.98417616065000E+00 -7.97935726229000E+00 
-7.97438426968000E+00 -7.96925253391000E+00 -7.96395733542000E+00 -7.95849378348000E+00 
-7.95285691203000E+00 -7.94704158036000E+00 -7.94104256718000E+00 -7.93485447412000E+00 
-7.92847181595000E+00 -7.92188892866000E+00 -7.91510005448000E+00 -7.90809925572000E+00 
-7.90088049337000E+00 -7.89343754786000E+00 -7.88576408980000E+00 -7.87785360921000E+00 
-7.86969947668000E+00 -7.86129488310000E+00 -7.85263288854000E+00 -7.84370637481000E+00 
-7.83450808026000E+00 -7.82503056674000E+00 -7.81526623791000E+00 -7.80520732319000E+00 
-7.79484587709000E+00 -7.78417378188000E+00 -7.77318272590000E+00 -7.76186422735000E+00 
-7.75020958853000E+00 -7.73820994325000E+00 -7.72585618464000E+00 -7.71313903840000E+00 
-7.70004896157000E+00 -7.68657624392000E+00 -7.67271087563000E+00 -7.65844267872000E+00 
-7.64376114173000E+00 -7.62865558350000E+00 -7.61311495316000E+00 -7.59712802789000E+00 
-7.58068317800000E+00 -7.56376859994000E+00 -7.54637204680000E+00 -7.52848109764000E+00 
-7.51008285520000E+00 -7.49116425217000E+00 -7.47171171938000E+00 -7.45171152949000E+00 
-7.43114944052000E+00 -7.41001107708000E+00 -7.38828155662000E+00 -7.36594590760000E+00 
-7.34298868805000E+00 -7.31939443998000E+00 -7.29514731236000E+00 -7.27023154992000E+00 
-7.24463113497000E+00 -7.21833030761000E+00 -7.19131324161000E+00 -7.16356459033000E+00 
-7.13506921146000E+00 -7.10581272636000E+00 -7.07578130383000E+00 -7.04496220971000E+00 
-7.01334364742000E+00 -6.98091525417000E+00 -6.94766797328000E+00 -6.91359441921000E+00 
-6.87868871890000E+00 -6.84294661687000E+00 -6.80636516982000E+00 -6.76894240017000E+00 
-6.73067667130000E+00 -6.69156564561000E+00 -6.65160514863000E+00 -6.61078721314000E+00 
-6.56909835935000E+00 -6.52651676412000E+00 -6.48301036600000E+00 -6.43853402139000E+00 
-6.39302916742000E+00 -6.34642393305000E+00 -6.29863931556000E+00 -6.24960018437000E+00 
-6.19926035414000E+00 -6.14764160985000E+00 -6.09492896045000E+00 -6.04161083067000E+00 
-5.98811375522000E+00 -5.93429166118000E+00 -5.87987069350000E+00 -5.82485642240000E+00 
-5.76931389417000E+00 -5.71327667787000E+00 -5.65677415119000E+00 -5.59982632261000E+00 
-5.54244353762000E+00 -5.48462311840000E+00 -5.42635012310000E+00 -5.36759563560000E+00 
-5.30831990968000E+00 -5.24847383215000E+00 -5.18800584487000E+00 -5.12686775217000E+00 
-5.06502605964000E+00 -5.00247216743000E+00 -4.93923730849000E+00 -4.87540527697000E+00 
-4.81112717175000E+00 -4.74662877431000E+00 -4.68220761332000E+00 -4.61819654596000E+00 
-4.55486270554000E+00 -4.49217544460000E+00 -4.42938053513000E+00 -4.36382582714000E+00 
-4.29138061481000E+00 -4.21136695295000E+00 -4.12760319149000E+00 -4.04298232032000E+00 
-3.95856072287000E+00 -3.87553075539000E+00 -3.79517029169000E+00 -3.71857912082000E+00 
-3.64665848847000E+00 -3.58013017078000E+00 -3.51971280594000E+00 -3.46081109958000E+00 
-3.40297725854000E+00 -3.34618220837000E+00 -3.29039845122000E+00 -3.23560137373000E+00 
-3.18176630061000E+00 -3.12887065284000E+00 -3.07689232478000E+00 -3.02581088076000E+00 
-2.97560630714000E+00 -2.92625999266000E+00 -2.87775369985000E+00 -2.83007036303000E+00 
-2.78319325022000E+00 -2.73710660467000E+00 -2.69179496995000E+00 -2.64724369936000E+00 
-2.60343841880000E+00 -2.56036542607000E+00 -2.51801126870000E+00 -2.47636305258000E+00 
-2.43540811427000E+00 -2.39513425639000E+00 -2.35552949623000E+00 -2.31658224280000E+00 
-2.27828110629000E+00 -2.24061502936000E+00 -2.20357314425000E+00 -2.16714486895000E+00 
-2.13131980096000E+00 -2.09608778687000E+00 -2.06143884396000E+00 -2.02736321004000E+00 
-1.99385128574000E+00 -1.96089366997000E+00 -1.92848111768000E+00 -1.89660456270000E+00 
-1.86525509236000E+00 -1.83442395990000E+00 -1.80410255710000E+00 -1.77428243868000E+00 
-1.74495529415000E+00 -1.71611296141000E+00 -1.68774741125000E+00 -1.65985075459000E+00 
-1.63241523089000E+00 -1.60543321332000E+00 -1.57889719924000E+00 -1.55279981413000E+00 
-1.52713380362000E+00 -1.50189203630000E+00 -1.47706749717000E+00 -1.45265328944000E+00 
-1.42864262906000E+00 -1.40502884581000E+00 -1.38180537865000E+00 -1.35896577629000E+00 
-1.33650369312000E+00 -1.31441288943000E+00 -1.29268722782000E+00 -1.27132067317000E+00 
-1.25030728929000E+00 -1.22964123891000E+00 -1.20931678040000E+00 -1.18932826762000E+00 
-1.16967014729000E+00 -1.15033695890000E+00 -1.13132333013000E+00 -1.11262397953000E+00 
-1.09423371126000E+00 -1.07614741659000E+00 -1.05836006997000E+00 -1.04086673015000E+00 
-1.02366253625000E+00 -1.00674270902000E+00 -9.90102546933000E-01 -9.73737427457000E-01 
-9.57642803286000E-01 -9.41814203507000E-01 -9.26247230047000E-01 -9.10937558673000E-01 
-8.95880935712000E-01 -8.81073178815000E-01 -8.66510174001000E-01 -8.52187876165000E-01 
-8.38102306430000E-01 -8.24249552417000E-01 -8.10625765894000E-01 -7.97227162823000E-01 
-7.84050021284000E-01 -7.71090681320000E-01 -7.58345543124000E-01 -7.45811066704000E-01 
-7.33483770297000E-01 -7.21360229904000E-01 -7.09437077881000E-01 -6.97711002390000E-01 
-6.86178746133000E-01 -6.74837105735000E-01 -6.63682930613000E-01 -6.52713122304000E-01 
-6.41924633437000E-01 -6.31314467035000E-01 -6.20879675568000E-01 -6.10617360241000E-01 
-6.00524670105000E-01 -5.90598801354000E-01 -5.80836996477000E-01 -5.71236543554000E-01 
-5.61794775471000E-01 -5.52509069210000E-01 -5.43376845091000E-01 -5.34395566098000E-01 
-5.25562737133000E-01 -5.16875904365000E-01 -5.08332654510000E-01 -4.99930614208000E-01 
-4.91667449306000E-01 -4.83540864274000E-01 -4.75548601505000E-01 -4.67688440731000E-01 
-4.59958198393000E-01 -4.52355727030000E-01 -4.44878914671000E-01 -4.37525684284000E-01 
-4.30293993156000E-01 -4.23181832352000E-01 -4.16187226144000E-01 -4.09308231472000E-01 
-4.02542937390000E-01 -3.95889464544000E-01 -3.89345964655000E-01 -3.82910619982000E-01 
-3.76581642847000E-01 -3.70357275116000E-01 -3.64235787718000E-01 -3.58215480164000E-01 
-3.52294680075000E-01 -3.46471742713000E-01 -3.40745050534000E-01 -3.35113012751000E-01 
-3.29574064641000E-01 -3.24126668110000E-01 -3.18769309157000E-01 -3.13500500177000E-01 
-3.08318777284000E-01 -3.03222701135000E-01 -2.98210856101000E-01 -2.93281849955000E-01 
-2.88434313479000E-01 -2.83666900089000E-01 -2.78978285457000E-01 -2.74367167146000E-01 
-2.69832264249000E-01 -2.65372317025000E-01 -2.60986086563000E-01 -2.56672354422000E-01 
-2.52429922306000E-01 -2.48257611721000E-01 -2.44154263657000E-01 -2.40118738256000E-01 
-2.36149914504000E-01 -2.32246689913000E-01 -2.28407980220000E-01 -2.24632719083000E-01 
-2.20919857782000E-01 -2.17268364936000E-01 -2.13677226207000E-01 -2.10145444024000E-01 
-2.06672037307000E-01 -2.03256041186000E-01 -1.99896506745000E-01 -1.96592500747000E-01 
-1.93343105385000E-01 -1.90147418018000E-01 -1.87004550927000E-01 -1.83913631064000E-01 
-1.80873799812000E-01 -1.77884212745000E-01 -1.74944039396000E-01 -1.72052463022000E-01 
-1.69208680381000E-01 -1.66411901508000E-01 -1.63661349493000E-01 -1.60956260270000E-01 
-1.58295882400000E-01 -1.55679476864000E-01 -1.53106316860000E-01 -1.50575687596000E-01 
-1.48086886097000E-01 -1.45639221008000E-01 -1.43232012399000E-01 -1.40864591610000E-01 
-1.38536300866000E-01 -1.36246493633000E-01 -1.33994533650000E-01 -1.31779795407000E-01 
-1.29601663676000E-01 -1.27459533401000E-01 -1.25352809529000E-01 -1.23280906842000E-01 
-1.21243249791000E-01 -1.19239272344000E-01 -1.17268417823000E-01 -1.15330138750000E-01 
-1.13423896698000E-01 -1.11549162139000E-01 -1.09705414297000E-01 -1.07892141004000E-01 
-1.06108838556000E-01 -1.04355011579000E-01 -1.02630172881000E-01 -1.00933843328000E-01 
-9.92655517013000E-02 -9.76248345736000E-02 -9.60112361759000E-02 -9.44243082734000E-02 
-9.28636100393000E-02 -9.13287079337000E-02 -8.98191755821000E-02 -8.83345936577000E-02 
-8.68745497645000E-02 -8.54386383227000E-02 -8.40264604565000E-02 -8.26376238828000E-02 
-8.12717428027000E-02 -7.99284377936000E-02 -7.86073357045000E-02 -7.73080695521000E-02 
-7.60302784187000E-02 -7.47736073524000E-02 -7.35377072678000E-02 -7.23222348497000E-02 
-7.11268524573000E-02 -6.99512280305000E-02 -6.87950349979000E-02 -6.76579521857000E-02 
-6.65396637287000E-02 -6.54398589826000E-02 -6.43582324377000E-02 -6.32944836338000E-02 
-6.22483170769000E-02 -6.12194421572000E-02 -6.02075730683000E-02 -5.92124287278000E-02 
-5.82337326987000E-02 -5.72712131141000E-02 -5.63246026002000E-02 -5.53936382026000E-02 
-5.44780613122000E-02 -5.35776175961000E-02 -5.26920569241000E-02 -5.18211333001000E-02 
-5.09646047951000E-02 -5.01222334780000E-02 -4.92937853499000E-02 -4.84790302804000E-02 
-4.76777419431000E-02 -4.68896977520000E-02 -4.61146787993000E-02 -4.53524697973000E-02 
-4.46028590150000E-02 -4.38656382222000E-02 -4.31406026293000E-02 -4.24275508330000E-02 
-4.17262847578000E-02 -4.10366096024000E-02 -4.03583337855000E-02 -3.96912688925000E-02 
-3.90352296221000E-02 -3.83900337372000E-02 -3.77555020117000E-02 -3.71314581824000E-02 
-3.65177288990000E-02 -3.59141436772000E-02 -3.53205348499000E-02 -3.47367375214000E-02 
-3.41625895219000E-02 -3.35979313617000E-02 -3.30426061871000E-02 -3.24964597375000E-02 
-3.19593403013000E-02 -3.14310986753000E-02 -3.09115881216000E-02 -3.04006643284000E-02 
-2.98981853685000E-02 
</PP_LOCAL>
  <PP_NONLOCAL>
    <PP_BETA.1 index="1" angular_momentum="0" cutoff_radius_index="623">
0.00000000000000E+00 2.74527632614000E-06 5.53673896864000E-06 8.37526047709000E-06 
1.12610928399000E-05 1.41958022389000E-05 1.71796378156000E-05 2.02136407163000E-05 
2.32988453600000E-05 2.64353763914000E-05 2.96249976803000E-05 3.28684646751000E-05 
3.61659362046000E-05 3.95190297521000E-05 4.29288653520000E-05 4.63949051160000E-05 
4.99206210654000E-05 5.35046524584000E-05 5.71490296379000E-05 6.08550054991000E-05 
6.46229848130000E-05 6.84541116012000E-05 7.23501572426000E-05 7.63111592304000E-05 
8.03391036278000E-05 8.44345828373000E-05 8.85987695411000E-05 9.28333442691000E-05 
9.71385240644000E-05 1.01516483558000E-04 1.05967984009000E-04 1.10493855616000E-04 
1.15096548978000E-04 1.19775996176000E-04 1.24534098147000E-04 1.29372658988000E-04 
1.34291856604000E-04 1.39294616518000E-04 1.44380255757000E-04 1.49552719164000E-04 
1.54810847189000E-04 1.60158124321000E-04 1.65595313325000E-04 1.71123420599000E-04 
1.76744563537000E-04 1.82460489186000E-04 1.88272149041000E-04 1.94181383832000E-04 
2.00190599964000E-04 2.06299973183000E-04 2.12512735618000E-04 2.18828995406000E-04 
2.25252587402000E-04 2.31782966674000E-04 2.38424330131000E-04 2.45176117896000E-04 
2.52042101519000E-04 2.59023124995000E-04 2.66122012811000E-04 2.73339314735000E-04 
2.80678837297000E-04 2.88141091236000E-04 2.95728782093000E-04 3.03444598054000E-04 
3.11289428680000E-04 3.19266279170000E-04 3.27377258016000E-04 3.35624811595000E-04 
3.44010491773000E-04 3.52537148994000E-04 3.61207421371000E-04 3.70023588419000E-04 
3.78987171549000E-04 3.88101872857000E-04 3.97369916809000E-04 4.06793502074000E-04 
4.16375384100000E-04 4.26118301238000E-04 4.36025215842000E-04 4.46098462618000E-04 
4.56340988433000E-04 4.66755840227000E-04 4.77345150303000E-04 4.88113333703000E-04 
4.99061526339000E-04 5.10194559917000E-04 5.21514318353000E-04 5.33024224988000E-04 
5.44727526882000E-04 5.56627962084000E-04 5.68727983970000E-04 5.81031443592000E-04 
5.93541702293000E-04 6.06262375220000E-04 6.19196682204000E-04 6.32348164547000E-04 
6.45721155188000E-04 6.59318514536000E-04 6.73144477256000E-04 6.87202877396000E-04 
7.01497589206000E-04 7.16032349047000E-04 7.30811642315000E-04 7.45838955650000E-04 
7.61119164474000E-04 7.76656193349000E-04 7.92453994273000E-04 8.08517577741000E-04 
8.24851109617000E-04 8.41459057090000E-04 8.58346297695000E-04 8.75517019366000E-04 
8.92976602119000E-04 9.10729647366000E-04 9.28780744791000E-04 9.47135594114000E-04 
9.65798674311000E-04 9.84775452942000E-04 1.00407115164000E-03 1.02369135249000E-03 
1.04364091235000E-03 1.06392605770000E-03 1.08455198591000E-03 1.10552471485000E-03 
1.12684956277000E-03 1.14853324523000E-03 1.17058113154000E-03 1.19299946710000E-03 
1.21579478542000E-03 1.23897303693000E-03 1.26254094459000E-03 1.28650475688000E-03 
1.31087163953000E-03 1.33564776530000E-03 1.36084036553000E-03 1.38645637329000E-03 
1.41250292173000E-03 1.43898711587000E-03 1.46591648085000E-03 1.49329839533000E-03 
1.52114060599000E-03 1.54945062598000E-03 1.57823645064000E-03 1.60750607630000E-03 
1.63726765845000E-03 1.66752935705000E-03 1.69829952213000E-03 1.72958723525000E-03 
1.76140026090000E-03 1.79374836880000E-03 1.82663977929000E-03 1.86008430840000E-03 
1.89409062480000E-03 1.92866869880000E-03 1.96382758689000E-03 1.99957781161000E-03 
2.03592848191000E-03 2.07289021715000E-03 2.11047319131000E-03 2.14868766406000E-03 
2.18754453470000E-03 2.22705425433000E-03 2.26722820098000E-03 2.30807717945000E-03 
2.34961271552000E-03 2.39184625790000E-03 2.43478969799000E-03 2.47845472247000E-03 
2.52285373717000E-03 2.56799876325000E-03 2.61390274549000E-03 2.66057793954000E-03 
2.70803767595000E-03 2.75629517399000E-03 2.80536340987000E-03 2.85525662677000E-03 
2.90598796178000E-03 2.95757233842000E-03 3.01002332581000E-03 3.06335598794000E-03 
3.11758485358000E-03 3.17272522764000E-03 3.22879217166000E-03 3.28580150322000E-03 
3.34376882027000E-03 3.40271049925000E-03 3.46264262590000E-03 3.52358209165000E-03 
3.58554560852000E-03 3.64855056388000E-03 3.71261440825000E-03 3.77775481884000E-03 
3.84399012378000E-03 3.91133850246000E-03 3.97981875192000E-03 4.04944992018000E-03 
4.12025127861000E-03 4.19224258695000E-03 4.26544375172000E-03 4.33987508017000E-03 
4.41555748249000E-03 4.49251165174000E-03 4.57075915824000E-03 4.65032175252000E-03 
4.73122139345000E-03 4.81348069694000E-03 4.89712245353000E-03 4.98216982776000E-03 
5.06864663119000E-03 5.15657664930000E-03 5.24598444839000E-03 5.33689491670000E-03 
5.42933308047000E-03 5.52332488449000E-03 5.61889620927000E-03 5.71607377541000E-03 
5.81488447296000E-03 5.91535575107000E-03 6.01751558330000E-03 6.12139225810000E-03 
6.22701468368000E-03 6.33441219493000E-03 6.44361458679000E-03 6.55465222626000E-03 
6.66755596489000E-03 6.78235709932000E-03 6.89908756756000E-03 7.01777977617000E-03 
7.13846670909000E-03 7.26118180193000E-03 7.38595932352000E-03 7.51283368693000E-03 
7.64184034923000E-03 7.77301497293000E-03 7.90639411615000E-03 8.04201471695000E-03 
8.17991456085000E-03 8.32013179239000E-03 8.46270552389000E-03 8.60767521907000E-03 
8.75508118514000E-03 8.90496439267000E-03 9.05736642449000E-03 9.21232961895000E-03 
9.36989698977000E-03 9.53011234894000E-03 9.69302015148000E-03 9.85866563554000E-03 
1.00270947824000E-02 1.01983544868000E-02 1.03724921098000E-02 1.05495561681000E-02 
1.07295957717000E-02 1.09126609075000E-02 1.10988024459000E-02 1.12880720251000E-02 
1.14805222507000E-02 1.16762065477000E-02 1.18751792269000E-02 1.20774955768000E-02 
1.22832117326000E-02 1.24923848361000E-02 1.27050730036000E-02 1.29213351853000E-02 
1.31412315662000E-02 1.33648230588000E-02 1.35921718455000E-02 1.38233410050000E-02 
1.40583946915000E-02 1.42973982155000E-02 1.45404179013000E-02 1.47875212121000E-02 
1.50387767472000E-02 1.52942542684000E-02 1.55540246792000E-02 1.58181600883000E-02 
1.60867338456000E-02 1.63598204576000E-02 1.66374957367000E-02 1.69198367982000E-02 
1.72069219493000E-02 1.74988308780000E-02 1.77956446544000E-02 1.80974455722000E-02 
1.84043174515000E-02 1.87163454255000E-02 1.90336160898000E-02 1.93562174839000E-02 
1.96842391063000E-02 2.00177720174000E-02 2.03569087204000E-02 2.07017433200000E-02 
2.10523715058000E-02 2.14088905054000E-02 2.17713992964000E-02 2.21399983791000E-02 
2.25147900068000E-02 2.28958781716000E-02 2.32833685451000E-02 2.36773686016000E-02 
2.40779876223000E-02 2.44853367006000E-02 2.48995287908000E-02 2.53206787514000E-02 
2.57489033564000E-02 2.61843213212000E-02 2.66270533645000E-02 2.70772222405000E-02 
2.75349526843000E-02 2.80003716288000E-02 2.84736080260000E-02 2.89547930425000E-02 
2.94440600184000E-02 2.99415445270000E-02 3.04473844016000E-02 3.09617197877000E-02 
3.14846931656000E-02 3.20164493790000E-02 3.25571357289000E-02 3.31069019407000E-02 
3.36659002399000E-02 3.42342854245000E-02 3.48122148321000E-02 3.53998484289000E-02 
3.59973489203000E-02 3.66048815975000E-02 3.72226146054000E-02 3.78507188563000E-02 
3.84893681069000E-02 3.91387390077000E-02 3.97990111490000E-02 4.04703671076000E-02 
4.11529925015000E-02 4.18470760346000E-02 4.25528095284000E-02 4.32703880179000E-02 
4.40000097617000E-02 4.47418763058000E-02 4.54961925318000E-02 4.62631667692000E-02 
4.70430107190000E-02 4.78359396570000E-02 4.86421723906000E-02 4.94619313604000E-02 
5.02954426837000E-02 5.11429362058000E-02 5.20046455934000E-02 5.28808083431000E-02 
5.37716658970000E-02 5.46774636557000E-02 5.55984510844000E-02 5.65348817474000E-02 
5.74870133758000E-02 5.84551079489000E-02 5.94394317702000E-02 6.04402554646000E-02 
6.14578541523000E-02 6.24925074282000E-02 6.35444994882000E-02 6.46141191712000E-02 
6.57016600333000E-02 6.68074204395000E-02 6.79317036107000E-02 6.90748177245000E-02 
7.02370759612000E-02 7.14187966156000E-02 7.26203031371000E-02 7.38419242324000E-02 
7.50839939313000E-02 7.63468516942000E-02 7.76308424323000E-02 7.89363166511000E-02 
8.02636305063000E-02 8.16131458825000E-02 8.29852304805000E-02 8.43802579110000E-02 
8.57986077544000E-02 8.72406656917000E-02 8.87068235326000E-02 9.01974793544000E-02 
9.17130375552000E-02 9.32539089603000E-02 9.48205109127000E-02 9.64132673255000E-02 
9.80326088498000E-02 9.96789728681000E-02 1.01352803659000E-01 1.03054552462000E-01 
1.04784677554000E-01 1.06543644371000E-01 1.08331925574000E-01 1.10150001152000E-01 
1.11998358514000E-01 1.13877492577000E-01 1.15787905861000E-01 1.17730108570000E-01 
1.19704618702000E-01 1.21711962119000E-01 1.23752672648000E-01 1.25827292165000E-01 
1.27936370700000E-01 1.30080466484000E-01 1.32260146086000E-01 1.34475984467000E-01 
1.36728565057000E-01 1.39018479877000E-01 1.41346329567000E-01 1.43712723509000E-01 
1.46118279883000E-01 1.48563625734000E-01 1.51049397070000E-01 1.53576238904000E-01 
1.56144805336000E-01 1.58755759616000E-01 1.61409774187000E-01 1.64107530775000E-01 
1.66849720392000E-01 1.69637043434000E-01 1.72470209685000E-01 1.75349938377000E-01 
1.78276958210000E-01 1.81252007387000E-01 1.84275833623000E-01 1.87349194168000E-01 
1.90472855812000E-01 1.93647594873000E-01 1.96874197199000E-01 2.00153458144000E-01 
2.03486182538000E-01 2.06873184650000E-01 2.10315288147000E-01 2.13813326016000E-01 
2.17368140510000E-01 2.20980583055000E-01 2.24651514151000E-01 2.28381803260000E-01 
2.32172328684000E-01 2.36023977410000E-01 2.39937644956000E-01 2.43914235193000E-01 
2.47954660141000E-01 2.52059839755000E-01 2.56230701679000E-01 2.60468180991000E-01 
2.64773219907000E-01 2.69146767475000E-01 2.73589779234000E-01 2.78103216843000E-01 
2.82688047688000E-01 2.87345244449000E-01 2.92075784638000E-01 2.96880650104000E-01 
3.01760826494000E-01 3.06717302680000E-01 3.11751070144000E-01 3.16863122320000E-01 
3.22054453885000E-01 3.27326060010000E-01 3.32678935555000E-01 3.38114074206000E-01 
3.43632467571000E-01 3.49235104197000E-01 3.54922968536000E-01 3.60697039847000E-01 
3.66558291021000E-01 3.72507687335000E-01 3.78546185138000E-01 3.84674730444000E-01 
3.90894257449000E-01 3.97205686953000E-01 4.03609924698000E-01 4.10107859592000E-01 
4.16700361848000E-01 4.23388281000000E-01 4.30172443811000E-01 4.37053652066000E-01 
4.44032680226000E-01 4.51110272966000E-01 4.58287142559000E-01 4.65563966129000E-01 
4.72941382739000E-01 4.80419990334000E-01 4.88000342486000E-01 4.95682945008000E-01 
5.03468252342000E-01 5.11356663759000E-01 5.19348519400000E-01 5.27444096018000E-01 
5.35643602595000E-01 5.43947175628000E-01 5.52354874261000E-01 5.60866675061000E-01 
5.69482466628000E-01 5.78202043805000E-01 5.87025101719000E-01 5.95951229362000E-01 
6.04979903002000E-01 6.14110479095000E-01 6.23342186964000E-01 6.32674121025000E-01 
6.42105232615000E-01 6.51634321475000E-01 6.61260026674000E-01 6.70980817226000E-01 
6.80794982058000E-01 6.90700619648000E-01 7.00695626956000E-01 7.10777687980000E-01 
7.20944261542000E-01 7.31192568663000E-01 7.41519579084000E-01 7.51921997330000E-01 
7.62396247862000E-01 7.72938459666000E-01 7.83544449963000E-01 7.94209707093000E-01 
8.04929372676000E-01 8.15698222677000E-01 8.26510647780000E-01 8.37360632518000E-01 
8.48241733661000E-01 8.59147057260000E-01 8.70069234847000E-01 8.81000398209000E-01 
8.91932153230000E-01 9.02855552195000E-01 9.13761065092000E-01 9.24638549288000E-01 
9.35477218057000E-01 9.46265607573000E-01 9.56991542424000E-01 9.67642099831000E-01 
9.78203572114000E-01 9.88661427988000E-01 9.99000272065000E-01 1.00920380323000E+00 
1.01925477131000E+00 1.02913493281000E+00 1.03882500503000E+00 1.04830461957000E+00 
1.05755227463000E+00 1.06654528704000E+00 1.07525974379000E+00 1.08367045380000E+00 
1.09175090038000E+00 1.09947319469000E+00 1.10680803142000E+00 1.11372464689000E+00 
1.12019078130000E+00 1.12617264552000E+00 1.13163489465000E+00 1.13654060912000E+00 
1.14085128598000E+00 1.14452684181000E+00 1.14752563045000E+00 1.14980447753000E+00 
1.15131873589000E+00 1.15202236449000E+00 1.15186803571000E+00 1.15080727470000E+00 
1.14879063599000E+00 1.14576792273000E+00 1.14168845356000E+00 1.13650138406000E+00 
1.13015608790000E+00 1.12260260504000E+00 1.11379216234000E+00 1.10367777344000E+00 
1.09221492236000E+00 1.07936233612000E+00 1.06508284828000E+00 1.04934435498000E+00 
1.03212086032000E+00 1.01339360582000E+00 9.93152272148000E-01 9.71396236038000E-01 
9.48135857439000E-01 9.23393761745000E-01 8.97206072066000E-01 8.69623531836000E-01 
8.40712444669000E-01 8.10555340160000E-01 7.79251257930000E-01 7.46915522479000E-01 
7.13678865339000E-01 6.79685735219000E-01 6.45091629757000E-01 6.10059283322000E-01 
5.74753565477000E-01 5.39334988861000E-01 5.03951808605000E-01 4.68730834035000E-01 
4.33767288890000E-01 3.99114382520000E-01 3.64773728810000E-01 3.30688430690000E-01 
2.96741604862000E-01 2.62764452817000E-01 2.28559812281000E-01 1.93949616479000E-01 
1.58858053163000E-01 1.23446778463000E-01 8.83242478998000E-02 5.48625608059000E-02 
2.56341314063000E-02 5.30102949336000E-03 -2.73227381133000E-04 0.00000000000000E+00 
0.00000000000000E+00 0.00000000000000E+00 0.00000000000000E+00 0.00000000000000E+00 
0.00000000000000E+00 0.00000000000000E+00 0.00000000000000E+00 0.00000000000000E+00 
0.00000000000000E+00 0.00000000000000E+00 0.00000000000000E+00 0.00000000000000E+00 
0.00000000000000E+00 0.00000000000000E+00 0.00000000000000E+00 0.00000000000000E+00 
0.00000000000000E+00 0.00000000000000E+00 0.00000000000000E+00 0.00000000000000E+00 
0.00000000000000E+00 0.00000000000000E+00 0.00000000000000E+00 0.00000000000000E+00 
0.00000000000000E+00 0.00000000000000E+00 0.00000000000000E+00 0.00000000000000E+00 
0.00000000000000E+00 0.00000000000000E+00 0.00000000000000E+00 0.00000000000000E+00 
0.00000000000000E+00 0.00000000000000E+00 0.00000000000000E+00 0.00000000000000E+00 
0.00000000000000E+00 0.00000000000000E+00 0.00000000000000E+00 0.00000000000000E+00 
0.00000000000000E+00 0.00000000000000E+00 0.00000000000000E+00 0.00000000000000E+00 
0.00000000000000E+00 0.00000000000000E+00 0.00000000000000E+00 0.00000000000000E+00 
0.00000000000000E+00 0.00000000000000E+00 0.00000000000000E+00 0.00000000000000E+00 
0.00000000000000E+00 0.00000000000000E+00 0.00000000000000E+00 0.00000000000000E+00 
0.00000000000000E+00 0.00000000000000E+00 0.00000000000000E+00 0.00000000000000E+00 
0.00000000000000E+00 0.00000000000000E+00 0.00000000000000E+00 0.00000000000000E+00 
0.00000000000000E+00 0.00000000000000E+00 0.00000000000000E+00 0.00000000000000E+00 
0.00000000000000E+00 0.00000000000000E+00 0.00000000000000E+00 0.00000000000000E+00 
0.00000000000000E+00 0.00000000000000E+00 0.00000000000000E+00 0.00000000000000E+00 
0.00000000000000E+00 0.00000000000000E+00 0.00000000000000E+00 0.00000000000000E+00 
0.00000000000000E+00 0.00000000000000E+00 0.00000000000000E+00 0.00000000000000E+00 
0.00000000000000E+00 0.00000000000000E+00 0.00000000000000E+00 0.00000000000000E+00 
0.00000000000000E+00 0.00000000000000E+00 0.00000000000000E+00 0.00000000000000E+00 
0.00000000000000E+00 0.00000000000000E+00 0.00000000000000E+00 0.00000000000000E+00 
0.00000000000000E+00 0.00000000000000E+00 0.00000000000000E+00 0.00000000000000E+00 
0.00000000000000E+00 0.00000000000000E+00 0.00000000000000E+00 0.00000000000000E+00 
0.00000000000000E+00 0.00000000000000E+00 0.00000000000000E+00 0.00000000000000E+00 
0.00000000000000E+00 0.00000000000000E+00 0.00000000000000E+00 0.00000000000000E+00 
0.00000000000000E+00 0.00000000000000E+00 0.00000000000000E+00 0.00000000000000E+00 
0.00000000000000E+00 0.00000000000000E+00 0.00000000000000E+00 0.00000000000000E+00 
0.00000000000000E+00 0.00000000000000E+00 0.00000000000000E+00 0.00000000000000E+00 
0.00000000000000E+00 0.00000000000000E+00 0.00000000000000E+00 0.00000000000000E+00 
0.00000000000000E+00 0.00000000000000E+00 0.00000000000000E+00 0.00000000000000E+00 
0.00000000000000E+00 0.00000000000000E+00 0.00000000000000E+00 0.00000000000000E+00 
0.00000000000000E+00 0.00000000000000E+00 0.00000000000000E+00 0.00000000000000E+00 
0.00000000000000E+00 0.00000000000000E+00 0.00000000000000E+00 0.00000000000000E+00 
0.00000000000000E+00 0.00000000000000E+00 0.00000000000000E+00 0.00000000000000E+00 
0.00000000000000E+00 0.00000000000000E+00 0.00000000000000E+00 0.00000000000000E+00 
0.00000000000000E+00 0.00000000000000E+00 0.00000000000000E+00 0.00000000000000E+00 
0.00000000000000E+00 0.00000000000000E+00 0.00000000000000E+00 0.00000000000000E+00 
0.00000000000000E+00 0.00000000000000E+00 0.00000000000000E+00 0.00000000000000E+00 
0.00000000000000E+00 0.00000000000000E+00 0.00000000000000E+00 0.00000000000000E+00 
0.00000000000000E+00 0.00000000000000E+00 0.00000000000000E+00 0.00000000000000E+00 
0.00000000000000E+00 0.00000000000000E+00 0.00000000000000E+00 0.00000000000000E+00 
0.00000000000000E+00 0.00000000000000E+00 0.00000000000000E+00 0.00000000000000E+00 
0.00000000000000E+00 0.00000000000000E+00 0.00000000000000E+00 0.00000000000000E+00 
0.00000000000000E+00 0.00000000000000E+00 0.00000000000000E+00 0.00000000000000E+00 
0.00000000000000E+00 0.00000000000000E+00 0.00000000000000E+00 0.00000000000000E+00 
0.00000000000000E+00 0.00000000000000E+00 0.00000000000000E+00 0.00000000000000E+00 
0.00000000000000E+00 0.00000000000000E+00 0.00000000000000E+00 0.00000000000000E+00 
0.00000000000000E+00 0.00000000000000E+00 0.00000000000000E+00 0.00000000000000E+00 
0.00000000000000E+00 0.00000000000000E+00 0.00000000000000E+00 0.00000000000000E+00 
0.00000000000000E+00 0.00000000000000E+00 0.00000000000000E+00 0.00000000000000E+00 
0.00000000000000E+00 0.00000000000000E+00 0.00000000000000E+00 0.00000000000000E+00 
0.00000000000000E+00 0.00000000000000E+00 0.00000000000000E+00 0.00000000000000E+00 
0.00000000000000E+00 0.00000000000000E+00 0.00000000000000E+00 0.00000000000000E+00 
0.00000000000000E+00 0.00000000000000E+00 0.00000000000000E+00 0.00000000000000E+00 
0.00000000000000E+00 0.00000000000000E+00 0.00000000000000E+00 0.00000000000000E+00 
0.00000000000000E+00 0.00000000000000E+00 0.00000000000000E+00 0.00000000000000E+00 
0.00000000000000E+00 0.00000000000000E+00 0.00000000000000E+00 0.00000000000000E+00 
0.00000000000000E+00 0.00000000000000E+00 0.00000000000000E+00 0.00000000000000E+00 
0.00000000000000E+00 0.00000000000000E+00 0.00000000000000E+00 0.00000000000000E+00 
0.00000000000000E+00 0.00000000000000E+00 0.00000000000000E+00 0.00000000000000E+00 
0.00000000000000E+00 0.00000000000000E+00 0.00000000000000E+00 0.00000000000000E+00 
0.00000000000000E+00 0.00000000000000E+00 0.00000000000000E+00 0.00000000000000E+00 
0.00000000000000E+00 0.00000000000000E+00 0.00000000000000E+00 0.00000000000000E+00 
0.00000000000000E+00 0.00000000000000E+00 0.00000000000000E+00 0.00000000000000E+00 
0.00000000000000E+00 0.00000000000000E+00 0.00000000000000E+00 0.00000000000000E+00 
0.00000000000000E+00 0.00000000000000E+00 0.00000000000000E+00 0.00000000000000E+00 
0.00000000000000E+00 0.00000000000000E+00 0.00000000000000E+00 0.00000000000000E+00 
0.00000000000000E+00 0.00000000000000E+00 0.00000000000000E+00 0.00000000000000E+00 
0.00000000000000E+00 
</PP_BETA.1>
    <PP_BETA.2 index="2" angular_momentum="1" cutoff_radius_index="623">
0.00000000000000E+00 5.21938544965000E-12 -9.63043402066000E-10 -8.41258764323000E-10 
-8.14956363836000E-10 -7.66803197469000E-10 -7.07700603917000E-10 -6.35985044317000E-10 
-5.51138875382000E-10 -4.52477168292000E-10 -3.39395441936000E-10 -2.11370479034000E-10 
-6.73923395527000E-11 9.30763158642000E-11 2.70638898059000E-10 4.66663927096000E-10 
6.81041549921000E-10 9.15545728158000E-10 1.17045483083000E-09 1.44684428398000E-09 
1.74582251319000E-09 2.06820609477000E-09 2.41495991432000E-09 2.78718013243000E-09 
3.18611297346000E-09 3.61277276332000E-09 4.06830335193000E-09 4.55384309590000E-09 
5.07114005994000E-09 5.62085632394000E-09 6.20470348564000E-09 6.82432258609000E-09 
7.48043557358000E-09 8.17534330027000E-09 8.91043304824000E-09 9.68704401184000E-09 
1.05070112058000E-08 1.13720837613000E-08 1.22847042152000E-08 1.32452387948000E-08 
1.42574907021000E-08 1.53221899306000E-08 1.64416602157000E-08 1.76187607317000E-08 
1.88549952145000E-08 2.01526433184000E-08 2.15153934029000E-08 2.29440677283000E-08 
2.44418287900000E-08 2.60121912540000E-08 2.76570947263000E-08 2.93800110167000E-08 
3.11827446338000E-08 3.30705485957000E-08 3.50437066136000E-08 3.71088069529000E-08 
3.92666927522000E-08 4.15228866649000E-08 4.38788155363000E-08 4.63413341563000E-08 
4.89112042876000E-08 5.15951401435000E-08 5.43963358365000E-08 5.73184808432000E-08 
6.03675086341000E-08 6.35477057665000E-08 6.68636098785000E-08 7.03199516519000E-08 
7.39235314932000E-08 7.76794859898000E-08 8.15902396226000E-08 8.56664989962000E-08 
8.99109052226000E-08 9.43322776143000E-08 9.89331756812000E-08 1.03724889658000E-07 
1.08711330192000E-07 1.13901435614000E-07 1.19300446342000E-07 1.24918320371000E-07 
1.30762712865000E-07 1.36840039378000E-07 1.43160853473000E-07 1.49733776851000E-07 
1.56566529080000E-07 1.63669706778000E-07 1.71053203170000E-07 1.78727406593000E-07 
1.86701689215000E-07 1.94987150827000E-07 2.03596744744000E-07 2.12539415018000E-07 
2.21830337350000E-07 2.31478264549000E-07 2.41499709304000E-07 2.51906027969000E-07 
2.62711336537000E-07 2.73929760854000E-07 2.85577580791000E-07 2.97667900988000E-07 
3.10218250685000E-07 3.23243414944000E-07 3.36762871585000E-07 3.50792183804000E-07 
3.65349833678000E-07 3.80454108180000E-07 3.96126708012000E-07 4.12386269805000E-07 
4.29251665433000E-07 4.46748355449000E-07 4.64895643478000E-07 4.83718348040000E-07 
5.03239369142000E-07 5.23483076354000E-07 5.44477519376000E-07 5.66244290643000E-07 
5.88816235945000E-07 6.12217415224000E-07 6.36481387351000E-07 6.61631436440000E-07 
6.87707447842000E-07 7.14735930388000E-07 7.42752003075000E-07 7.71790079468000E-07 
8.01889448681000E-07 8.33079438071000E-07 8.65406404270000E-07 8.98906606448000E-07 
9.33620403067000E-07 9.69592452006000E-07 1.00686497339000E-06 1.04548467715000E-06 
1.08549656760000E-06 1.12695092004000E-06 1.16989905643000E-06 1.21439183291000E-06 
1.26048135461000E-06 1.30822683592000E-06 1.35768280275000E-06 1.40891257445000E-06 
1.46197137064000E-06 1.51692946136000E-06 1.57385095282000E-06 1.63280145941000E-06 
1.69385443676000E-06 1.75708203229000E-06 1.82256079808000E-06 1.89036257233000E-06 
1.96057855923000E-06 2.03328434263000E-06 2.10856913950000E-06 2.18652133226000E-06 
2.26723381722000E-06 2.35080239934000E-06 2.43732700542000E-06 2.52690487108000E-06 
2.61964778079000E-06 2.71566258242000E-06 2.81506109639000E-06 2.91796245948000E-06 
3.02448548137000E-06 3.13475855145000E-06 3.24890441541000E-06 3.36706551035000E-06 
3.48937246224000E-06 3.61597509977000E-06 3.74701460120000E-06 3.88265047091000E-06 
4.02303319522000E-06 4.16833856665000E-06 4.31871769855000E-06 4.47436647359000E-06 
4.63544925711000E-06 4.80216134395000E-06 4.97469513321000E-06 5.15324802695000E-06 
5.33803388875000E-06 5.52925432733000E-06 5.72714567872000E-06 5.93192536915000E-06 
6.14383576966000E-06 6.36312012459000E-06 6.59003246946000E-06 6.82483142520000E-06 
7.06779428484000E-06 7.31919117077000E-06 7.57932299975000E-06 7.84847884576000E-06 
8.12697717940000E-06 8.41512957138000E-06 8.71327464526000E-06 9.02175024487000E-06 
9.34090871466000E-06 9.67112453555000E-06 1.00127650019000E-05 1.03662311800000E-05 
1.07319207691000E-05 1.11102580227000E-05 1.15016704108000E-05 1.19066113030000E-05 
1.23255351503000E-05 1.27589302355000E-05 1.32072846772000E-05 1.36711122127000E-05 
1.41509429887000E-05 1.46473214771000E-05 1.51608160750000E-05 1.56920102044000E-05 
1.62415086140000E-05 1.68099381286000E-05 1.73979451125000E-05 1.80061955922000E-05 
1.86353869359000E-05 1.92862274245000E-05 1.99594630087000E-05 2.06558500787000E-05 
2.13761891666000E-05 2.21212881346000E-05 2.28919999803000E-05 2.36891932002000E-05 
2.45137746499000E-05 2.53666756008000E-05 2.62488684750000E-05 2.71613426333000E-05 
2.81051395024000E-05 2.90813251267000E-05 3.00909996935000E-05 3.11353130998000E-05 
3.22154377641000E-05 3.33326008883000E-05 3.44880594513000E-05 3.56831247341000E-05 
3.69191418703000E-05 3.81975097212000E-05 3.95196674828000E-05 4.08871108803000E-05 
4.23013796324000E-05 4.37640728471000E-05 4.52768332921000E-05 4.68413735120000E-05 
4.84594529058000E-05 5.01328951765000E-05 5.18635859485000E-05 5.36534721612000E-05 
5.55045746552000E-05 5.74189716130000E-05 5.93988195472000E-05 6.14463462662000E-05 
6.35638594111000E-05 6.57537275881000E-05 6.80184320288000E-05 7.03605032400000E-05 
7.27825813156000E-05 7.52873880043000E-05 7.78777335011000E-05 8.05565330029000E-05 
8.33267922355000E-05 8.61916212296000E-05 8.91542393562000E-05 9.22179705509000E-05 
9.53862532946000E-05 9.86626434014000E-05 1.02050816002000E-04 1.05554574597000E-04 
1.09177841550000E-04 1.12924690403000E-04 1.16799313118000E-04 1.20806058616000E-04 
1.24949414595000E-04 1.29234027289000E-04 1.33664694034000E-04 1.38246380866000E-04 
1.42984219770000E-04 1.47883515734000E-04 1.52949757225000E-04 1.58188613106000E-04 
1.63605952378000E-04 1.69207834424000E-04 1.75000535728000E-04 1.80990526144000E-04 
1.87184519859000E-04 1.93589441684000E-04 2.00212452198000E-04 2.07060966013000E-04 
2.14142634534000E-04 2.21465378745000E-04 2.29037386801000E-04 2.36867120849000E-04 
2.44963332888000E-04 2.53335068676000E-04 2.61991688611000E-04 2.70942857042000E-04 
2.80198579208000E-04 2.89769194236000E-04 2.99665383037000E-04 3.09898207357000E-04 
3.20479089067000E-04 3.31419840727000E-04 3.42732676502000E-04 3.54430223218000E-04 
3.66525541296000E-04 3.79032118214000E-04 3.91963923102000E-04 4.05335370920000E-04 
4.19161388355000E-04 4.33457391446000E-04 4.48239329321000E-04 4.63523683168000E-04 
4.79327501841000E-04 4.95668396345000E-04 5.12564594341000E-04 5.30034923938000E-04 
5.48098860163000E-04 5.66776531213000E-04 5.86088754900000E-04 6.06057043870000E-04 
6.26703648315000E-04 6.48051564861000E-04 6.70124572841000E-04 6.92947254619000E-04 
7.16545024980000E-04 7.40944156146000E-04 7.66171815437000E-04 7.92256085914000E-04 
8.19225992452000E-04 8.47111560689000E-04 8.75943816039000E-04 9.05754837084000E-04 
9.36577790096000E-04 9.68446962851000E-04 1.00139779561000E-03 1.03546693833000E-03 
1.07069226995000E-03 1.10711295213000E-03 1.14476947499000E-03 1.18370369158000E-03 
1.22395886666000E-03 1.26557973678000E-03 1.30861254227000E-03 1.35310507784000E-03 
1.39910677070000E-03 1.44666870515000E-03 1.49584368470000E-03 1.54668630862000E-03 
1.59925300862000E-03 1.65360212657000E-03 1.70979396598000E-03 1.76789087146000E-03 
1.82795728571000E-03 1.89005982419000E-03 1.95426735131000E-03 2.02065104613000E-03 
2.08928449484000E-03 2.16024375642000E-03 2.23360744666000E-03 2.30945684455000E-03 
2.38787594909000E-03 2.46895159479000E-03 2.55277353445000E-03 2.63943454266000E-03 
2.72903051235000E-03 2.82166055752000E-03 2.91742713162000E-03 3.01643611924000E-03 
3.11879697097000E-03 3.22462280649000E-03 3.33403054663000E-03 3.44714102871000E-03 
3.56407915699000E-03 3.68497400080000E-03 3.80995898192000E-03 3.93917197229000E-03 
4.07275547212000E-03 4.21085674347000E-03 4.35362798314000E-03 4.50122647596000E-03 
4.65381476218000E-03 4.81156081658000E-03 4.97463821906000E-03 5.14322635192000E-03 
5.31751056954000E-03 5.49768241961000E-03 5.68393982189000E-03 5.87648729536000E-03 
6.07553615723000E-03 6.28130476725000E-03 6.49401872780000E-03 6.71391114669000E-03 
6.94122286192000E-03 7.17620270611000E-03 7.41910775117000E-03 7.67020359449000E-03 
7.92976460863000E-03 8.19807424966000E-03 8.47542533074000E-03 8.76212033128000E-03 
9.05847170507000E-03 9.36480219900000E-03 9.68144518114000E-03 1.00087449845000E-02 
1.03470572287000E-02 1.06967492397000E-02 1.10582003389000E-02 1.14318022836000E-02 
1.18179596364000E-02 1.22170901568000E-02 1.26296252382000E-02 1.30560103067000E-02 
1.34967052817000E-02 1.39521850063000E-02 1.44229397195000E-02 1.49094755291000E-02 
1.54123148895000E-02 1.59319971162000E-02 1.64690788896000E-02 1.70241347742000E-02 
1.75977577872000E-02 1.81905599187000E-02 1.88031727180000E-02 1.94362478793000E-02 
2.00904578309000E-02 2.07664963439000E-02 2.14650791765000E-02 2.21869446867000E-02 
2.29328545199000E-02 2.37035942491000E-02 2.44999740902000E-02 2.53228295751000E-02 
2.61730222893000E-02 2.70514405912000E-02 2.79590003521000E-02 2.88966457431000E-02 
2.98653499654000E-02 3.08661160848000E-02 3.18999777973000E-02 3.29680002743000E-02 
3.40712809657000E-02 3.52109504645000E-02 3.63881733475000E-02 3.76041490436000E-02 
3.88601127161000E-02 4.01573361406000E-02 4.14971286117000E-02 4.28808378382000E-02 
4.43098508628000E-02 4.57855949681000E-02 4.73095386280000E-02 4.88831923904000E-02 
5.05081098460000E-02 5.21858885383000E-02 5.39181708847000E-02 5.57066451202000E-02 
5.75530461971000E-02 5.94591566996000E-02 6.14268077492000E-02 6.34578798850000E-02 
6.55543039279000E-02 6.77180618462000E-02 6.99511875697000E-02 7.22557677979000E-02 
7.46339427544000E-02 7.70879069744000E-02 7.96199099218000E-02 8.22322567262000E-02 
8.49273087301000E-02 8.77074840784000E-02 9.05752581977000E-02 9.35331642236000E-02 
9.65837933745000E-02 9.97297952065000E-02 1.02973877850000E-01 1.06318808066000E-01 
1.09767411295000E-01 1.13322571532000E-01 1.16987231116000E-01 1.20764390381000E-01 
1.24657107207000E-01 1.28668496369000E-01 1.32801728791000E-01 1.37060030613000E-01 
1.41446682067000E-01 1.45965016234000E-01 1.50618417486000E-01 1.55410319881000E-01 
1.60344205224000E-01 1.65423600866000E-01 1.70652077481000E-01 1.76033246238000E-01 
1.81570756107000E-01 1.87268290489000E-01 1.93129563937000E-01 1.99158318195000E-01 
2.05358318314000E-01 2.11733348032000E-01 2.18287205224000E-01 2.25023696588000E-01 
2.31946632394000E-01 2.39059820429000E-01 2.46367059923000E-01 2.53872134878000E-01 
2.61578806963000E-01 2.69490808228000E-01 2.77611833044000E-01 2.85945530006000E-01 
2.94495492995000E-01 3.03265252197000E-01 3.12258264274000E-01 3.21477902467000E-01 
3.30927445840000E-01 3.40610068470000E-01 3.50528827715000E-01 3.60686652454000E-01 
3.71086330399000E-01 3.81730495243000E-01 3.92621613120000E-01 4.03761968460000E-01 
4.15153649543000E-01 4.26798533083000E-01 4.38698268606000E-01 4.50854261683000E-01 
4.63267656897000E-01 4.75939319530000E-01 4.88869816764000E-01 5.02059397453000E-01 
5.15507971130000E-01 5.29215085265000E-01 5.43179901419000E-01 5.57401169210000E-01 
5.71877198571000E-01 5.86605829440000E-01 6.01584398637000E-01 6.16809703775000E-01 
6.32277963053000E-01 6.47984771150000E-01 6.63925049669000E-01 6.80092992255000E-01 
6.96482002620000E-01 7.13084625428000E-01 7.29892468054000E-01 7.46896112924000E-01 
7.64085018289000E-01 7.81447406903000E-01 7.98970140239000E-01 8.16638577470000E-01 
8.34436417023000E-01 8.52345519150000E-01 8.70345708175000E-01 8.88414552119000E-01 
9.06527119023000E-01 9.24655707735000E-01 9.42769553103000E-01 9.60834503950000E-01 
9.78812674828000E-01 9.96662071215000E-01 1.01433619082000E+00 1.03178360287000E+00 
1.04894751060000E+00 1.06576530231000E+00 1.08216809981000E+00 1.09808031480000E+00 
1.11341922688000E+00 1.12809460094000E+00 1.14200836409000E+00 1.15505436878000E+00 
1.16711827103000E+00 1.17807756036000E+00 1.18780178090000E+00 1.19615299094000E+00 
1.20298651110000E+00 1.20815201820000E+00 1.21149504333000E+00 1.21285893669000E+00 
1.21208735916000E+00 1.20902735838000E+00 1.20353307684000E+00 1.19547012500000E+00 
1.18472062955000E+00 1.17118893212000E+00 1.15480786976000E+00 1.13554550472000E+00 
1.11341209484000E+00 1.08846699389000E+00 1.06082505211000E+00 1.03066194013000E+00 
9.98217654504000E-01 9.63797275283000E-01 9.27767852569000E-01 8.90550106967000E-01 
8.52603472037000E-01 8.14402919172000E-01 7.76406053171000E-01 7.39009239755000E-01 
7.02492154691000E-01 6.66951321546000E-01 6.32225190317000E-01 5.97816479807000E-01 
5.62822367864000E-01 5.25890374096000E-01 4.85228391420000E-01 4.38712592221000E-01 
3.84158597088000E-01 3.19851847006000E-01 2.45474448394000E-01 1.63634401017000E-01 
8.21859874069000E-02 1.85810044186000E-02 -8.69424503698000E-04 0.00000000000000E+00 
0.00000000000000E+00 0.00000000000000E+00 0.00000000000000E+00 0.00000000000000E+00 
0.00000000000000E+00 0.00000000000000E+00 0.00000000000000E+00 0.00000000000000E+00 
0.00000000000000E+00 0.00000000000000E+00 0.00000000000000E+00 0.00000000000000E+00 
0.00000000000000E+00 0.00000000000000E+00 0.00000000000000E+00 0.00000000000000E+00 
0.00000000000000E+00 0.00000000000000E+00 0.00000000000000E+00 0.00000000000000E+00 
0.00000000000000E+00 0.00000000000000E+00 0.00000000000000E+00 0.00000000000000E+00 
0.00000000000000E+00 0.00000000000000E+00 0.00000000000000E+00 0.00000000000000E+00 
0.00000000000000E+00 0.00000000000000E+00 0.00000000000000E+00 0.00000000000000E+00 
0.00000000000000E+00 0.00000000000000E+00 0.00000000000000E+00 0.00000000000000E+00 
0.00000000000000E+00 0.00000000000000E+00 0.00000000000000E+00 0.00000000000000E+00 
0.00000000000000E+00 0.00000000000000E+00 0.00000000000000E+00 0.00000000000000E+00 
0.00000000000000E+00 0.00000000000000E+00 0.00000000000000E+00 0.00000000000000E+00 
0.00000000000000E+00 0.00000000000000E+00 0.00000000000000E+00 0.00000000000000E+00 
0.00000000000000E+00 0.00000000000000E+00 0.00000000000000E+00 0.00000000000000E+00 
0.00000000000000E+00 0.00000000000000E+00 0.00000000000000E+00 0.00000000000000E+00 
0.00000000000000E+00 0.00000000000000E+00 0.00000000000000E+00 0.00000000000000E+00 
0.00000000000000E+00 0.00000000000000E+00 0.00000000000000E+00 0.00000000000000E+00 
0.00000000000000E+00 0.00000000000000E+00 0.00000000000000E+00 0.00000000000000E+00 
0.00000000000000E+00 0.00000000000000E+00 0.00000000000000E+00 0.00000000000000E+00 
0.00000000000000E+00 0.00000000000000E+00 0.00000000000000E+00 0.00000000000000E+00 
0.00000000000000E+00 0.00000000000000E+00 0.00000000000000E+00 0.00000000000000E+00 
0.00000000000000E+00 0.00000000000000E+00 0.00000000000000E+00 0.00000000000000E+00 
0.00000000000000E+00 0.00000000000000E+00 0.00000000000000E+00 0.00000000000000E+00 
0.00000000000000E+00 0.00000000000000E+00 0.00000000000000E+00 0.00000000000000E+00 
0.00000000000000E+00 0.00000000000000E+00 0.00000000000000E+00 0.00000000000000E+00 
0.00000000000000E+00 0.00000000000000E+00 0.00000000000000E+00 0.00000000000000E+00 
0.00000000000000E+00 0.00000000000000E+00 0.00000000000000E+00 0.00000000000000E+00 
0.00000000000000E+00 0.00000000000000E+00 0.00000000000000E+00 0.00000000000000E+00 
0.00000000000000E+00 0.00000000000000E+00 0.00000000000000E+00 0.00000000000000E+00 
0.00000000000000E+00 0.00000000000000E+00 0.00000000000000E+00 0.00000000000000E+00 
0.00000000000000E+00 0.00000000000000E+00 0.00000000000000E+00 0.00000000000000E+00 
0.00000000000000E+00 0.00000000000000E+00 0.00000000000000E+00 0.00000000000000E+00 
0.00000000000000E+00 0.00000000000000E+00 0.00000000000000E+00 0.00000000000000E+00 
0.00000000000000E+00 0.00000000000000E+00 0.00000000000000E+00 0.00000000000000E+00 
0.00000000000000E+00 0.00000000000000E+00 0.00000000000000E+00 0.00000000000000E+00 
0.00000000000000E+00 0.00000000000000E+00 0.00000000000000E+00 0.00000000000000E+00 
0.00000000000000E+00 0.00000000000000E+00 0.00000000000000E+00 0.00000000000000E+00 
0.00000000000000E+00 0.00000000000000E+00 0.00000000000000E+00 0.00000000000000E+00 
0.00000000000000E+00 0.00000000000000E+00 0.00000000000000E+00 0.00000000000000E+00 
0.00000000000000E+00 0.00000000000000E+00 0.00000000000000E+00 0.00000000000000E+00 
0.00000000000000E+00 0.00000000000000E+00 0.00000000000000E+00 0.00000000000000E+00 
0.00000000000000E+00 0.00000000000000E+00 0.00000000000000E+00 0.00000000000000E+00 
0.00000000000000E+00 0.00000000000000E+00 0.00000000000000E+00 0.00000000000000E+00 
0.00000000000000E+00 0.00000000000000E+00 0.00000000000000E+00 0.00000000000000E+00 
0.00000000000000E+00 0.00000000000000E+00 0.00000000000000E+00 0.00000000000000E+00 
0.00000000000000E+00 0.00000000000000E+00 0.00000000000000E+00 0.00000000000000E+00 
0.00000000000000E+00 0.00000000000000E+00 0.00000000000000E+00 0.00000000000000E+00 
0.00000000000000E+00 0.00000000000000E+00 0.00000000000000E+00 0.00000000000000E+00 
0.00000000000000E+00 0.00000000000000E+00 0.00000000000000E+00 0.00000000000000E+00 
0.00000000000000E+00 0.00000000000000E+00 0.00000000000000E+00 0.00000000000000E+00 
0.00000000000000E+00 0.00000000000000E+00 0.00000000000000E+00 0.00000000000000E+00 
0.00000000000000E+00 0.00000000000000E+00 0.00000000000000E+00 0.00000000000000E+00 
0.00000000000000E+00 0.00000000000000E+00 0.00000000000000E+00 0.00000000000000E+00 
0.00000000000000E+00 0.00000000000000E+00 0.00000000000000E+00 0.00000000000000E+00 
0.00000000000000E+00 0.00000000000000E+00 0.00000000000000E+00 0.00000000000000E+00 
0.00000000000000E+00 0.00000000000000E+00 0.00000000000000E+00 0.00000000000000E+00 
0.00000000000000E+00 0.00000000000000E+00 0.00000000000000E+00 0.00000000000000E+00 
0.00000000000000E+00 0.00000000000000E+00 0.00000000000000E+00 0.00000000000000E+00 
0.00000000000000E+00 0.00000000000000E+00 0.00000000000000E+00 0.00000000000000E+00 
0.00000000000000E+00 0.00000000000000E+00 0.00000000000000E+00 0.00000000000000E+00 
0.00000000000000E+00 0.00000000000000E+00 0.00000000000000E+00 0.00000000000000E+00 
0.00000000000000E+00 0.00000000000000E+00 0.00000000000000E+00 0.00000000000000E+00 
0.00000000000000E+00 0.00000000000000E+00 0.00000000000000E+00 0.00000000000000E+00 
0.00000000000000E+00 0.00000000000000E+00 0.00000000000000E+00 0.00000000000000E+00 
0.00000000000000E+00 0.00000000000000E+00 0.00000000000000E+00 0.00000000000000E+00 
0.00000000000000E+00 0.00000000000000E+00 0.00000000000000E+00 0.00000000000000E+00 
0.00000000000000E+00 0.00000000000000E+00 0.00000000000000E+00 0.00000000000000E+00 
0.00000000000000E+00 0.00000000000000E+00 0.00000000000000E+00 0.00000000000000E+00 
0.00000000000000E+00 0.00000000000000E+00 0.00000000000000E+00 0.00000000000000E+00 
0.00000000000000E+00 0.00000000000000E+00 0.00000000000000E+00 0.00000000000000E+00 
0.00000000000000E+00 0.00000000000000E+00 0.00000000000000E+00 0.00000000000000E+00 
0.00000000000000E+00 
</PP_BETA.2>
    <PP_BETA.3 index="3" angular_momentum="2" cutoff_radius_index="623">
0.00000000000000E+00 2.72833317117000E-17 1.98610584423000E-11 1.82901976538000E-11 
1.88373267627000E-11 1.91822356669000E-11 1.95535860593000E-11 1.99289171601000E-11 
2.03105027743000E-11 2.06981668439000E-11 2.10919639609000E-11 2.14920320995000E-11 
2.18982728475000E-11 2.23108224289000E-11 2.27297301405000E-11 2.31548414771000E-11 
2.35865473132000E-11 2.40244680589000E-11 2.44688454269000E-11 2.49197043388000E-11 
2.53769017722000E-11 2.58404644652000E-11 2.63106052117000E-11 2.67868960808000E-11 
2.72697113752000E-11 2.77588019513000E-11 2.82540027880000E-11 2.87557291567000E-11 
2.92630851174000E-11 2.97769058339000E-11 3.02965311214000E-11 3.08217127249000E-11 
3.13530497031000E-11 3.18897304667000E-11 3.24314992887000E-11 3.29789481152000E-11 
3.35309487660000E-11 3.40883845781000E-11 3.46491601655000E-11 3.52158833761000E-11 
3.57847126944000E-11 3.63584185837000E-11 3.69352919435000E-11 3.75147776205000E-11 
3.80963645158000E-11 3.86814955295000E-11 3.92657873681000E-11 3.98528607516000E-11 
4.04406173302000E-11 4.10270745175000E-11 4.16132673800000E-11 4.21973935085000E-11 
4.27805476792000E-11 4.33581696613000E-11 4.39356130942000E-11 4.45043176059000E-11 
4.50693663363000E-11 4.56257844849000E-11 4.61767869945000E-11 4.67144644695000E-11 
4.72456564221000E-11 4.77613259661000E-11 4.82645222898000E-11 4.87545882665000E-11 
4.92254777222000E-11 4.96768035835000E-11 5.01110540959000E-11 5.05207118824000E-11 
5.09051189238000E-11 5.12601246673000E-11 5.15929101120000E-11 5.18871302991000E-11 
5.21484728611000E-11 5.23691333624000E-11 5.25552618896000E-11 5.26929441837000E-11 
5.27813651211000E-11 5.28193832782000E-11 5.28053550046000E-11 5.27288882474000E-11 
5.25850949619000E-11 5.23793761778000E-11 5.20952906215000E-11 5.17324253780000E-11 
5.12854388278000E-11 5.07505169746000E-11 5.01166821431000E-11 4.93777979521000E-11 
4.85291083604000E-11 4.75678471846000E-11 4.64723350489000E-11 4.52523673489000E-11 
4.38773562191000E-11 4.23690652597000E-11 4.06797080969000E-11 3.88300195077000E-11 
3.67940899906000E-11 3.45651595052000E-11 3.21269489758000E-11 2.94691809900000E-11 
2.65821819098000E-11 2.34492018459000E-11 2.00459445460000E-11 1.63654787010000E-11 
1.23951093549000E-11 8.11267632661000E-12 3.49012834361000E-12 -1.48509733036000E-12 
-6.82032987675000E-12 -1.25629896893000E-11 -1.87178492639000E-11 -2.53254861868000E-11 
-3.23830835596000E-11 -3.99554556556000E-11 -4.80474643425000E-11 -5.66919899014000E-11 
-6.59245973598000E-11 -7.57851238233000E-11 -8.63026736102000E-11 -9.75020403904000E-11 
-1.09452178864000E-10 -1.22176440708000E-10 -1.35715788113000E-10 -1.50121605215000E-10 
-1.65467940920000E-10 -1.81744143697000E-10 -1.99065982937000E-10 -2.17470259537000E-10 
-2.37003362632000E-10 -2.57758389018000E-10 -2.79769979181000E-10 -3.03138832337000E-10 
-3.27901749895000E-10 -3.54178796596000E-10 -3.82034962893000E-10 -4.11554594630000E-10 
-4.42824785646000E-10 -4.75969024380000E-10 -5.11046765478000E-10 -5.48220362171000E-10 
-5.87528249962000E-10 -6.29153470726000E-10 -6.73229064724000E-10 -7.19810966964000E-10 
-7.69121513451000E-10 -8.21253093182000E-10 -8.76417604879000E-10 -9.34658011785000E-10 
-9.96305149423000E-10 -1.06143568029000E-09 -1.13025569734000E-09 -1.20298440207000E-09 
-1.27981591187000E-09 -1.36097121005000E-09 -1.44673308611000E-09 -1.53722153549000E-09 
-1.63284169952000E-09 -1.73378238530000E-09 -1.84035001500000E-09 -1.95284292936000E-09 
-2.07156899922000E-09 -2.19691255268000E-09 -2.32912058473000E-09 -2.46866619939000E-09 
-2.61589489254000E-09 -2.77123416115000E-09 -2.93507560660000E-09 -3.10793826482000E-09 
-3.29019869324000E-09 -3.48252694118000E-09 -3.68517433716000E-09 -3.89907322757000E-09 
-4.12446789368000E-09 -4.36213908672000E-09 -4.61276462470000E-09 -4.87687858979000E-09 
-5.15544586204000E-09 -5.44885086494000E-09 -5.75829610688000E-09 -6.08432008602000E-09 
-6.42797601305000E-09 -6.79007863238000E-09 -7.17169363097000E-09 -7.57374720050000E-09 
-7.99745983778000E-09 -8.44373764075000E-09 -8.91406755703000E-09 -9.40944764614000E-09 
-9.93138004922000E-09 -1.04811417396000E-08 -1.10602341684000E-08 -1.16702602450000E-08 
-1.23126262665000E-08 -1.29893556118000E-08 -1.37019535997000E-08 -1.44524804982000E-08 
-1.52428263545000E-08 -1.60751364068000E-08 -1.69515407820000E-08 -1.78744521750000E-08 
-1.88460789947000E-08 -1.98692829412000E-08 -2.09465112926000E-08 -2.20806779390000E-08 
-2.32747742688000E-08 -2.45318258640000E-08 -2.58552692048000E-08 -2.72484497311000E-08 
-2.87149909543000E-08 -3.02588121215000E-08 -3.18839367964000E-08 -3.35944032246000E-08 
-3.53949661780000E-08 -3.72900415687000E-08 -3.92847812449000E-08 -4.13840173386000E-08 
-4.35936576850000E-08 -4.59190651437000E-08 -4.83664187352000E-08 -5.09420560511000E-08 
-5.36525698772000E-08 -5.65050314074000E-08 -5.95068798543000E-08 -6.26655578036000E-08 
-6.59895906119000E-08 -6.94874468060000E-08 -7.31679237526000E-08 -7.70408371049000E-08 
-8.11159028715000E-08 -8.54037635828000E-08 -8.99152511140000E-08 -9.46621950812000E-08 
-9.96566542291000E-08 -1.04911594200000E-07 -1.10440265095000E-07 -1.16256966364000E-07 
-1.22376740050000E-07 -1.28815213860000E-07 -1.35588518742000E-07 -1.42714618214000E-07 
-1.50211351715000E-07 -1.58097958647000E-07 -1.66394645159000E-07 -1.75122617876000E-07 
-1.84304238351000E-07 -1.93962819029000E-07 -2.04123138006000E-07 -2.14810993294000E-07 
-2.26054154580000E-07 -2.37880058755000E-07 -2.50320569079000E-07 -2.63406044521000E-07 
-2.77170281955000E-07 -2.91648734237000E-07 -3.06877243386000E-07 -3.22895779914000E-07 
-3.39744287118000E-07 -3.57465775744000E-07 -3.76105498258000E-07 -3.95710670548000E-07 
-4.16331298175000E-07 -4.38019519504000E-07 -4.60830483401000E-07 -4.84822516764000E-07 
-5.10055457273000E-07 -5.36594730588000E-07 -5.64506746723000E-07 -5.93862477597000E-07 
-6.24736527372000E-07 -6.57207037052000E-07 -6.91356383539000E-07 -7.27270797168000E-07 
-7.65041881503000E-07 -8.04764534213000E-07 -8.46540023530000E-07 -8.90473604941000E-07 
-9.36676710389000E-07 -9.85266221702000E-07 -1.03636548046000E-06 -1.09010223812000E-06 
-1.14661439382000E-06 -1.20604352684000E-06 -1.26854033133000E-06 -1.33426249018000E-06 
-1.40337650300000E-06 -1.47605636085000E-06 -1.55248610659000E-06 -1.63285871628000E-06 
-1.71737696051000E-06 -1.80625426417000E-06 -1.89971499032000E-06 -1.99799508894000E-06 
-2.10134228888000E-06 -2.21001786566000E-06 -2.32429465365000E-06 -2.44446245841000E-06 
-2.57082357053000E-06 -2.70369654600000E-06 -2.84341602919000E-06 -2.99033496933000E-06 
-3.14482292983000E-06 -3.30726934234000E-06 -3.47808385156000E-06 -3.65769591964000E-06 
-3.84655891672000E-06 -4.04514765135000E-06 -4.25396266985000E-06 -4.47352907829000E-06 
-4.70440117970000E-06 -4.94715697829000E-06 -5.20241074119000E-06 -5.47080306373000E-06 
-5.75300933961000E-06 -6.04973971520000E-06 -6.36174087564000E-06 -6.68979682114000E-06 
-7.03473318821000E-06 -7.39741689998000E-06 -7.77876030622000E-06 -8.17972123324000E-06 
-8.60130911809000E-06 -9.04458162074000E-06 -9.51065395142000E-06 -1.00006981335000E-05 
-1.05159417598000E-05 -1.10576840935000E-05 -1.16272830146000E-05 -1.22261700563000E-05 
-1.28558489228000E-05 -1.35179014709000E-05 -1.42139897832000E-05 -1.49458616605000E-05 
-1.57153542422000E-05 -1.65243992817000E-05 -1.73750276940000E-05 -1.82693744114000E-05 
-1.92096823756000E-05 -2.01983129907000E-05 -2.12377472912000E-05 -2.23305880429000E-05 
-2.34795831576000E-05 -2.46876108488000E-05 -2.59577017185000E-05 -2.72930408783000E-05 
-2.86969762191000E-05 -3.01730296423000E-05 -3.17248988271000E-05 -3.33564774960000E-05 
-3.50718516013000E-05 -3.68753240072000E-05 -3.87714115555000E-05 -4.07648674197000E-05 
-4.28606852667000E-05 -4.50641187370000E-05 -4.73806804454000E-05 -4.98161823087000E-05 
-5.23767188319000E-05 -5.50687030451000E-05 -5.78988776957000E-05 -6.08743273165000E-05 
-6.40025026785000E-05 -6.72912338251000E-05 -7.07487533142000E-05 -7.43837133575000E-05 
-7.82052126221000E-05 -8.22228123947000E-05 -8.64465641092000E-05 -9.08870351811000E-05 
-9.55553355975000E-05 -1.00463133513000E-04 -1.05622711842000E-04 -1.11046968271000E-04 
-1.16749463760000E-04 -1.22744456677000E-04 -1.29046929310000E-04 -1.35672636703000E-04 
-1.42638134256000E-04 -1.49960826649000E-04 -1.57659008158000E-04 -1.65751909653000E-04 
-1.74259742176000E-04 -1.83203753612000E-04 -1.92606275009000E-04 -2.02490781345000E-04 
-2.12881939825000E-04 -2.23805693005000E-04 -2.35289291340000E-04 -2.47361389568000E-04 
-2.60052097816000E-04 -2.73393070325000E-04 -2.87417571251000E-04 -3.02160566490000E-04 
-3.17658805477000E-04 -3.33950910058000E-04 -3.51077478285000E-04 -3.69081172104000E-04 
-3.88006831367000E-04 -4.07901584468000E-04 -4.28814957506000E-04 -4.50799009218000E-04 
-4.73908424930000E-04 -4.98200720642000E-04 -5.23736293115000E-04 -5.50578644929000E-04 
-5.78794499765000E-04 -6.08453971497000E-04 -6.39630752064000E-04 -6.72402269847000E-04 
-7.06849892580000E-04 -7.43059125014000E-04 -7.81119813618000E-04 -8.21126363504000E-04 
-8.63177977251000E-04 -9.07378890190000E-04 -9.53838624702000E-04 -1.00267224018000E-03 
-1.05400066577000E-03 -1.10795091639000E-03 -1.16465645393000E-03 -1.22425750216000E-03 
-1.28690136629000E-03 -1.35274280295000E-03 -1.42194439122000E-03 -1.49467691985000E-03 
-1.57111979459000E-03 -1.65146147753000E-03 -1.73589992705000E-03 -1.82464307411000E-03 
-1.91790932409000E-03 -2.01592807028000E-03 -2.11894021586000E-03 -2.22719881461000E-03 
-2.34096957426000E-03 -2.46053155623000E-03 -2.58617779669000E-03 -2.71821600878000E-03 
-2.85696929498000E-03 -3.00277690662000E-03 -3.15599502539000E-03 -3.31699760268000E-03 
-3.48617722151000E-03 -3.66394598025000E-03 -3.85073648626000E-03 -4.04700279284000E-03 
-4.25322148583000E-03 -4.46989270796000E-03 -4.69754137704000E-03 -4.93671827610000E-03 
-5.18800134906000E-03 -5.45199697885000E-03 -5.72934132235000E-03 -6.02070172995000E-03 
-6.32677822326000E-03 -6.64830499017000E-03 -6.98605202136000E-03 -7.34082674854000E-03 
-7.71347578410000E-03 -8.10488672412000E-03 -8.51599002573000E-03 -8.94776096303000E-03 
-9.40122161083000E-03 -9.87744307746000E-03 -1.03775474978000E-02 -1.09027104952000E-02 
-1.14541633926000E-02 -1.20331957208000E-02 -1.26411577378000E-02 -1.32794629682000E-02 
-1.39495909918000E-02 -1.46530901208000E-02 -1.53915803405000E-02 -1.61667561872000E-02 
-1.69803898065000E-02 -1.78343340577000E-02 -1.87305256471000E-02 -1.96709884025000E-02 
-2.06578366194000E-02 -2.16932783410000E-02 -2.27796188313000E-02 -2.39192640658000E-02 
-2.51147240994000E-02 -2.63686167903000E-02 -2.76836709690000E-02 -2.90627303073000E-02 
-3.05087565944000E-02 -3.20248329461000E-02 -3.36141676622000E-02 -3.52800966938000E-02 
-3.70260875416000E-02 -3.88557412482000E-02 -4.07727959837000E-02 -4.27811284725000E-02 
-4.48847570281000E-02 -4.70878422558000E-02 -4.93946892823000E-02 -5.18097474093000E-02 
-5.43376113075000E-02 -5.69830193869000E-02 -5.97508531832000E-02 -6.26461347655000E-02 
-6.56740231056000E-02 -6.88398103037000E-02 -7.21489147883000E-02 -7.56068750556000E-02 
-7.92193395831000E-02 -8.29920570375000E-02 -8.69308622272000E-02 -9.10416619099000E-02 
-9.53304157070000E-02 -9.98031165619000E-02 -1.04465765449000E-01 -1.09324345082000E-01 
-1.14384787384000E-01 -1.19652938446000E-01 -1.25134517899000E-01 -1.30835072665000E-01 
-1.36759926590000E-01 -1.42914121531000E-01 -1.49302354315000E-01 -1.55928903456000E-01 
-1.62797550697000E-01 -1.69911491068000E-01 -1.77273236259000E-01 -1.84884504990000E-01 
-1.92746105536000E-01 -2.00857803337000E-01 -2.09218179420000E-01 -2.17824472335000E-01 
-2.26672408728000E-01 -2.35756017482000E-01 -2.45067428234000E-01 -2.54596655165000E-01 
-2.64331361436000E-01 -2.74256609139000E-01 -2.84354588423000E-01 -2.94604331944000E-01 
-3.04981408197000E-01 -3.15457600478000E-01 -3.26000565874000E-01 -3.36573481574000E-01 
-3.47134673566000E-01 -3.57637236693000E-01 -3.68028641877000E-01 -3.78250340244000E-01 
-3.88237364453000E-01 -3.97917933635000E-01 -4.07213070900000E-01 -4.16036236491000E-01 
-4.24292992183000E-01 -4.31880700693000E-01 -4.38688280852000E-01 -4.44596024557000E-01 
-4.49475500999000E-01 -4.53189558541000E-01 -4.55592453596000E-01 -4.56530121970000E-01 
-4.55840626696000E-01 -4.53354802284000E-01 -4.48897132898000E-01 -4.42286891069000E-01 
-4.33339571987000E-01 -4.21868659005000E-01 -4.07687748979000E-01 -3.90613075649000E-01 
-3.70466453206000E-01 -3.47078670749000E-01 -3.20293347286000E-01 -2.89971260955000E-01 
-2.55995137621000E-01 -2.18274882142000E-01 -1.76753197482000E-01 -1.31411525605000E-01 
-8.22761956052000E-02 -2.94246402390000E-02 2.70085150653000E-02 8.68257310865000E-02 
1.49761498768000E-01 2.15478313169000E-01 2.83564094783000E-01 3.53531551936000E-01 
4.24820020074000E-01 4.96800374826000E-01 5.68783624114000E-01 6.40033792136000E-01 
7.09785638553000E-01 7.77267648615000E-01 8.41730508712000E-01 9.02480968159000E-01 
9.58920508404000E-01 1.01058759676000E+00 1.05720143424000E+00 1.09870399293000E+00 
1.13529576319000E+00 1.16745896580000E+00 1.19596009231000E+00 1.22182156487000E+00 
1.24625026537000E+00 1.27050894663000E+00 1.29571565113000E+00 1.32255700526000E+00 
1.35090490571000E+00 1.37933450615000E+00 1.40455732382000E+00 1.42081068067000E+00 
1.41928932381000E+00 1.38777506137000E+00 1.31010831841000E+00 1.19446702512000E+00 
1.02916432621000E+00 8.05884348328000E-01 5.31072218945000E-01 2.40383515062000E-01 
3.25294652790000E-02 -2.37210621688000E-03 0.00000000000000E+00 0.00000000000000E+00 
0.00000000000000E+00 0.00000000000000E+00 0.00000000000000E+00 0.00000000000000E+00 
0.00000000000000E+00 0.00000000000000E+00 0.00000000000000E+00 0.00000000000000E+00 
0.00000000000000E+00 0.00000000000000E+00 0.00000000000000E+00 0.00000000000000E+00 
0.00000000000000E+00 0.00000000000000E+00 0.00000000000000E+00 0.00000000000000E+00 
0.00000000000000E+00 0.00000000000000E+00 0.00000000000000E+00 0.00000000000000E+00 
0.00000000000000E+00 0.00000000000000E+00 0.00000000000000E+00 0.00000000000000E+00 
0.00000000000000E+00 0.00000000000000E+00 0.00000000000000E+00 0.00000000000000E+00 
0.00000000000000E+00 0.00000000000000E+00 0.00000000000000E+00 0.00000000000000E+00 
0.00000000000000E+00 0.00000000000000E+00 0.00000000000000E+00 0.00000000000000E+00 
0.00000000000000E+00 0.00000000000000E+00 0.00000000000000E+00 0.00000000000000E+00 
0.00000000000000E+00 0.00000000000000E+00 0.00000000000000E+00 0.00000000000000E+00 
0.00000000000000E+00 0.00000000000000E+00 0.00000000000000E+00 0.00000000000000E+00 
0.00000000000000E+00 0.00000000000000E+00 0.00000000000000E+00 0.00000000000000E+00 
0.00000000000000E+00 0.00000000000000E+00 0.00000000000000E+00 0.00000000000000E+00 
0.00000000000000E+00 0.00000000000000E+00 0.00000000000000E+00 0.00000000000000E+00 
0.00000000000000E+00 0.00000000000000E+00 0.00000000000000E+00 0.00000000000000E+00 
0.00000000000000E+00 0.00000000000000E+00 0.00000000000000E+00 0.00000000000000E+00 
0.00000000000000E+00 0.00000000000000E+00 0.00000000000000E+00 0.00000000000000E+00 
0.00000000000000E+00 0.00000000000000E+00 0.00000000000000E+00 0.00000000000000E+00 
0.00000000000000E+00 0.00000000000000E+00 0.00000000000000E+00 0.00000000000000E+00 
0.00000000000000E+00 0.00000000000000E+00 0.00000000000000E+00 0.00000000000000E+00 
0.00000000000000E+00 0.00000000000000E+00 0.00000000000000E+00 0.00000000000000E+00 
0.00000000000000E+00 0.00000000000000E+00 0.00000000000000E+00 0.00000000000000E+00 
0.00000000000000E+00 0.00000000000000E+00 0.00000000000000E+00 0.00000000000000E+00 
0.00000000000000E+00 0.00000000000000E+00 0.00000000000000E+00 0.00000000000000E+00 
0.00000000000000E+00 0.00000000000000E+00 0.00000000000000E+00 0.00000000000000E+00 
0.00000000000000E+00 0.00000000000000E+00 0.00000000000000E+00 0.00000000000000E+00 
0.00000000000000E+00 0.00000000000000E+00 0.00000000000000E+00 0.00000000000000E+00 
0.00000000000000E+00 0.00000000000000E+00 0.00000000000000E+00 0.00000000000000E+00 
0.00000000000000E+00 0.00000000000000E+00 0.00000000000000E+00 0.00000000000000E+00 
0.00000000000000E+00 0.00000000000000E+00 0.00000000000000E+00 0.00000000000000E+00 
0.00000000000000E+00 0.00000000000000E+00 0.00000000000000E+00 0.00000000000000E+00 
0.00000000000000E+00 0.00000000000000E+00 0.00000000000000E+00 0.00000000000000E+00 
0.00000000000000E+00 0.00000000000000E+00 0.00000000000000E+00 0.00000000000000E+00 
0.00000000000000E+00 0.00000000000000E+00 0.00000000000000E+00 0.00000000000000E+00 
0.00000000000000E+00 0.00000000000000E+00 0.00000000000000E+00 0.00000000000000E+00 
0.00000000000000E+00 0.00000000000000E+00 0.00000000000000E+00 0.00000000000000E+00 
0.00000000000000E+00 0.00000000000000E+00 0.00000000000000E+00 0.00000000000000E+00 
0.00000000000000E+00 0.00000000000000E+00 0.00000000000000E+00 0.00000000000000E+00 
0.00000000000000E+00 0.00000000000000E+00 0.00000000000000E+00 0.00000000000000E+00 
0.00000000000000E+00 0.00000000000000E+00 0.00000000000000E+00 0.00000000000000E+00 
0.00000000000000E+00 0.00000000000000E+00 0.00000000000000E+00 0.00000000000000E+00 
0.00000000000000E+00 0.00000000000000E+00 0.00000000000000E+00 0.00000000000000E+00 
0.00000000000000E+00 0.00000000000000E+00 0.00000000000000E+00 0.00000000000000E+00 
0.00000000000000E+00 0.00000000000000E+00 0.00000000000000E+00 0.00000000000000E+00 
0.00000000000000E+00 0.00000000000000E+00 0.00000000000000E+00 0.00000000000000E+00 
0.00000000000000E+00 0.00000000000000E+00 0.00000000000000E+00 0.00000000000000E+00 
0.00000000000000E+00 0.00000000000000E+00 0.00000000000000E+00 0.00000000000000E+00 
0.00000000000000E+00 0.00000000000000E+00 0.00000000000000E+00 0.00000000000000E+00 
0.00000000000000E+00 0.00000000000000E+00 0.00000000000000E+00 0.00000000000000E+00 
0.00000000000000E+00 0.00000000000000E+00 0.00000000000000E+00 0.00000000000000E+00 
0.00000000000000E+00 0.00000000000000E+00 0.00000000000000E+00 0.00000000000000E+00 
0.00000000000000E+00 0.00000000000000E+00 0.00000000000000E+00 0.00000000000000E+00 
0.00000000000000E+00 0.00000000000000E+00 0.00000000000000E+00 0.00000000000000E+00 
0.00000000000000E+00 0.00000000000000E+00 0.00000000000000E+00 0.00000000000000E+00 
0.00000000000000E+00 0.00000000000000E+00 0.00000000000000E+00 0.00000000000000E+00 
0.00000000000000E+00 0.00000000000000E+00 0.00000000000000E+00 0.00000000000000E+00 
0.00000000000000E+00 0.00000000000000E+00 0.00000000000000E+00 0.00000000000000E+00 
0.00000000000000E+00 0.00000000000000E+00 0.00000000000000E+00 0.00000000000000E+00 
0.00000000000000E+00 0.00000000000000E+00 0.00000000000000E+00 0.00000000000000E+00 
0.00000000000000E+00 0.00000000000000E+00 0.00000000000000E+00 0.00000000000000E+00 
0.00000000000000E+00 0.00000000000000E+00 0.00000000000000E+00 0.00000000000000E+00 
0.00000000000000E+00 0.00000000000000E+00 0.00000000000000E+00 0.00000000000000E+00 
0.00000000000000E+00 0.00000000000000E+00 0.00000000000000E+00 0.00000000000000E+00 
0.00000000000000E+00 0.00000000000000E+00 0.00000000000000E+00 0.00000000000000E+00 
0.00000000000000E+00 0.00000000000000E+00 0.00000000000000E+00 0.00000000000000E+00 
0.00000000000000E+00 0.00000000000000E+00 0.00000000000000E+00 0.00000000000000E+00 
0.00000000000000E+00 0.00000000000000E+00 0.00000000000000E+00 0.00000000000000E+00 
0.00000000000000E+00 0.00000000000000E+00 0.00000000000000E+00 0.00000000000000E+00 
0.00000000000000E+00 
</PP_BETA.3>
    <PP_DIJ>
8.03292047320000E+00 0.00000000000000E+00 0.00000000000000E+00 
0.00000000000000E+00 5.21132867028000E+00 0.00000000000000E+00 
0.00000000000000E+00 0.00000000000000E+00 4.94336150768000E-01 
</PP_DIJ>
    <PP_AUGMENTATION q_with_l="T" nqf="0">
      <PP_Q size="9">
2.26462968402000E-01 0.00000000000000E+00 0.00000000000000E+00 
0.00000000000000E+00 2.47341487809000E-01 0.00000000000000E+00 
0.00000000000000E+00 0.00000000000000E+00 1.46567921171000E-01 
</PP_Q>
      <PP_QIJL.1.1.0 angular_momentum="0" first_index="1" second_index="1" composite_index="1" is_null="F">
0.00000000000000E+00 3.30649393529224E-11 1.34491897871242E-10 3.07728093100227E-10 
5.56356578893941E-10 8.84101168790128E-10 1.29483153163797E-09 1.79256846538818E-09 
2.38148935520028E-09 3.06593382214238E-09 3.85040956920265E-09 4.73959843118154E-09 
5.73836263544984E-09 6.85175128130268E-09 8.08500704492291E-09 9.44357311744091E-09 
1.09331003849815E-08 1.25594548585049E-08 1.43287253619345E-08 1.62472314869597E-08 
1.83215318257689E-08 2.05584324875129E-08 2.29649959128788E-08 2.55485499924696E-08 
2.83166975026317E-08 3.12773258684447E-08 3.44386172644461E-08 3.78090590662693E-08 
4.13974546632632E-08 4.52129346461342E-08 4.92649683819303E-08 5.35633759888913E-08 
5.81183407259984E-08 6.29404218104931E-08 6.80405676788186E-08 7.34301297050942E-08 
7.91208763944223E-08 8.51250080651092E-08 9.14551720384735E-08 9.81244783527351E-08 
1.05146516018421E-07 1.12535369835162E-07 1.20305637788406E-07 1.28472449043621E-07 
1.37051482563579E-07 1.46058986365232E-07 1.55511797439012E-07 1.65427362356425E-07 
1.75823758583980E-07 1.86719716533107E-07 1.98134642366671E-07 2.10088641591769E-07 
2.22602543460681E-07 2.35697926215266E-07 2.49397143192918E-07 2.63723349841680E-07 
2.78700531631948E-07 2.94353532987754E-07 3.10708087134191E-07 3.27790847027194E-07 
3.45629417336626E-07 3.64252387481312E-07 3.83689365877437E-07 4.03971015286259E-07 
4.25129089400930E-07 4.47196470718574E-07 4.70207209665136E-07 4.94196565070098E-07 
5.19201046059149E-07 5.45258455359370E-07 5.72407934061123E-07 6.00690007972757E-07 
6.30146635506337E-07 6.60821257256928E-07 6.92758847210016E-07 7.26005965772040E-07 
7.60610814575923E-07 7.96623293168093E-07 8.34095057632249E-07 8.73079581223878E-07 
9.13632217093181E-07 9.55810263111299E-07 9.99673028952966E-07 1.04528190547679E-06 
1.09270043640943E-06 1.14199439256942E-06 1.19323184856754E-06 1.24648326215743E-06 
1.30182155626229E-06 1.35932220386584E-06 1.41906331570859E-06 1.48112573107399E-06 
1.54559311163448E-06 1.61255203846733E-06 1.68209211243150E-06 1.75430605795953E-06 
1.82928983039097E-06 1.90714272693910E-06 1.98796750146456E-06 2.07187048322808E-06 
2.15896169953395E-06 2.24935500274177E-06 2.34316820147116E-06 2.44052319635249E-06 
2.54154612040662E-06 2.64636748412951E-06 2.75512232567314E-06 2.86795036594697E-06 
2.98499616923791E-06 3.10640930907787E-06 3.23234453989568E-06 3.36296197455455E-06 
3.49842726775703E-06 3.63891180594110E-06 3.78459290341766E-06 3.93565400530164E-06 
4.09228489743707E-06 4.25468192323703E-06 4.42304820817845E-06 4.59759389171406E-06 
4.77853636723081E-06 4.96610053012271E-06 5.16051903424384E-06 5.36203255726393E-06 
5.57089007487394E-06 5.78734914444745E-06 6.01167619827187E-06 6.24414684675848E-06 
6.48504619213934E-06 6.73466915258868E-06 6.99332079750479E-06 7.26131669426065E-06 
7.53898326657211E-06 7.82665816523600E-06 8.12469065130899E-06 8.43344199260754E-06 
8.75328587319504E-06 9.08460881741716E-06 9.42781062780569E-06 9.78330483823596E-06 
1.01515191822936E-05 1.05328960776242E-05 1.09278931268706E-05 1.13369836354356E-05 
1.17606571469470E-05 1.21994199969920E-05 1.26537958854269E-05 1.31243264686000E-05 
1.36115719711557E-05 1.41161118190444E-05 1.46385452938192E-05 1.51794922093225E-05 
1.57395936112200E-05 1.63195125003649E-05 1.69199345808350E-05 1.75415690331918E-05 
1.81851493142406E-05 1.88514339837775E-05 1.95412075594208E-05 2.02552814006863E-05 
2.09944946228099E-05 2.17597150419210E-05 2.25518401519955E-05 2.33717981351837E-05 
2.42205489064080E-05 2.50990851941009E-05 2.60084336550703E-05 2.69496560321393E-05 
2.79238503448492E-05 2.89321521260225E-05 2.99757356981104E-05 3.10558154915284E-05 
3.21736474106859E-05 3.33305302428172E-05 3.45278071193075E-05 3.57668670217817E-05 
3.70491463435000E-05 3.83761304986223E-05 3.97493555921558E-05 4.11704101444043E-05 
4.26409368689841E-05 4.41626345200041E-05 4.57372597943757E-05 4.73666293024793E-05 
4.90526216064038E-05 5.07971793232066E-05 5.26023113041822E-05 5.44700948866213E-05 
5.64026782174100E-05 5.84022826653641E-05 6.04712053049177E-05 6.26118214903405E-05 
6.48265875162242E-05 6.71180433670139E-05 6.94888155608840E-05 7.19416200887184E-05 
7.44792654546120E-05 7.71046558180158E-05 7.98207942442666E-05 8.26307860628427E-05 
8.55378423403164E-05 8.85452834755752E-05 9.16565429077759E-05 9.48751709570653E-05 
9.82048387963633E-05 1.01649342550777E-04 1.05212607545273E-04 1.08898692688061E-04 
1.12711795006921E-04 1.16656254338694E-04 1.20736558178058E-04 1.24957346689818E-04 
1.29323417892313E-04 1.33839733013223E-04 1.38511422032402E-04 1.43343789405629E-04 
1.48342319993669E-04 1.53512685176698E-04 1.58860749187149E-04 1.64392575655503E-04 
1.70114434378497E-04 1.76032808308148E-04 1.82154400789248E-04 1.88486143035895E-04 
1.95035201862633E-04 2.01808987676008E-04 2.08815162739317E-04 2.16061649716975E-04 
2.23556640504859E-04 2.31308605364734E-04 2.39326302362766E-04 2.47618787134021E-04 
2.56195422971883E-04 2.65065891263788E-04 2.74240202270656E-04 2.83728706288539E-04 
2.93542105171608E-04 3.03691464249112E-04 3.14188224658403E-04 3.25044216075548E-04 
3.36271669885377E-04 3.47883232811796E-04 3.59891980974950E-04 3.72311434463553E-04 
3.85155572372133E-04 3.98438848353136E-04 4.12176206709440E-04 4.26383099008197E-04 
4.41075501270184E-04 4.56269931748720E-04 4.71983469280252E-04 4.88233772296263E-04 
5.05039098434318E-04 5.22418324849001E-04 5.40390969185683E-04 5.58977211276198E-04 
5.78197915555672E-04 5.98074654247203E-04 6.18629731326148E-04 6.39886207289499E-04 
6.61867924769146E-04 6.84599535002255E-04 7.08106525196800E-04 7.32415246832528E-04 
7.57552944897045E-04 7.83547788121640E-04 8.10428900231583E-04 8.38226392255162E-04 
8.66971395915299E-04 8.96696098162184E-04 9.27433776835350E-04 9.59218837573956E-04 
9.92086851937463E-04 1.02607459682049E-03 1.06122009518938E-03 1.09756265820611E-03 
1.13514292875353E-03 1.17400292643001E-03 1.21418609405862E-03 1.25573734576410E-03 
1.29870311665526E-03 1.34313141420371E-03 1.38907187130771E-03 1.43657580116660E-03 
1.48569625400108E-03 1.53648807566472E-03 1.58900796822666E-03 1.64331455258225E-03 
1.69946843316956E-03 1.75753226486073E-03 1.81757082206621E-03 1.87965107020175E-03 
1.94384223950443E-03 2.01021590133138E-03 2.07884604703168E-03 2.14980916941338E-03 
2.22318434698243E-03 2.29905333095394E-03 2.37750063518360E-03 2.45861362913396E-03 
2.54248263378962E-03 2.62920102114288E-03 2.71886531640607E-03 2.81157530416502E-03 
2.90743413789588E-03 3.00654845289520E-03 3.10902848331019E-03 3.21498818276761E-03 
3.32454534925265E-03 3.43782175393759E-03 3.55494327435951E-03 3.67604003197390E-03 
3.80124653428000E-03 3.93070182154208E-03 4.06454961867763E-03 4.20293849174544E-03 
4.34602200965539E-03 4.49395891166187E-03 4.64691327966627E-03 4.80505471663237E-03 
4.96855853093320E-03 5.13760592612165E-03 5.31238419787094E-03 5.49308693629776E-03 
5.67991423586837E-03 5.87307291141608E-03 6.07277672137794E-03 6.27924659871916E-03 
6.49271088871828E-03 6.71340559480086E-03 6.94157463245177E-03 7.17747009079947E-03 
7.42135250322869E-03 7.67349112657568E-03 7.93416422880210E-03 8.20365938641130E-03 
8.48227379140227E-03 8.77031456767662E-03 9.06809909760499E-03 9.37595535933647E-03 
9.69422227432986E-03 1.00232500659398E-02 1.03634006298723E-02 1.07150479152830E-02 
1.10785783190779E-02 1.14543910913999E-02 1.18428987544051E-02 1.22445275338948E-02 
1.26597178042408E-02 1.30889245475123E-02 1.35326178258647E-02 1.39912832690694E-02 
1.44654225770547E-02 1.49555540370226E-02 1.54622130568964E-02 1.59859527144635E-02 
1.65273443233164E-02 1.70869780155210E-02 1.76654633412690E-02 1.82634298869327E-02 
1.88815279109457E-02 1.95204289981534E-02 2.01808267331718E-02 2.08634373938681E-02 
2.15690006634640E-02 2.22982803639876E-02 2.30520652099882E-02 2.38311695840631E-02 
2.46364343323947E-02 2.54687275842149E-02 2.63289455918910E-02 2.72180135956296E-02 
2.81368867090011E-02 2.90865508304709E-02 3.00680235770408E-02 3.10823552426611E-02 
3.21306297817750E-02 3.32139658165772E-02 3.43335176698881E-02 3.54904764242849E-02 
3.66860710048202E-02 3.79215692891882E-02 3.91982792429713E-02 4.05175500809059E-02 
4.18807734541822E-02 4.32893846635393E-02 4.47448638984325E-02 4.62487375019147E-02 
4.78025792603483E-02 4.94080117198891E-02 5.10667075253830E-02 5.27803907863917E-02 
5.45508384642329E-02 5.63798817844436E-02 5.82694076699286E-02 6.02213601955010E-02 
6.22377420638933E-02 6.43206160987007E-02 6.64721067570009E-02 6.86944016565062E-02 
7.09897531170280E-02 7.33604797142248E-02 7.58089678444247E-02 7.83376732946662E-02 
8.09491228192456E-02 8.36459157174341E-02 8.64307254092059E-02 8.93063010072161E-02 
9.22754688768292E-02 9.53411341858919E-02 9.85062824329735E-02 1.01773980954479E-01 
1.05147380401515E-01 1.08629716181424E-01 1.12224309857232E-01 1.15934570498364E-01 
1.19763995974099E-01 1.23716174180904E-01 1.27794784196007E-01 1.32003597346692E-01 
1.36346478182207E-01 1.40827385342450E-01 1.45450372305001E-01 1.50219588001901E-01 
1.55139277287689E-01 1.60213781249379E-01 1.65447537335520E-01 1.70845079289850E-01 
1.76411036873364E-01 1.82150135348661E-01 1.88067194711803E-01 1.94167128642573E-01 
2.00454943155239E-01 2.06935734916167E-01 2.13614689207566E-01 2.20497077506347E-01 
2.27588254638526E-01 2.34893655496857E-01 2.42418791255754E-01 2.50169245065727E-01 
2.58150667202295E-01 2.66368769588881E-01 2.74829319672684E-01 2.83538133611385E-01 
2.92501068721582E-01 3.01724015089083E-01 3.11212886389541E-01 3.20973609723967E-01 
3.31012114556333E-01 3.41334320539242E-01 3.51946124307235E-01 3.62853385054785E-01 
3.74061908869137E-01 3.85577431757396E-01 3.97405601262975E-01 4.09551956604051E-01 
4.22021907221598E-01 4.34820709706831E-01 4.47953442936241E-01 4.61424981394740E-01 
4.75239966541542E-01 4.89402776146615E-01 5.03917491457075E-01 5.18787862186327E-01 
5.34017269069184E-01 5.49608684018661E-01 5.65564627746735E-01 5.81887124627221E-01 
5.98577654905946E-01 6.15637103982717E-01 6.33065708717700E-01 6.50863000709451E-01 
6.69027746426421E-01 6.87557884067391E-01 7.06450457166921E-01 7.25701544810522E-01 
7.45306188425966E-01 7.65258315119874E-01 7.85550657569972E-01 8.06174670411760E-01 
8.27120443189912E-01 8.48376609867417E-01 8.69930255096289E-01 8.91766817171500E-01 
9.13869987954361E-01 9.36221609970269E-01 9.58801570741504E-01 9.81587694873705E-01 
1.00455563404689E+00 1.02767875543985E+00 1.05092802898362E+00 1.07427191402680E+00 
1.09767624605685E+00 1.12110412413151E+00 1.14451579991486E+00 1.16786856917794E+00 
1.19111666675426E+00 1.21421116618102E+00 1.23709988519202E+00 1.25972729850404E+00 
1.28203445937847E+00 1.30395893162033E+00 1.32543473386427E+00 1.34639229798282E+00 
1.36675844380514E+00 1.38645637231350E+00 1.40540567969742E+00 1.42352239477062E+00 
1.44071904236003E+00 1.45690473542104E+00 1.47198529864351E+00 1.48586342651699E+00 
1.49843887871240E+00 1.50960871576161E+00 1.51926757792073E+00 1.52730801005865E+00 
1.53362083523913E+00 1.53809557952347E+00 1.54062095023587E+00 1.54108536958936E+00 
1.53937756519285E+00 1.53538721844367E+00 1.52900567124140E+00 1.52012669079026E+00 
1.50864729152325E+00 1.49446861232799E+00 1.47749684642958E+00 1.45764422025668E+00 
1.43483001676987E+00 1.40898163770668E+00 1.38003569834365E+00 1.34793914756454E+00 
1.31265040543996E+00 1.27414051010230E+00 1.23239426560793E+00 1.18741138287832E+00 
1.13920760657294E+00 1.08781582212072E+00 1.03328713917216E+00 9.75691950522127E-01 
9.15120968631612E-01 8.51686246202045E-01 7.85522191210649E-01 7.16786591460138E-01 
6.45661667469147E-01 5.72355175361851E-01 4.97101581686065E-01 4.20163328897907E-01 
3.41832201042175E-01 2.62430782377081E-01 1.82313973720374E-01 1.01870489387647E-01 
2.15241980117373E-02 -5.82649098931628E-02 -1.37000448716571E-01 -2.14150507892696E-01 
-2.89150262884576E-01 -3.61407083557021E-01 -4.30309045118377E-01 -4.95237845502514E-01 
-5.55587116546189E-01 -6.10786875574491E-01 -6.60334230288163E-01 -7.03829161598297E-01 
-7.41011873322041E-01 -7.71794229523666E-01 -7.96271342531888E-01 -8.14689181111647E-01 
-8.27328611710000E-01 -8.34349953287000E-01 -8.35876194778000E-01 -8.32073735597000E-01 
-8.23152973488000E-01 -8.09366694643000E-01 -7.91007921579000E-01 -7.68407211647000E-01 
-7.41929426363000E-01 -7.11969976005000E-01 -6.78950585884000E-01 -6.43314597678000E-01 
-6.05521880240000E-01 -5.66043366674000E-01 -5.25355319788000E-01 -4.83933339248000E-01 
-4.42246240692000E-01 -4.00749814306000E-01 -3.59880631305000E-01 -3.20049914960000E-01 
-2.81637716656000E-01 -2.44987466482000E-01 -2.10401264151000E-01 -1.78136066381000E-01 
-1.48401235882000E-01 -1.21357543893000E-01 -9.71178521578000E-02 -7.57489646173000E-02 
-5.72739937301000E-02 -4.16736556225000E-02 -2.88850324372000E-02 -1.87961478295000E-02 
-1.12361384740000E-02 -5.96217521196000E-03 -2.64736307420000E-03 -8.76810649154000E-04 
-1.63990999375000E-04 -5.21608364871000E-06 0.00000000000000E+00 0.00000000000000E+00 
0.00000000000000E+00 0.00000000000000E+00 0.00000000000000E+00 0.00000000000000E+00 
0.00000000000000E+00 0.00000000000000E+00 0.00000000000000E+00 0.00000000000000E+00 
0.00000000000000E+00 0.00000000000000E+00 0.00000000000000E+00 0.00000000000000E+00 
0.00000000000000E+00 0.00000000000000E+00 0.00000000000000E+00 0.00000000000000E+00 
0.00000000000000E+00 0.00000000000000E+00 0.00000000000000E+00 0.00000000000000E+00 
0.00000000000000E+00 0.00000000000000E+00 0.00000000000000E+00 0.00000000000000E+00 
0.00000000000000E+00 0.00000000000000E+00 0.00000000000000E+00 0.00000000000000E+00 
0.00000000000000E+00 0.00000000000000E+00 0.00000000000000E+00 0.00000000000000E+00 
0.00000000000000E+00 0.00000000000000E+00 0.00000000000000E+00 0.00000000000000E+00 
0.00000000000000E+00 0.00000000000000E+00 0.00000000000000E+00 0.00000000000000E+00 
0.00000000000000E+00 0.00000000000000E+00 0.00000000000000E+00 0.00000000000000E+00 
0.00000000000000E+00 0.00000000000000E+00 0.00000000000000E+00 0.00000000000000E+00 
0.00000000000000E+00 0.00000000000000E+00 0.00000000000000E+00 0.00000000000000E+00 
0.00000000000000E+00 0.00000000000000E+00 0.00000000000000E+00 0.00000000000000E+00 
0.00000000000000E+00 0.00000000000000E+00 0.00000000000000E+00 0.00000000000000E+00 
0.00000000000000E+00 0.00000000000000E+00 0.00000000000000E+00 0.00000000000000E+00 
0.00000000000000E+00 0.00000000000000E+00 0.00000000000000E+00 0.00000000000000E+00 
0.00000000000000E+00 0.00000000000000E+00 0.00000000000000E+00 0.00000000000000E+00 
0.00000000000000E+00 0.00000000000000E+00 0.00000000000000E+00 0.00000000000000E+00 
0.00000000000000E+00 0.00000000000000E+00 0.00000000000000E+00 0.00000000000000E+00 
0.00000000000000E+00 0.00000000000000E+00 0.00000000000000E+00 0.00000000000000E+00 
0.00000000000000E+00 0.00000000000000E+00 0.00000000000000E+00 0.00000000000000E+00 
0.00000000000000E+00 0.00000000000000E+00 0.00000000000000E+00 0.00000000000000E+00 
0.00000000000000E+00 0.00000000000000E+00 0.00000000000000E+00 0.00000000000000E+00 
0.00000000000000E+00 0.00000000000000E+00 0.00000000000000E+00 0.00000000000000E+00 
0.00000000000000E+00 0.00000000000000E+00 0.00000000000000E+00 0.00000000000000E+00 
0.00000000000000E+00 0.00000000000000E+00 0.00000000000000E+00 0.00000000000000E+00 
0.00000000000000E+00 0.00000000000000E+00 0.00000000000000E+00 0.00000000000000E+00 
0.00000000000000E+00 0.00000000000000E+00 0.00000000000000E+00 0.00000000000000E+00 
0.00000000000000E+00 0.00000000000000E+00 0.00000000000000E+00 0.00000000000000E+00 
0.00000000000000E+00 0.00000000000000E+00 0.00000000000000E+00 0.00000000000000E+00 
0.00000000000000E+00 0.00000000000000E+00 0.00000000000000E+00 0.00000000000000E+00 
0.00000000000000E+00 0.00000000000000E+00 0.00000000000000E+00 0.00000000000000E+00 
0.00000000000000E+00 0.00000000000000E+00 0.00000000000000E+00 0.00000000000000E+00 
0.00000000000000E+00 0.00000000000000E+00 0.00000000000000E+00 0.00000000000000E+00 
0.00000000000000E+00 0.00000000000000E+00 0.00000000000000E+00 0.00000000000000E+00 
0.00000000000000E+00 0.00000000000000E+00 0.00000000000000E+00 0.00000000000000E+00 
0.00000000000000E+00 0.00000000000000E+00 0.00000000000000E+00 0.00000000000000E+00 
0.00000000000000E+00 0.00000000000000E+00 0.00000000000000E+00 0.00000000000000E+00 
0.00000000000000E+00 0.00000000000000E+00 0.00000000000000E+00 0.00000000000000E+00 
0.00000000000000E+00 0.00000000000000E+00 0.00000000000000E+00 0.00000000000000E+00 
0.00000000000000E+00 0.00000000000000E+00 0.00000000000000E+00 0.00000000000000E+00 
0.00000000000000E+00 0.00000000000000E+00 0.00000000000000E+00 0.00000000000000E+00 
0.00000000000000E+00 0.00000000000000E+00 0.00000000000000E+00 0.00000000000000E+00 
0.00000000000000E+00 0.00000000000000E+00 0.00000000000000E+00 0.00000000000000E+00 
0.00000000000000E+00 0.00000000000000E+00 0.00000000000000E+00 0.00000000000000E+00 
0.00000000000000E+00 0.00000000000000E+00 0.00000000000000E+00 0.00000000000000E+00 
0.00000000000000E+00 0.00000000000000E+00 0.00000000000000E+00 0.00000000000000E+00 
0.00000000000000E+00 0.00000000000000E+00 0.00000000000000E+00 0.00000000000000E+00 
0.00000000000000E+00 0.00000000000000E+00 0.00000000000000E+00 0.00000000000000E+00 
0.00000000000000E+00 0.00000000000000E+00 0.00000000000000E+00 0.00000000000000E+00 
0.00000000000000E+00 0.00000000000000E+00 0.00000000000000E+00 0.00000000000000E+00 
0.00000000000000E+00 0.00000000000000E+00 0.00000000000000E+00 0.00000000000000E+00 
0.00000000000000E+00 0.00000000000000E+00 0.00000000000000E+00 0.00000000000000E+00 
0.00000000000000E+00 0.00000000000000E+00 0.00000000000000E+00 0.00000000000000E+00 
0.00000000000000E+00 0.00000000000000E+00 0.00000000000000E+00 0.00000000000000E+00 
0.00000000000000E+00 0.00000000000000E+00 0.00000000000000E+00 0.00000000000000E+00 
0.00000000000000E+00 0.00000000000000E+00 0.00000000000000E+00 0.00000000000000E+00 
0.00000000000000E+00 0.00000000000000E+00 0.00000000000000E+00 0.00000000000000E+00 
0.00000000000000E+00 0.00000000000000E+00 0.00000000000000E+00 0.00000000000000E+00 
0.00000000000000E+00 0.00000000000000E+00 0.00000000000000E+00 0.00000000000000E+00 
0.00000000000000E+00 0.00000000000000E+00 0.00000000000000E+00 0.00000000000000E+00 
0.00000000000000E+00 0.00000000000000E+00 0.00000000000000E+00 0.00000000000000E+00 
0.00000000000000E+00 0.00000000000000E+00 0.00000000000000E+00 0.00000000000000E+00 
0.00000000000000E+00 0.00000000000000E+00 0.00000000000000E+00 0.00000000000000E+00 
0.00000000000000E+00 0.00000000000000E+00 0.00000000000000E+00 0.00000000000000E+00 
0.00000000000000E+00 0.00000000000000E+00 0.00000000000000E+00 0.00000000000000E+00 
0.00000000000000E+00 0.00000000000000E+00 0.00000000000000E+00 0.00000000000000E+00 
0.00000000000000E+00 0.00000000000000E+00 0.00000000000000E+00 0.00000000000000E+00 
0.00000000000000E+00 0.00000000000000E+00 0.00000000000000E+00 0.00000000000000E+00 
0.00000000000000E+00 0.00000000000000E+00 0.00000000000000E+00 0.00000000000000E+00 
0.00000000000000E+00 
</PP_QIJL.1.1.0>
      <PP_QIJL.1.2.1 angular_momentum="1" first_index="1" second_index="2" composite_index="2" is_null="F">
0.00000000000000E+00 5.53511074190478E-17 4.54065914510461E-16 1.57153999140204E-15 
3.82036238636740E-15 7.65292867492118E-15 1.35642135598111E-14 2.20947120966474E-14 
3.38335591164778E-14 4.94218369375545E-14 6.95560820136469E-14 9.49920017385611E-14 
1.26548413238368E-13 1.65111416643488E-13 2.11638815984087E-13 2.67164801563084E-13 
3.32804908457328E-13 4.09761266544504E-13 4.99328158295389E-13 6.02897901424079E-13 
7.21967074550875E-13 8.58143104701850E-13 1.01315123693704E-12 1.18884190697753E-12 
1.38719853926847E-12 1.61034579387104E-12 1.86055828684199E-12 2.14026981025366E-12 
2.45208307913968E-12 2.79878003439105E-12 3.18333273201771E-12 3.60891485077876E-12 
4.07891385206943E-12 4.59694382757095E-12 5.16685907223075E-12 5.79276842194868E-12 
6.47905039773859E-12 7.23036919992947E-12 8.05169159875592E-12 8.94830476983446E-12 
9.92583512562198E-12 1.09902681969179E-11 1.21479696210838E-11 1.34057072963853E-11 
1.47706747661263E-11 1.62505158981514E-11 1.78533509295737E-11 1.95878039507179E-11 
2.14630319047164E-11 2.34887551850895E-11 2.56752899162627E-11 2.80335820079446E-11 
3.05752430774346E-11 3.33125883413587E-11 3.62586765800174E-11 3.94273522889583E-11 
4.28332901250090E-11 4.64920417898480E-11 5.04200854499212E-11 5.46348778584420E-11 
5.91549093088162E-11 6.39997615600161E-11 6.91901689239404E-11 7.47480826431652E-11 
8.06967387596510E-11 8.70607296620186E-11 9.38660794851192E-11 1.01140323580714E-10 
1.08912592282305E-10 1.17213699175674E-10 1.26076234111175E-10 1.35534661236514E-10 
1.45625422278198E-10 1.56387045385259E-10 1.67860259787085E-10 1.80088116620458E-10 
1.93116116213058E-10 2.06992342179671E-10 2.21767602686960E-10 2.37495579267538E-10 
2.54232983585001E-10 2.72039722545206E-10 2.90979072225982E-10 3.11117861075436E-10 
3.32526662833433E-10 3.55279999756283E-10 3.79456556619972E-10 4.05139406107480E-10 
4.32416246147435E-10 4.61379649877985E-10 4.92127328820685E-10 5.24762410050815E-10 
5.59393728030494E-10 5.96136131873041E-10 6.35110808891037E-10 6.76445625248959E-10 
7.20275484620446E-10 7.66742705774391E-10 8.15997420107917E-10 8.68197990197136E-10 
9.23511450325067E-10 9.82113970347913E-10 1.04419134391650E-09 1.10993950245628E-09 
1.17956505620609E-09 1.25328586366900E-09 1.33133163111772E-09 1.41394454347632E-09 
1.50137992852056E-09 1.59390695580108E-09 1.69180937235830E-09 1.79538627708094E-09 
1.90495293554521E-09 2.02084163777721E-09 2.14340260079639E-09 2.27300491854117E-09 
2.41003756162545E-09 2.55491042924008E-09 2.70805545634888E-09 2.86992777861572E-09 
3.04100695839742E-09 3.22179827479136E-09 3.41283408104835E-09 3.61467523308107E-09 
3.82791259241323E-09 4.05316860773186E-09 4.29109897891424E-09 4.54239440788952E-09 
4.80778244102673E-09 5.08802940734287E-09 5.38394245790819E-09 5.69637171162819E-09 
6.02621251263559E-09 6.37440780548880E-09 6.74195063387003E-09 7.12988676973727E-09 
7.53931747871212E-09 7.97140243015961E-09 8.42736275796920E-09 8.90848428100460E-09 
9.41612089075872E-09 9.95169811520055E-09 1.05167168680285E-08 1.11127573924630E-08 
1.17414834100644E-08 1.24046464851466E-08 1.31040906154548E-08 1.38417570618842E-08 
1.46196894280519E-08 1.54400390041174E-08 1.63050703875084E-08 1.72171673954763E-08 
1.81788392840537E-08 1.91927272895879E-08 2.02616115095834E-08 2.13884181398648E-08 
2.25762270872153E-08 2.38282799761359E-08 2.51479885703906E-08 2.65389436311498E-08 
2.80049242333351E-08 2.95499075649629E-08 3.11780792331596E-08 3.28938441040156E-08 
3.47018377033467E-08 3.66069382088445E-08 3.86142790570580E-08 4.07292622132828E-08 
4.29575721139741E-08 4.53051903422572E-08 4.77784110574313E-08 5.03838572188756E-08 
5.31284976555578E-08 5.60196650090881E-08 5.90650746155391E-08 6.22728443508305E-08 
6.56515155119941E-08 6.92100747636721E-08 7.29579772340675E-08 7.69051707982370E-08 
8.10621216013281E-08 8.54398409241198E-08 9.00499134143123E-08 9.49045267857071E-08 
1.00016503052566E-07 1.05399331363362E-07 1.11067202542731E-07 1.17035045411476E-07 
1.23318564965458E-07 1.29934282555777E-07 1.36899578107440E-07 1.44232734535651E-07 
1.51952984449280E-07 1.60080559258323E-07 1.68636740816906E-07 1.77643915723678E-07 
1.87125632427827E-07 1.97106661273060E-07 2.07613057642958E-07 2.18672228350782E-07 
2.30313001453019E-07 2.42565699678204E-07 2.55462217601720E-07 2.69036102824228E-07 
2.83322641335809E-07 2.98358947246828E-07 3.14184057179861E-07 3.30839029486552E-07 
3.48367048592174E-07 3.66813534710158E-07 3.86226259206802E-07 4.06655465901139E-07 
4.28153998614804E-07 4.50777435271008E-07 4.74584228922705E-07 4.99635856003814E-07 
5.25996972268234E-07 5.53735576672315E-07 5.82923183747788E-07 6.13635004835583E-07 
6.45950138647826E-07 6.79951771584762E-07 7.15727388421650E-07 7.53368993798355E-07 
7.92973345108485E-07 8.34642197357081E-07 8.78482560625623E-07 9.24606970775480E-07 
9.73133774049241E-07 1.02418742633745E-06 1.07789880779770E-06 1.13440555369088E-06 
1.19385240218703E-06 1.25639156008224E-06 1.32218308724605E-06 1.39139530095168E-06 
1.46420520086992E-06 1.54079891593052E-06 1.62137217424452E-06 1.70613079702500E-06 
1.79529121795003E-06 1.88908102932933E-06 1.98773955605659E-06 2.09151845936769E-06 
2.20068237138814E-06 2.31550956232405E-06 2.43629264204968E-06 2.56333929753261E-06 
2.69697306825038E-06 2.83753416150996E-06 2.98538030936701E-06 3.14088766992963E-06 
3.30445177453424E-06 3.47648852390753E-06 3.65743523524871E-06 3.84775174319881E-06 
4.04792155721138E-06 4.25845307844339E-06 4.47988087907702E-06 4.71276704726112E-06 
4.95770260116379E-06 5.21530897551448E-06 5.48623958445021E-06 5.77118146469948E-06 
6.07085700285445E-06 6.38602575142314E-06 6.71748633799377E-06 7.06607847240504E-06 
7.43268505680042E-06 7.81823440411836E-06 8.22370256993144E-06 8.65011580448970E-06 
9.09855313009302E-06 9.57014905077169E-06 1.00660964008415E-05 1.05876493397461E-05 
1.11361265002256E-05 1.17129142979531E-05 1.23194704108558E-05 1.29573274368482E-05 
1.36280967388839E-05 1.43334724874967E-05 1.50752359098741E-05 1.58552597571149E-05 
1.66755130004579E-05 1.75380657679271E-05 1.84450945339672E-05 1.93988875748640E-05 
2.04018507037209E-05 2.14565132992858E-05 2.25655346430268E-05 2.37317105816110E-05 
2.49579805297414E-05 2.62474348317580E-05 2.76033225005297E-05 2.90290593516771E-05 
3.05282365551171E-05 3.21046296234411E-05 3.37622078605518E-05 3.55051442944993E-05 
3.73378261152171E-05 3.92648656543534E-05 4.12911119138039E-05 4.34216626956892E-05 
4.56618773490356E-05 4.80173901627907E-05 5.04941244516196E-05 5.30983073548934E-05 
5.58364853979876E-05 5.87155408441224E-05 6.17427088836079E-05 6.49255957003353E-05 
6.82721974615641E-05 7.17909202746877E-05 7.54906011717048E-05 7.93805301537965E-05 
8.34704733624660E-05 8.77706974462578E-05 9.22919951506166E-05 9.70457122258736E-05 
1.02043775710062E-04 1.07298723634819E-04 1.12823736274887E-04 1.18632668957270E-04 
1.24740086572760E-04 1.31161299821965E-04 1.37912403312631E-04 1.45010315611048E-04 
1.52472821310394E-04 1.60318615250868E-04 1.68567348993682E-04 1.77239679639051E-04 
1.86357321146955E-04 1.95943098261636E-04 2.06021003156555E-04 2.16616254975150E-04 
2.27755362395265E-04 2.39466189354542E-04 2.51778024112272E-04 2.64721651827850E-04 
2.78329430798054E-04 2.92635372558423E-04 3.07675226064929E-04 3.23486566091906E-04 
3.40108886157075E-04 3.57583696093664E-04 3.75954624582382E-04 3.95267526854802E-04 
4.15570597829825E-04 4.36914490980930E-04 4.59352443154526E-04 4.82940405710297E-04 
5.07737182273011E-04 5.33804573380279E-04 5.61207528439731E-04 5.90014305302776E-04 
6.20296637869430E-04 6.52129912094752E-04 6.85593350801432E-04 7.20770207790426E-04 
7.57747971649637E-04 7.96618579749146E-04 8.37478642929125E-04 8.80429681447631E-04 
9.25578372617472E-04 9.73036810847708E-04 1.02292278059826E-03 1.07536004294961E-03 
1.13047863629832E-03 1.18841519210091E-03 1.24931326613775E-03 1.31332368629788E-03 
1.38060491737982E-03 1.45132344407397E-03 1.52565417268486E-03 1.60378085265808E-03 
1.68589651886067E-03 1.77220395546497E-03 1.86291618258436E-03 1.95825696676961E-03 
2.05846135624892E-03 2.16377624237469E-03 2.27446094829156E-03 2.39078784616069E-03 
2.51304300425994E-03 2.64152686531577E-03 2.77655495753106E-03 2.91845863978153E-03 
3.06758588246745E-03 3.22430208584612E-03 3.38899093714150E-03 3.56205530867319E-03 
3.74391819827246E-03 3.93502371436543E-03 4.13583810727664E-03 4.34685084892916E-03 
4.56857576315795E-03 4.80155220844016E-03 5.04634631572369E-03 5.30355228327260E-03 
5.57379373107387E-03 5.85772511725474E-03 6.15603321916000E-03 6.46943868127777E-03 
6.79869763315661E-03 7.14460337977258E-03 7.50798816715805E-03 7.88972502639862E-03 
8.29072969836870E-03 8.71196264297459E-03 9.15443113506333E-03 9.61919145081061E-03 
1.01073511472190E-02 1.06200714379861E-02 1.11585696688657E-02 1.17241218957432E-02 
1.23180655684515E-02 1.29418023233531E-02 1.35968008879710E-02 1.42846001005616E-02 
1.50068120471127E-02 1.57651253194605E-02 1.65613083961673E-02 1.73972131493865E-02 
1.82747784792351E-02 1.91960340787060E-02 2.01631043296926E-02 2.11782123319867E-02 
2.22436840667075E-02 2.33619526935210E-02 2.45355629828670E-02 2.57671758813697E-02 
2.70595732103833E-02 2.84156624940580E-02 2.98384819153555E-02 3.13312053958004E-02 
3.28971477921313E-02 3.45397702081400E-02 3.62626854073769E-02 3.80696633217135E-02 
3.99646366484775E-02 4.19517065145623E-02 4.40351481978699E-02 4.62194168902319E-02 
4.85091534824849E-02 5.09091903369784E-02 5.34245570483130E-02 5.60604861280458E-02 
5.88224186192573E-02 6.17160095644217E-02 6.47471333249012E-02 6.79218886755269E-02 
7.12466036343984E-02 7.47278399757412E-02 7.83723973553748E-02 8.21873169833506E-02 
8.61798847581637E-02 9.03576337958575E-02 9.47283462351678E-02 9.93000542397974E-02 
1.04081040069901E-01 1.09079835108764E-01 1.14305217696799E-01 1.19766209660943E-01 
1.25472071326538E-01 1.31432294889604E-01 1.37656595953471E-01 1.44154902983125E-01 
1.50937344541188E-01 1.58014234006626E-01 1.65396051545332E-01 1.73093423083667E-01 
1.81117095989844E-01 1.89477911142152E-01 1.98186771103397E-01 2.07254604033195E-01 
2.16692322990358E-01 2.26510780256504E-01 2.36720716309356E-01 2.47332703015554E-01 
2.58357080653354E-01 2.69803888314538E-01 2.81682787324519E-01 2.94002977150645E-01 
3.06773103443265E-01 3.20001157803739E-01 3.33694368774642E-01 3.47859083806327E-01 
3.62500641741092E-01 3.77623235585452E-01 3.93229765276423E-01 4.09321680286303E-01 
4.25898811987719E-01 4.42959195750053E-01 4.60498882963291E-01 4.78511743238668E-01 
4.96989257214035E-01 5.15920300685220E-01 5.35290920865840E-01 5.55084105942615E-01 
5.75279549301085E-01 5.95853410141122E-01 6.16778072590597E-01 6.38021905650423E-01 
6.59549026896259E-01 6.81319073134381E-01 7.03286981718225E-01 7.25402786681338E-01 
7.47611434277070E-01 7.69852623004820E-01 7.92060673516632E-01 8.14164434347833E-01 
8.36087229519175E-01 8.57746854421079E-01 8.79055626381439E-01 8.99920496288180E-01 
9.20243227253701E-01 9.39920645848080E-01 9.58844970539071E-01 9.76904220677872E-01 
9.93982707852467E-01 1.00996160921251E+00 1.02471961983096E+00 1.03813367792729E+00 
1.05007975304575E+00 1.06043368299086E+00 1.06907204039097E+00 1.07587300456217E+00 
1.08071720864302E+00 1.08348852637259E+00 1.08407475743065E+00 1.08236816554277E+00 
1.07826582010939E+00 1.07166969071123E+00 1.06248644537869E+00 1.05062690915392E+00 
1.03600515050815E+00 1.01853718111020E+00 9.98139280932646E-01 9.74725997460374E-01 
9.48207916277926E-01 9.18489362293720E-01 8.85466266563125E-01 8.49024523406188E-01 
8.09039264114872E-01 7.65375583256127E-01 7.17891363871603E-01 6.66442947401850E-01 
6.10894465196706E-01 5.51131666958711E-01 4.87081013760853E-01 4.18734606642556E-01 
3.46181142691276E-01 2.69642466435070E-01 1.89514347008000E-01 1.06408795815499E-01 
2.11934994309642E-02 -6.49782202180027E-02 -1.50655995366362E-01 -2.34111175706629E-01 
-3.13399437558830E-01 -3.86481425695444E-01 -4.51412810787845E-01 -5.06606065486657E-01 
-5.51146161921814E-01 -5.85103834139360E-01 -6.09721581282647E-01 -6.27231842890138E-01 
-6.39885359871000E-01 -6.48464379777000E-01 -6.53036332310000E-01 -6.53678828838000E-01 
-6.50499181496000E-01 -6.43634011245000E-01 -6.33248508927000E-01 -6.19535329094000E-01 
-6.02713113219000E-01 -5.83024629331000E-01 -5.60734543421000E-01 -5.36126819053000E-01 
-5.09501785210000E-01 -4.81172879418000E-01 -4.51463136231000E-01 -4.20701438992000E-01 
-3.89218639781000E-01 -3.57343577066000E-01 -3.25399137724000E-01 -2.93698410272000E-01 
-2.62541131825000E-01 -2.32210506119000E-01 -2.02970662878000E-01 -1.75064852785000E-01 
-1.48714647202000E-01 -1.24120077641000E-01 -1.01460651663000E-01 -8.08965221844000E-02 
-6.25688249411000E-02 -4.65973450370000E-02 -3.30736212199000E-02 -2.20474147617000E-02 
-1.35057464907000E-02 -7.34538439715000E-03 -3.34339320811000E-03 -1.13520256313000E-03 
-2.17848657290000E-04 -7.58776822319000E-06 0.00000000000000E+00 0.00000000000000E+00 
0.00000000000000E+00 0.00000000000000E+00 0.00000000000000E+00 0.00000000000000E+00 
0.00000000000000E+00 0.00000000000000E+00 0.00000000000000E+00 0.00000000000000E+00 
0.00000000000000E+00 0.00000000000000E+00 0.00000000000000E+00 0.00000000000000E+00 
0.00000000000000E+00 0.00000000000000E+00 0.00000000000000E+00 0.00000000000000E+00 
0.00000000000000E+00 0.00000000000000E+00 0.00000000000000E+00 0.00000000000000E+00 
0.00000000000000E+00 0.00000000000000E+00 0.00000000000000E+00 0.00000000000000E+00 
0.00000000000000E+00 0.00000000000000E+00 0.00000000000000E+00 0.00000000000000E+00 
0.00000000000000E+00 0.00000000000000E+00 0.00000000000000E+00 0.00000000000000E+00 
0.00000000000000E+00 0.00000000000000E+00 0.00000000000000E+00 0.00000000000000E+00 
0.00000000000000E+00 0.00000000000000E+00 0.00000000000000E+00 0.00000000000000E+00 
0.00000000000000E+00 0.00000000000000E+00 0.00000000000000E+00 0.00000000000000E+00 
0.00000000000000E+00 0.00000000000000E+00 0.00000000000000E+00 0.00000000000000E+00 
0.00000000000000E+00 0.00000000000000E+00 0.00000000000000E+00 0.00000000000000E+00 
0.00000000000000E+00 0.00000000000000E+00 0.00000000000000E+00 0.00000000000000E+00 
0.00000000000000E+00 0.00000000000000E+00 0.00000000000000E+00 0.00000000000000E+00 
0.00000000000000E+00 0.00000000000000E+00 0.00000000000000E+00 0.00000000000000E+00 
0.00000000000000E+00 0.00000000000000E+00 0.00000000000000E+00 0.00000000000000E+00 
0.00000000000000E+00 0.00000000000000E+00 0.00000000000000E+00 0.00000000000000E+00 
0.00000000000000E+00 0.00000000000000E+00 0.00000000000000E+00 0.00000000000000E+00 
0.00000000000000E+00 0.00000000000000E+00 0.00000000000000E+00 0.00000000000000E+00 
0.00000000000000E+00 0.00000000000000E+00 0.00000000000000E+00 0.00000000000000E+00 
0.00000000000000E+00 0.00000000000000E+00 0.00000000000000E+00 0.00000000000000E+00 
0.00000000000000E+00 0.00000000000000E+00 0.00000000000000E+00 0.00000000000000E+00 
0.00000000000000E+00 0.00000000000000E+00 0.00000000000000E+00 0.00000000000000E+00 
0.00000000000000E+00 0.00000000000000E+00 0.00000000000000E+00 0.00000000000000E+00 
0.00000000000000E+00 0.00000000000000E+00 0.00000000000000E+00 0.00000000000000E+00 
0.00000000000000E+00 0.00000000000000E+00 0.00000000000000E+00 0.00000000000000E+00 
0.00000000000000E+00 0.00000000000000E+00 0.00000000000000E+00 0.00000000000000E+00 
0.00000000000000E+00 0.00000000000000E+00 0.00000000000000E+00 0.00000000000000E+00 
0.00000000000000E+00 0.00000000000000E+00 0.00000000000000E+00 0.00000000000000E+00 
0.00000000000000E+00 0.00000000000000E+00 0.00000000000000E+00 0.00000000000000E+00 
0.00000000000000E+00 0.00000000000000E+00 0.00000000000000E+00 0.00000000000000E+00 
0.00000000000000E+00 0.00000000000000E+00 0.00000000000000E+00 0.00000000000000E+00 
0.00000000000000E+00 0.00000000000000E+00 0.00000000000000E+00 0.00000000000000E+00 
0.00000000000000E+00 0.00000000000000E+00 0.00000000000000E+00 0.00000000000000E+00 
0.00000000000000E+00 0.00000000000000E+00 0.00000000000000E+00 0.00000000000000E+00 
0.00000000000000E+00 0.00000000000000E+00 0.00000000000000E+00 0.00000000000000E+00 
0.00000000000000E+00 0.00000000000000E+00 0.00000000000000E+00 0.00000000000000E+00 
0.00000000000000E+00 0.00000000000000E+00 0.00000000000000E+00 0.00000000000000E+00 
0.00000000000000E+00 0.00000000000000E+00 0.00000000000000E+00 0.00000000000000E+00 
0.00000000000000E+00 0.00000000000000E+00 0.00000000000000E+00 0.00000000000000E+00 
0.00000000000000E+00 0.00000000000000E+00 0.00000000000000E+00 0.00000000000000E+00 
0.00000000000000E+00 0.00000000000000E+00 0.00000000000000E+00 0.00000000000000E+00 
0.00000000000000E+00 0.00000000000000E+00 0.00000000000000E+00 0.00000000000000E+00 
0.00000000000000E+00 0.00000000000000E+00 0.00000000000000E+00 0.00000000000000E+00 
0.00000000000000E+00 0.00000000000000E+00 0.00000000000000E+00 0.00000000000000E+00 
0.00000000000000E+00 0.00000000000000E+00 0.00000000000000E+00 0.00000000000000E+00 
0.00000000000000E+00 0.00000000000000E+00 0.00000000000000E+00 0.00000000000000E+00 
0.00000000000000E+00 0.00000000000000E+00 0.00000000000000E+00 0.00000000000000E+00 
0.00000000000000E+00 0.00000000000000E+00 0.00000000000000E+00 0.00000000000000E+00 
0.00000000000000E+00 0.00000000000000E+00 0.00000000000000E+00 0.00000000000000E+00 
0.00000000000000E+00 0.00000000000000E+00 0.00000000000000E+00 0.00000000000000E+00 
0.00000000000000E+00 0.00000000000000E+00 0.00000000000000E+00 0.00000000000000E+00 
0.00000000000000E+00 0.00000000000000E+00 0.00000000000000E+00 0.00000000000000E+00 
0.00000000000000E+00 0.00000000000000E+00 0.00000000000000E+00 0.00000000000000E+00 
0.00000000000000E+00 0.00000000000000E+00 0.00000000000000E+00 0.00000000000000E+00 
0.00000000000000E+00 0.00000000000000E+00 0.00000000000000E+00 0.00000000000000E+00 
0.00000000000000E+00 0.00000000000000E+00 0.00000000000000E+00 0.00000000000000E+00 
0.00000000000000E+00 0.00000000000000E+00 0.00000000000000E+00 0.00000000000000E+00 
0.00000000000000E+00 0.00000000000000E+00 0.00000000000000E+00 0.00000000000000E+00 
0.00000000000000E+00 0.00000000000000E+00 0.00000000000000E+00 0.00000000000000E+00 
0.00000000000000E+00 0.00000000000000E+00 0.00000000000000E+00 0.00000000000000E+00 
0.00000000000000E+00 0.00000000000000E+00 0.00000000000000E+00 0.00000000000000E+00 
0.00000000000000E+00 0.00000000000000E+00 0.00000000000000E+00 0.00000000000000E+00 
0.00000000000000E+00 0.00000000000000E+00 0.00000000000000E+00 0.00000000000000E+00 
0.00000000000000E+00 0.00000000000000E+00 0.00000000000000E+00 0.00000000000000E+00 
0.00000000000000E+00 0.00000000000000E+00 0.00000000000000E+00 0.00000000000000E+00 
0.00000000000000E+00 0.00000000000000E+00 0.00000000000000E+00 0.00000000000000E+00 
0.00000000000000E+00 0.00000000000000E+00 0.00000000000000E+00 0.00000000000000E+00 
0.00000000000000E+00 0.00000000000000E+00 0.00000000000000E+00 0.00000000000000E+00 
0.00000000000000E+00 0.00000000000000E+00 0.00000000000000E+00 0.00000000000000E+00 
0.00000000000000E+00 
</PP_QIJL.1.2.1>
      <PP_QIJL.1.3.2 angular_momentum="2" first_index="1" second_index="3" composite_index="4" is_null="F">
-0.00000000000000E+00 -2.08391042325647E-23 -3.44775050118977E-22 -1.80500278914524E-21 
-5.89997324096887E-21 -1.48986705059035E-20 -3.19573029499721E-20 -6.12484482939257E-20 
-1.08103778935097E-19 -1.79171586542282E-19 -2.82590425027755E-19 -4.28180298785229E-19 
-6.27652939236424E-19 -8.94842837981643E-19 -1.24596083950370E-18 -1.69987224145036E-18 
-2.27840150714765E-18 -3.00666586297632E-18 -3.91344023437796E-18 -5.03155616887605E-18 
-6.39833760571155E-18 -8.05607657416054E-18 -1.00525521501519E-17 -1.24415962563523E-17 
-1.52837101766171E-17 -1.86467359550445E-17 -2.26065871743404E-17 -2.72480439598389E-17 
-3.26656174268201E-17 -3.89644891962114E-17 -4.62615320349856E-17 -5.46864181423785E-17 
-6.43828221066699E-17 -7.55097260915829E-17 -8.82428353921275E-17 -1.02776113116206E-16 
-1.19323443421044E-16 -1.38120433439782E-16 -1.59426364812363E-16 -1.83526306553234E-16 
-2.10733401874236E-16 -2.41391342538861E-16 -2.75877045338975E-16 -3.14603546371826E-16 
-3.58023130003967E-16 -4.06630710629723E-16 -4.60967486707485E-16 -5.21624888027171E-16 
-5.89248838674007E-16 -6.64544359887403E-16 -7.48280538751654E-16 -8.41295890631955E-16 
-9.44504145274368E-16 -1.05890048879789E-15 -1.18556829604054E-15 -1.32568639051344E-15 
-1.48053687137780E-15 -1.65151355110240E-15 -1.84013104833892E-15 -2.04803458661374E-15 
-2.27701055111984E-15 -2.52899785981415E-15 -2.80610021131201E-15 -3.11059927298541E-15 
-3.44496888062068E-15 -3.81189032508681E-15 -4.21426880556884E-15 -4.65525113668852E-15 
-5.13824480288131E-15 -5.66693845876964E-15 -6.24532398214525E-15 -6.87772019592116E-15 
-7.56879837965140E-15 -8.32360970472169E-15 -9.14761473175784E-15 -1.00467151250007E-14 
-1.10272877435781E-14 -1.20962212848661E-14 -1.32609556664380E-14 -1.45295243469978E-14 
-1.59105998012387E-14 -1.74135423767395E-14 -1.90484527819946E-14 -2.08262284688387E-14 
-2.27586241894911E-14 -2.48583170375427E-14 -2.71389762925059E-14 -2.96153384197334E-14 
-3.23032875963103E-14 -3.52199421674012E-14 -3.83837474542438E-14 -4.18145753820189E-14 
-4.55338314132607E-14 -4.95645693135008E-14 -5.39316143183430E-14 -5.86616953036820E-14 
-6.37835866073848E-14 -6.93282601942371E-14 -7.53290489104589E-14 -8.18218216276345E-14 
-8.88451711117999E-14 -9.64406155562491E-14 -1.04652814731764E-13 -1.13529801817280E-13 
-1.23123232027388E-13 -1.33488649229281E-13 -1.44685771856740E-13 -1.56778799464575E-13 
-1.69836741440139E-13 -1.83933769403978E-13 -1.99149595025746E-13 -2.15569875057180E-13 
-2.33286645491738E-13 -2.52398786976284E-13 -2.73012523637091E-13 -2.95241957738257E-13 
-3.19209642716800E-13 -3.45047197270644E-13 -3.72895963488807E-13 -4.02907712070526E-13 
-4.35245398030943E-13 -4.70083970437684E-13 -5.07611240000439E-13 -5.48028808654196E-13 
-5.91553065455019E-13 -6.38416253536622E-13 -6.88867613109541E-13 -7.43174605891604E-13 
-8.01624226762643E-13 -8.64524408703467E-13 -9.32205527689658E-13 -1.00502201457912E-12 
-1.08335408147266E-12 -1.16760957071162E-12 -1.25822593505691E-12 -1.35567235842437E-12 
-1.46045202683084E-12 -1.57310456047366E-12 -1.69420861790593E-12 -1.82438468470881E-12 
-1.96429805944393E-12 -2.11466205083798E-12 -2.27624140107124E-12 -2.44985595092142E-12 
-2.63638456386236E-12 -2.83676932728819E-12 -3.05202005016395E-12 -3.28321907822507E-12 
-3.53152644852119E-12 -3.79818540755216E-12 -4.08452831816821E-12 -4.39198298267014E-12 
-4.72207941109926E-12 -5.07645706600535E-12 -5.45687261708041E-12 -5.86520824116451E-12 
-6.30348050605300E-12 -6.77384987868124E-12 -7.27863090146426E-12 -7.82030308366727E-12 
-8.40152255743476E-12 -9.02513455236421E-12 -9.69418674532598E-12 -1.04119435470742E-11 
-1.11819013908891E-11 -1.20078050938895E-11 -1.28936653628241E-11 -1.38437775313697E-11 
-1.48627416040566E-11 -1.59554837094652E-11 -1.71272790535104E-11 -1.83837764779384E-11 
-1.97310247408625E-11 -2.11755006318618E-11 -2.27241390594100E-11 -2.43843652363865E-11 
-2.61641291212320E-11 -2.80719422594766E-11 -3.01169172082034E-11 -3.23088097122827E-11 
-3.46580638187805E-11 -3.71758601555628E-11 -3.98741675688360E-11 -4.27657983711842E-11 
-4.58644674468978E-11 -4.91848554738618E-11 -5.27426765642860E-11 -5.65547506208358E-11 
-6.06390807287964E-11 -6.50149359645274E-11 -6.97029399542714E-11 -7.47251656180743E-11 
-8.01052365135508E-11 -8.58684352372316E-11 -9.20418193792496E-11 -9.86543455499819E-11 
-1.05737002047613E-10 -1.13322950758057E-10 -1.21447678937489E-10 -1.30149161551186E-10 
-1.39468034910753E-10 -1.49447782406969E-10 -1.60134933133178E-10 -1.71579274345934E-10 
-1.83834078704957E-10 -1.96956347288125E-10 -2.11007069535756E-10 -2.26051501233168E-10 
-2.42159461830090E-10 -2.59405652419651E-10 -2.77869995813434E-10 -2.97638000239599E-10 
-3.18801148311269E-10 -3.41457312995407E-10 -3.65711202496870E-10 -3.91674835999709E-10 
-4.19468052500116E-10 -4.49219054879955E-10 -4.81064991806777E-10 -5.15152580014067E-10 
-5.51638769772305E-10 -5.90691456482717E-10 -6.32490241717254E-10 -6.77227247017727E-10 
-7.25107984155281E-10 -7.76352285740820E-10 -8.31195300394842E-10 -8.89888556928020E-10 
-9.52701102283936E-10 -1.01992071841939E-09 -1.09185522350204E-09 -1.16883386336250E-09 
-1.25120879934212E-09 -1.33935669930270E-09 -1.43368043879780E-09 -1.53461092029992E-09 
-1.64260901831258E-09 -1.75816765927795E-09 -1.88181404572044E-09 -2.01411203423332E-09 
-2.15566467826735E-09 -2.30711694722267E-09 -2.46915863340769E-09 -2.64252746081451E-09 
-2.82801240878815E-09 -3.02645726589144E-09 -3.23876443003170E-09 -3.46589897131834E-09 
-3.70889297636118E-09 -3.96885019342128E-09 -4.24695099856709E-09 -4.54445770623404E-09 
-4.86272024652316E-09 -5.20318223603098E-09 -5.56738746831124E-09 -5.95698685366378E-09 
-6.37374583881193E-09 -6.81955234009665E-09 -7.29642522539449E-09 -7.80652338264885E-09 
-8.35215541582928E-09 -8.93579001131949E-09 -9.56006702127190E-09 -1.02278093137624E-08 
-1.09420354418781E-08 -1.17059731891993E-08 -1.25230740517200E-08 -1.33970287211973E-08 
-1.43317836387533E-08 -1.53315586933779E-08 -1.64008661427597E-08 -1.75445308435931E-08 
-1.87677118791333E-08 -2.00759256819516E-08 -2.14750707545989E-08 -2.29714540993788E-08 
-2.45718194739979E-08 -2.62833775999882E-08 -2.81138384586128E-08 -3.00714458185316E-08 
-3.21650141486368E-08 -3.44039680825529E-08 -3.67983846076555E-08 -3.93590381700805E-08 
-4.20974488959187E-08 -4.50259341428236E-08 -4.81576636128303E-08 -5.15067182717255E-08 
-5.50881533383468E-08 -5.89180656247707E-08 -6.30136655254102E-08 -6.73933539809836E-08 
-7.20768047545781E-08 -7.70850523900824E-08 -8.24405862459916E-08 -8.81674510190041E-08 
-9.42913542123173E-08 -1.00839781020685E-07 -1.07842117148424E-07 -1.15329780109771E-07 
-1.23336359579460E-07 -1.31897767467681E-07 -1.41052398298030E-07 -1.50841300708046E-07 
-1.61308360772413E-07 -1.72500497954044E-07 -1.84467874617281E-07 -1.97264119968737E-07 
-2.10946569481953E-07 -2.25576520822430E-07 -2.41219507443082E-07 -2.57945591054895E-07 
-2.75829674281524E-07 -2.94951834871854E-07 -3.15397683019789E-07 -3.37258743276834E-07 
-3.60632862819235E-07 -3.85624647956313E-07 -4.12345930636942E-07 -4.40916267209491E-07 
-4.71463471603222E-07 -5.04124185170616E-07 -5.39044486013621E-07 -5.76380540130396E-07 
-6.16299297663134E-07 -6.58979237012398E-07 -7.04611160298136E-07 -7.53399043771961E-07 
-8.05560946722977E-07 -8.61329983127651E-07 -9.20955360325293E-07 -9.84703489163742E-07 
-1.05285917082888E-06 -1.12572686546089E-06 -1.20363204807342E-06 -1.28692265807591E-06 
-1.37597064871453E-06 -1.47117364319030E-06 -1.57295670492507E-06 -1.68177422994092E-06 
-1.79811196947431E-06 -1.92248919196178E-06 -2.05546099419013E-06 -2.19762077127580E-06 
-2.34960285728177E-06 -2.51208534726335E-06 -2.68579311394369E-06 -2.87150103208288E-06 
-3.07003742485389E-06 -3.28228774775842E-06 -3.50919852577487E-06 -3.75178156188239E-06 
-4.01111843538816E-06 -4.28836530951674E-06 -4.58475807025714E-06 -4.90161781865890E-06 
-5.24035674126527E-06 -5.60248438437767E-06 -5.98961435976302E-06 -6.40347151209789E-06 
-6.84589957920582E-06 -7.31886937904397E-06 -7.82448755966652E-06 -8.36500595135041E-06 
-8.94283156068726E-06 -9.56053725248309E-06 -1.02208731654431E-05 -1.09267789129229E-05 
-1.16813966205535E-05 -1.24880848612982E-05 -1.33504335459668E-05 -1.42722798381313E-05 
-1.52577251593531E-05 -1.63111533643654E-05 -1.74372501617777E-05 -1.86410238679689E-05 
-1.99278275855037E-05 -2.13033829013693E-05 -2.27738052108273E-05 -2.43456307785901E-05 
-2.60258456520533E-05 -2.78219165579651E-05 -2.97418239144520E-05 -3.17940971037890E-05 
-3.39878521599788E-05 -3.63328320352686E-05 -3.88394496217533E-05 -4.15188337151873E-05 
-4.43828781198165E-05 -4.74442941117922E-05 -5.07166664817742E-05 -5.42145134095646E-05 
-5.79533504197003E-05 -6.19497587048439E-05 -6.62214581045207E-05 -7.07873850574129E-05 
-7.56677758661921E-05 -8.08842556256872E-05 -8.64599332063899E-05 -9.24195026924958E-05 
-9.87893517125806E-05 -1.05597677126137E-04 -1.12874608562848E-04 -1.20652340331016E-04 
-1.28965272267177E-04 -1.37850160117722E-04 -1.47346276088876E-04 -1.57495580249026E-04 
-1.68342903490419E-04 -1.79936142839151E-04 -1.92326469907849E-04 -2.05568553380851E-04 
-2.19720796444558E-04 -2.34845590150441E-04 -2.51009583756412E-04 -2.68283973160866E-04 
-2.86744808607897E-04 -3.06473322916013E-04 -3.27556281569731E-04 -3.50086356085454E-04 
-3.74162522138032E-04 -3.99890484068387E-04 -4.27383127425896E-04 -4.56761001356864E-04 
-4.88152832705419E-04 -5.21696073864355E-04 -5.57537486452989E-04 -5.95833763075892E-04 
-6.36752189544347E-04 -6.80471350011149E-04 -7.27181877694830E-04 -7.77087253917119E-04 
-8.30404658418678E-04 -8.87365873956958E-04 -9.48218248460895E-04 -1.01322571811023E-03 
-1.08266989479837E-03 -1.15685122187882E-03 -1.23609020176831E-03 -1.32072869961300E-03 
-1.41113132738801E-03 -1.50768691237926E-03 -1.61081005479340E-03 -1.72094277923146E-03 
-1.83855628486733E-03 -1.96415279864368E-03 -2.09826753789692E-03 -2.24147078575052E-03 
-2.39437008653725E-03 -2.55761256441574E-03 -2.73188737263472E-03 -2.91792827707704E-03 
-3.11651637991591E-03 -3.32848298879530E-03 -3.55471263606052E-03 -3.79614625300116E-03 
-4.05378450294581E-03 -4.32869127832215E-03 -4.62199736349664E-03 -4.93490426768833E-03 
-5.26868822895165E-03 -5.62470439087126E-03 -6.00439115093307E-03 -6.40927468165076E-03 
-6.84097361765749E-03 -7.30120390767323E-03 -7.79178382407136E-03 -8.31463911741454E-03 
-8.87180831052021E-03 -9.46544811224782E-03 -1.00978389342238E-02 -1.07713904900495E-02 
-1.14886474499114E-02 -1.22522951178151E-02 -1.30651650985143E-02 -1.39302409091761E-02 
-1.48506634875557E-02 -1.58297365409600E-02 -1.68709316738385E-02 -1.79778932189275E-02 
-1.91544426928119E-02 -2.04045827816125E-02 -2.17325007621802E-02 -2.31425712350116E-02 
-2.46393580514898E-02 -2.62276152999876E-02 -2.79122871885781E-02 -2.96985066764550E-02 
-3.15915926637829E-02 -3.35970455583624E-02 -3.57205410095639E-02 -3.79679215957536E-02 
-4.03451862390224E-02 -4.28584771029580E-02 -4.55140637349722E-02 -4.83183241961345E-02 
-5.12777229191852E-02 -5.43987850521635E-02 -5.76880670296830E-02 -6.11521231433989E-02 
-6.47974678904829E-02 -6.86305339108062E-02 -7.26576253688861E-02 -7.68848666560903E-02 
-8.13181463821472E-02 -8.59630566684274E-02 -9.08248278523535E-02 -9.59082588114134E-02 
-1.01217643225384E-01 -1.06756692235586E-01 -1.12528454079430E-01 -1.18535231479025E-01 
-1.24778497682956E-01 -1.31258812274866E-01 -1.37975738019485E-01 -1.44927760207811E-01 
-1.52112210097370E-01 -1.59525194206660E-01 -1.67161531313911E-01 -1.75014699018845E-01 
-1.83076791730538E-01 -1.91338491759712E-01 -1.99789054955552E-01 -2.08416311866795E-01 
-2.17206684784330E-01 -2.26145220190369E-01 -2.35215634971013E-01 -2.44400373418715E-01 
-2.53680670257629E-01 -2.63036612948002E-01 -2.72447194156241E-01 -2.81890342675679E-01 
-2.91342918264231E-01 -3.00780653006239E-01 -3.10178019060114E-01 -3.19508000284325E-01 
-3.28741743665491E-01 -3.37848066134496E-01 -3.46792793872531E-01 -3.55537915320322E-01 
-3.64040536760249E-01 -3.72251641369639E-01 -3.80114670353501E-01 -3.87563968994037E-01 
-3.94523172297511E-01 -4.00903644868994E-01 -4.06603137741063E-01 -4.11504880006294E-01 
-4.15477382699130E-01 -4.18375291494342E-01 -4.20041675535615E-01 -4.20312169995533E-01 
-4.19021382699504E-01 -4.16011907230279E-01 -4.11146126893279E-01 -4.04320710495543E-01 
-3.95483253643229E-01 -3.84649872790353E-01 -3.71921693407987E-01 -3.57497105841141E-01 
-3.41675485559530E-01 -3.24847020495416E-01 -3.07462829001992E-01 -2.89980560708354E-01 
-2.72784671856685E-01 -2.56090110762037E-01 -2.39857400894197E-01 -2.23782708447154E-01 
-2.07487279714000E-01 -1.90885834875000E-01 -1.74062914694000E-01 -1.57112194245000E-01 
-1.40131497103000E-01 -1.23222007174000E-01 -1.06487377177000E-01 -9.00327306394000E-02 
-7.39635745740000E-02 -5.83846200175000E-02 -4.33985378922000E-02 -2.91046456973000E-02 
-1.55975629823000E-02 -2.96582636260000E-03 8.70948822197000E-03 1.93561533058000E-02 
2.89121304083000E-02 3.73268891271000E-02 4.45626325719000E-02 5.05954545959000E-02 
5.54163235359000E-02 5.90318929091000E-02 6.14649712622000E-02 6.27546049789000E-02 
6.29555508289000E-02 6.21371117444000E-02 6.03812142870000E-02 5.77799734660000E-02 
5.44330286697000E-02 5.04453944549000E-02 4.59264871792000E-02 4.09911168256000E-02 
3.57625786340000E-02 3.03774690385000E-02 2.49906108480000E-02 1.97775272674000E-02 
1.49302900403000E-02 1.06410872745000E-02 7.06515489457000E-03 4.27189038393000E-03 
2.25880725718000E-03 9.71658267562000E-04 2.93061857081000E-04 4.16902417740000E-05 
2.73212003410000E-07 0.00000000000000E+00 0.00000000000000E+00 0.00000000000000E+00 
0.00000000000000E+00 0.00000000000000E+00 0.00000000000000E+00 0.00000000000000E+00 
0.00000000000000E+00 0.00000000000000E+00 0.00000000000000E+00 0.00000000000000E+00 
0.00000000000000E+00 0.00000000000000E+00 0.00000000000000E+00 0.00000000000000E+00 
0.00000000000000E+00 0.00000000000000E+00 0.00000000000000E+00 0.00000000000000E+00 
0.00000000000000E+00 0.00000000000000E+00 0.00000000000000E+00 0.00000000000000E+00 
0.00000000000000E+00 0.00000000000000E+00 0.00000000000000E+00 0.00000000000000E+00 
0.00000000000000E+00 0.00000000000000E+00 0.00000000000000E+00 0.00000000000000E+00 
0.00000000000000E+00 0.00000000000000E+00 0.00000000000000E+00 0.00000000000000E+00 
0.00000000000000E+00 0.00000000000000E+00 0.00000000000000E+00 0.00000000000000E+00 
0.00000000000000E+00 0.00000000000000E+00 0.00000000000000E+00 0.00000000000000E+00 
0.00000000000000E+00 0.00000000000000E+00 0.00000000000000E+00 0.00000000000000E+00 
0.00000000000000E+00 0.00000000000000E+00 0.00000000000000E+00 0.00000000000000E+00 
0.00000000000000E+00 0.00000000000000E+00 0.00000000000000E+00 0.00000000000000E+00 
0.00000000000000E+00 0.00000000000000E+00 0.00000000000000E+00 0.00000000000000E+00 
0.00000000000000E+00 0.00000000000000E+00 0.00000000000000E+00 0.00000000000000E+00 
0.00000000000000E+00 0.00000000000000E+00 0.00000000000000E+00 0.00000000000000E+00 
0.00000000000000E+00 0.00000000000000E+00 0.00000000000000E+00 0.00000000000000E+00 
0.00000000000000E+00 0.00000000000000E+00 0.00000000000000E+00 0.00000000000000E+00 
0.00000000000000E+00 0.00000000000000E+00 0.00000000000000E+00 0.00000000000000E+00 
0.00000000000000E+00 0.00000000000000E+00 0.00000000000000E+00 0.00000000000000E+00 
0.00000000000000E+00 0.00000000000000E+00 0.00000000000000E+00 0.00000000000000E+00 
0.00000000000000E+00 0.00000000000000E+00 0.00000000000000E+00 0.00000000000000E+00 
0.00000000000000E+00 0.00000000000000E+00 0.00000000000000E+00 0.00000000000000E+00 
0.00000000000000E+00 0.00000000000000E+00 0.00000000000000E+00 0.00000000000000E+00 
0.00000000000000E+00 0.00000000000000E+00 0.00000000000000E+00 0.00000000000000E+00 
0.00000000000000E+00 0.00000000000000E+00 0.00000000000000E+00 0.00000000000000E+00 
0.00000000000000E+00 0.00000000000000E+00 0.00000000000000E+00 0.00000000000000E+00 
0.00000000000000E+00 0.00000000000000E+00 0.00000000000000E+00 0.00000000000000E+00 
0.00000000000000E+00 0.00000000000000E+00 0.00000000000000E+00 0.00000000000000E+00 
0.00000000000000E+00 0.00000000000000E+00 0.00000000000000E+00 0.00000000000000E+00 
0.00000000000000E+00 0.00000000000000E+00 0.00000000000000E+00 0.00000000000000E+00 
0.00000000000000E+00 0.00000000000000E+00 0.00000000000000E+00 0.00000000000000E+00 
0.00000000000000E+00 0.00000000000000E+00 0.00000000000000E+00 0.00000000000000E+00 
0.00000000000000E+00 0.00000000000000E+00 0.00000000000000E+00 0.00000000000000E+00 
0.00000000000000E+00 0.00000000000000E+00 0.00000000000000E+00 0.00000000000000E+00 
0.00000000000000E+00 0.00000000000000E+00 0.00000000000000E+00 0.00000000000000E+00 
0.00000000000000E+00 0.00000000000000E+00 0.00000000000000E+00 0.00000000000000E+00 
0.00000000000000E+00 0.00000000000000E+00 0.00000000000000E+00 0.00000000000000E+00 
0.00000000000000E+00 0.00000000000000E+00 0.00000000000000E+00 0.00000000000000E+00 
0.00000000000000E+00 0.00000000000000E+00 0.00000000000000E+00 0.00000000000000E+00 
0.00000000000000E+00 0.00000000000000E+00 0.00000000000000E+00 0.00000000000000E+00 
0.00000000000000E+00 0.00000000000000E+00 0.00000000000000E+00 0.00000000000000E+00 
0.00000000000000E+00 0.00000000000000E+00 0.00000000000000E+00 0.00000000000000E+00 
0.00000000000000E+00 0.00000000000000E+00 0.00000000000000E+00 0.00000000000000E+00 
0.00000000000000E+00 0.00000000000000E+00 0.00000000000000E+00 0.00000000000000E+00 
0.00000000000000E+00 0.00000000000000E+00 0.00000000000000E+00 0.00000000000000E+00 
0.00000000000000E+00 0.00000000000000E+00 0.00000000000000E+00 0.00000000000000E+00 
0.00000000000000E+00 0.00000000000000E+00 0.00000000000000E+00 0.00000000000000E+00 
0.00000000000000E+00 0.00000000000000E+00 0.00000000000000E+00 0.00000000000000E+00 
0.00000000000000E+00 0.00000000000000E+00 0.00000000000000E+00 0.00000000000000E+00 
0.00000000000000E+00 0.00000000000000E+00 0.00000000000000E+00 0.00000000000000E+00 
0.00000000000000E+00 0.00000000000000E+00 0.00000000000000E+00 0.00000000000000E+00 
0.00000000000000E+00 0.00000000000000E+00 0.00000000000000E+00 0.00000000000000E+00 
0.00000000000000E+00 0.00000000000000E+00 0.00000000000000E+00 0.00000000000000E+00 
0.00000000000000E+00 0.00000000000000E+00 0.00000000000000E+00 0.00000000000000E+00 
0.00000000000000E+00 0.00000000000000E+00 0.00000000000000E+00 0.00000000000000E+00 
0.00000000000000E+00 0.00000000000000E+00 0.00000000000000E+00 0.00000000000000E+00 
0.00000000000000E+00 0.00000000000000E+00 0.00000000000000E+00 0.00000000000000E+00 
0.00000000000000E+00 0.00000000000000E+00 0.00000000000000E+00 0.00000000000000E+00 
0.00000000000000E+00 0.00000000000000E+00 0.00000000000000E+00 0.00000000000000E+00 
0.00000000000000E+00 0.00000000000000E+00 0.00000000000000E+00 0.00000000000000E+00 
0.00000000000000E+00 0.00000000000000E+00 0.00000000000000E+00 0.00000000000000E+00 
0.00000000000000E+00 0.00000000000000E+00 0.00000000000000E+00 0.00000000000000E+00 
0.00000000000000E+00 0.00000000000000E+00 0.00000000000000E+00 0.00000000000000E+00 
0.00000000000000E+00 0.00000000000000E+00 0.00000000000000E+00 0.00000000000000E+00 
0.00000000000000E+00 0.00000000000000E+00 0.00000000000000E+00 0.00000000000000E+00 
0.00000000000000E+00 0.00000000000000E+00 0.00000000000000E+00 0.00000000000000E+00 
0.00000000000000E+00 0.00000000000000E+00 0.00000000000000E+00 0.00000000000000E+00 
0.00000000000000E+00 0.00000000000000E+00 0.00000000000000E+00 0.00000000000000E+00 
0.00000000000000E+00 
</PP_QIJL.1.3.2>
      <PP_QIJL.2.2.0 angular_momentum="0" first_index="2" second_index="2" composite_index="3" is_null="F">
0.00000000000000E+00 2.55908035024587E-11 1.04090792194157E-10 2.38167960287791E-10 
4.30595433303099E-10 6.84255278541707E-10 1.00214244887811E-09 1.38736886444045E-09 
1.84316763694462E-09 2.37289744153857E-09 2.98004704135721E-09 3.66823996987196E-09 
4.44123937644111E-09 5.30295304104394E-09 6.25743856362639E-09 7.30890873385318E-09 
8.46173708814721E-09 9.72046366005861E-09 1.10898009305363E-08 1.25746399845943E-08 
1.41800568830838E-08 1.59113192540601E-08 1.77738931148734E-08 1.97734499293928E-08 
2.19158739109198E-08 2.42072695783123E-08 2.66539695734992E-08 2.92625427505868E-08 
3.20398025443503E-08 3.49928156289741E-08 3.81289108765790E-08 4.14556886252280E-08 
4.49810302678911E-08 4.87131081726392E-08 5.26603959460276E-08 5.68316790505905E-08 
6.12360657898335E-08 6.58829986716256E-08 7.07822661644402E-08 7.59440148592127E-08 
8.13787620503068E-08 8.70974087509729E-08 9.31112531576383E-08 9.94320045766261E-08 
1.06071797833111E-07 1.13043208175091E-07 1.20359266690050E-07 1.28033476254326E-07 
1.36079828029150E-07 1.44512818526312E-07 1.53347467259395E-07 1.62599335003563E-07 
1.72284542680819E-07 1.82419790898055E-07 1.93022380151908E-07 2.04110231737274E-07 
2.15701909349729E-07 2.27816641477071E-07 2.40474344499911E-07 2.53695646629957E-07 
2.67501912663518E-07 2.81915269549160E-07 2.96958632894459E-07 3.12655734323570E-07 
3.29031149793823E-07 3.46110328907030E-07 3.63919625190405E-07 3.82486327422206E-07 
4.01838692054817E-07 4.22005976731056E-07 4.43018474927900E-07 4.64907551832994E-07 
4.87705681406091E-07 5.11446484751236E-07 5.36164769749056E-07 5.61896572100056E-07 
5.88679197741693E-07 6.16551266721625E-07 6.45552758569939E-07 6.75725059227587E-07 
7.07111009591179E-07 7.39754955685630E-07 7.73702800583177E-07 8.09002058100674E-07 
8.45701908279981E-07 8.83853254833951E-07 9.23508784509154E-07 9.64723028499735E-07 
1.00755242593251E-06 1.05205538956880E-06 1.09829237367754E-06 1.14632594429974E-06 
1.19622085188120E-06 1.24804410635853E-06 1.30186505484644E-06 1.35775546196808E-06 
1.41578959292644E-06 1.47604429938769E-06 1.53859910831094E-06 1.60353631385770E-06 
1.67094107231247E-06 1.74090150038433E-06 1.81350877675360E-06 1.88885724713698E-06 
1.96704453293534E-06 2.04817164352278E-06 2.13234309248021E-06 2.21966701763699E-06 
2.31025530538383E-06 2.40422371904699E-06 2.50169203173936E-06 2.60278416376673E-06 
2.70762832457520E-06 2.81635715972249E-06 2.92910790267975E-06 3.04602253189143E-06 
3.16724793324815E-06 3.29293606791132E-06 3.42324414606239E-06 3.55833480639256E-06 
3.69837630182021E-06 3.84354269148843E-06 3.99401403924858E-06 4.14997661903392E-06 
4.31162312708284E-06 4.47915290148051E-06 4.65277214910708E-06 4.83269418030914E-06 
5.01913965168752E-06 5.21233681695326E-06 5.41252178642128E-06 5.61993879538039E-06 
5.83484048145477E-06 6.05748817153934E-06 6.28815217836362E-06 6.52711210736561E-06 
6.77465717361733E-06 7.03108653000982E-06 7.29670960617201E-06 7.57184645919505E-06 
7.85682813612817E-06 8.15199704884459E-06 8.45770736174553E-06 8.77432539248650E-06 
9.10223002640417E-06 9.44181314508354E-06 9.79348006930108E-06 1.01576500173803E-05 
1.05347565787018E-05 1.09252482036265E-05 1.13295887098931E-05 1.17482578063458E-05 
1.21817516343432E-05 1.26305833276120E-05 1.30952835911966E-05 1.35764012999288E-05 
1.40745041174090E-05 1.45901791358732E-05 1.51240335377975E-05 1.56766952801353E-05 
1.62488138015779E-05 1.68410607540796E-05 1.74541307589789E-05 1.80887421889510E-05 
1.87456379764825E-05 1.94255864503191E-05 2.01293821983254E-05 2.08578469634506E-05 
2.16118305652842E-05 2.23922118571059E-05 2.31998997137263E-05 2.40358340518260E-05 
2.49009868872072E-05 2.57963634251725E-05 2.67230031915326E-05 2.76819811982599E-05 
2.86744091519453E-05 2.97014366993072E-05 3.07642527196632E-05 3.18640866595878E-05 
3.30022099090268E-05 3.41799372309430E-05 3.53986282336304E-05 3.66596888959348E-05 
3.79645731447725E-05 3.93147844829742E-05 4.07118776759560E-05 4.21574604944963E-05 
4.36531955131149E-05 4.52008019771298E-05 4.68020577249407E-05 4.84588011803787E-05 
5.01729334118261E-05 5.19464202602540E-05 5.37812945402803E-05 5.56796583148363E-05 
5.76436852484068E-05 5.96756230389409E-05 6.17777959336497E-05 6.39526073281800E-05 
6.62025424545623E-05 6.85301711637904E-05 7.09381507956551E-05 7.34292291513348E-05 
7.60062475674275E-05 7.86721440887642E-05 8.14299567559742E-05 8.42828269980855E-05 
8.72340031435026E-05 9.02868440495309E-05 9.34448228551814E-05 9.67115308605397E-05 
1.00090681538570E-04 1.03586114680358E-04 1.07201800685112E-04 1.10941844990185E-04 
1.14810492660017E-04 1.18812133118530E-04 1.22951305050601E-04 1.27232701468331E-04 
1.31661174949482E-04 1.36241743046812E-04 1.40979593889736E-04 1.45880091970993E-04 
1.50948784130382E-04 1.56191405740067E-04 1.61613887101326E-04 1.67222360057731E-04 
1.73023164829674E-04 1.79022857084263E-04 1.85228215240567E-04 1.91646248027199E-04 
1.98284202291377E-04 2.05149571076046E-04 2.12250101963027E-04 2.19593805712012E-04 
2.27188965179235E-04 2.35044144541098E-04 2.43168198839843E-04 2.51570283836958E-04 
2.60259866206734E-04 2.69246734086077E-04 2.78541007954717E-04 2.88153151914182E-04 
2.98093985326637E-04 3.08374694852243E-04 3.19006846904825E-04 3.30002400511076E-04 
3.41373720615236E-04 3.53133591840133E-04 3.65295232690731E-04 3.77872310269584E-04 
3.90878955456072E-04 4.04329778627403E-04 4.18239885892693E-04 4.32624895885872E-04 
4.47500957116826E-04 4.62884765916920E-04 4.78793584988019E-04 4.95245262574730E-04 
5.12258252289902E-04 5.29851633603627E-04 5.48045133025208E-04 5.66859146009248E-04 
5.86314759585664E-04 6.06433775763621E-04 6.27238735720819E-04 6.48752944812396E-04 
6.71000498417918E-04 6.94006308671702E-04 7.17796132067516E-04 7.42396598029605E-04 
7.67835238420794E-04 7.94140518052529E-04 8.21341866218188E-04 8.49469709300465E-04 
8.78555504463730E-04 9.08631774483989E-04 9.39732143751483E-04 9.71891375487135E-04 
1.00514541020199E-03 1.03953140547008E-03 1.07508777700605E-03 1.11185424114463E-03 
1.14987185874942E-03 1.18918308058603E-03 1.22983179422154E-03 1.27186337249433E-03 
1.31532472361447E-03 1.36026434294836E-03 1.40673236651686E-03 1.45478062632317E-03 
1.50446270749977E-03 1.55583400737808E-03 1.60895179655078E-03 1.66387528194403E-03 
1.72066567203635E-03 1.77938624422472E-03 1.84010241445232E-03 1.90288180918679E-03 
1.96779433968273E-03 2.03491227900946E-03 2.10431034119120E-03 2.17606576339974E-03 
2.25025839075264E-03 2.32697076375558E-03 2.40628820892085E-03 2.48829893217395E-03 
2.57309411555250E-03 2.66076801696554E-03 2.75141807332223E-03 2.84514500705119E-03 
2.94205293616213E-03 3.04224948786888E-03 3.14584591621603E-03 3.25295722327053E-03 
3.36370228436007E-03 3.47820397779320E-03 3.59658931830760E-03 3.71898959525588E-03 
3.84554051538891E-03 3.97638234984416E-03 4.11166008669122E-03 4.25152358765149E-03 
4.39612775069572E-03 4.54563267738111E-03 4.70020384578585E-03 4.86001228940465E-03 
5.02523478136576E-03 5.19605402488966E-03 5.37265885001345E-03 5.55524441626737E-03 
5.74401242235385E-03 5.93917132248543E-03 6.14093654930203E-03 6.34953074434677E-03 
6.56518399594339E-03 6.78813408441081E-03 7.01862673516322E-03 7.25691588014866E-03 
7.50326392722467E-03 7.75794203811708E-03 8.02123041559444E-03 8.29341859891083E-03 
8.57480576950003E-03 8.86570106536187E-03 9.16642390577368E-03 9.47730432599024E-03 
9.79868332227681E-03 1.01309132079787E-02 1.04743579799046E-02 1.08293936964813E-02 
1.11964088675810E-02 1.15758048556915E-02 1.19679962897878E-02 1.23734114914199E-02 
1.27924929138741E-02 1.32256975943583E-02 1.36734976194144E-02 1.41363806046614E-02 
1.46148501884295E-02 1.51094265397885E-02 1.56206468813952E-02 1.61490660280276E-02 
1.66952569396543E-02 1.72598112911552E-02 1.78433400578642E-02 1.84464741181390E-02 
1.90698648715758E-02 1.97141848759089E-02 2.03801285000488E-02 2.10684125963632E-02 
2.17797771892731E-02 2.25149861841931E-02 2.32748280938123E-02 2.40601167837904E-02 
2.48716922381653E-02 2.57104213433894E-02 2.65771986924865E-02 2.74729474098421E-02 
2.83986199945835E-02 2.93551991855557E-02 3.03436988460864E-02 3.13651648692880E-02 
3.24206761039353E-02 3.35113453007599E-02 3.46383200794040E-02 3.58027839157871E-02 
3.70059571492332E-02 3.82490980108954E-02 3.95335036701377E-02 4.08605113025652E-02 
4.22314991750068E-02 4.36478877509070E-02 4.51111408125027E-02 4.66227666003795E-02 
4.81843189705183E-02 4.97973985653708E-02 5.14636540011434E-02 5.31847830673665E-02 
5.49625339386381E-02 5.67987063970375E-02 5.86951530643399E-02 6.06537806395691E-02 
6.26765511429616E-02 6.47654831622878E-02 6.69226530991670E-02 6.91501964141004E-02 
7.14503088639625E-02 7.38252477333581E-02 7.62773330512111E-02 7.88089487930043E-02 
8.14225440617146E-02 8.41206342436148E-02 8.69058021338406E-02 8.97806990266786E-02 
9.27480457641195E-02 9.58106337359243E-02 9.89713258254358E-02 1.02233057293126E-01 
1.05598836587872E-01 1.09071746081582E-01 1.12654942713064E-01 1.16351658534614E-01 
1.20165201147177E-01 1.24098954017021E-01 1.28156376656386E-01 1.32341004657046E-01 
1.36656449564432E-01 1.41106398572231E-01 1.45694614026196E-01 1.50424932714790E-01 
1.55301264932957E-01 1.60327593293126E-01 1.65507971267557E-01 1.70846521438150E-01 
1.76347433423211E-01 1.82014961471809E-01 1.87853421674708E-01 1.93867188778279E-01 
2.00060692582099E-01 2.06438413857927E-01 2.13004879773894E-01 2.19764658791307E-01 
2.26722354996076E-01 2.33882601787311E-01 2.41250054960805E-01 2.48829385035712E-01 
2.56625268892139E-01 2.64642380553502E-01 2.72885381175389E-01 2.81358908098830E-01 
2.90067562944716E-01 2.99015898702213E-01 3.08208405729582E-01 3.17649496614942E-01 
3.27343489809471E-01 3.37294592009457E-01 3.47506879153482E-01 3.57984276019455E-01 
3.68730534308337E-01 3.79749209158326E-01 3.91043633980079E-01 4.02616893607390E-01 
4.14471795563639E-01 4.26610839472007E-01 4.39036184502649E-01 4.51749614684674E-01 
4.64752502165591E-01 4.78045768204782E-01 4.91629841865465E-01 5.05504616365864E-01 
5.19669402999849E-01 5.34122882532808E-01 5.48863054088885E-01 5.63887181428425E-01 
5.79191736594670E-01 5.94772340911932E-01 6.10623703350854E-01 6.26739556221773E-01 
6.43112588261478E-01 6.59734375119952E-01 6.76595307420423E-01 6.93684516347600E-01 
7.10989797006294E-01 7.28497529731848E-01 7.46192599423565E-01 7.64058313333925E-01 
7.82076317461694E-01 8.00226511996552E-01 8.18486966162174E-01 8.36833832955009E-01 
8.55241264328139E-01 8.73681327380875E-01 8.92123922307320E-01 9.10536702833233E-01 
9.28884999975506E-01 9.47131750150219E-01 9.65237428605146E-01 9.83159989369770E-01 
1.00085481294536E+00 1.01827466309623E+00 1.03536965424494E+00 1.05208723095249E+00 
1.06837216123079E+00 1.08416654539932E+00 1.09940984234263E+00 1.11403891509452E+00 
1.12798809771931E+00 1.14118928553004E+00 1.15357205063407E+00 1.16506378489410E+00 
1.17558987222249E+00 1.18507389213500E+00 1.19343785630620E+00 1.20060247971284E+00 
1.20648748767343E+00 1.21101195982879E+00 1.21409471171299E+00 1.21565471410352E+00 
1.21561154985074E+00 1.21388590726889E+00 1.21040010852058E+00 1.20507867069383E+00 
1.19784889650759E+00 1.18864149075876E+00 1.17739119785650E+00 1.16403745495753E+00 
1.14852505459306E+00 1.13080481007316E+00 1.11083421663450E+00 1.08857810123173E+00 
1.06400925424023E+00 1.03710903715682E+00 1.00786796183189E+00 9.76286239021400E-01 
9.42374297077818E-01 9.06153275628851E-01 8.67655504183476E-01 8.26924981813775E-01 
7.84017881003078E-01 7.39003106968834E-01 6.91962951886945E-01 6.42993891841360E-01 
5.92207581348429E-01 5.39732105141760E-01 4.85713547359547E-01 4.30317932351554E-01 
3.73733575471851E-01 3.16173853232088E-01 2.57880354998690E-01 1.99126308312639E-01 
1.40220071388734E-01 8.15083546341782E-02 2.33786646668959E-02 -3.37397404063526E-02 
-8.93773298921485E-02 -1.43029404519868E-01 -1.94166236492359E-01 -2.42249784194557E-01 
-2.86758444550704E-01 -3.27220845965974E-01 -3.63258559037196E-01 -3.94635378891633E-01 
-4.21306864241750E-01 -4.43457143469044E-01 -4.61499211808547E-01 -4.75998007859415E-01 
-4.87450922098000E-01 -4.96014475601000E-01 -5.01702555652000E-01 -5.04544078038000E-01 
-5.04587273518000E-01 -5.01899843492000E-01 -4.96568906158000E-01 -4.88700711426000E-01 
-4.78420112811000E-01 -4.65869778403000E-01 -4.51209141619000E-01 -4.34613081455000E-01 
-4.16270352593000E-01 -3.96381767144000E-01 -3.75158175970000E-01 -3.52818267962000E-01 
-3.29586270592000E-01 -3.05689590620000E-01 -2.81356520729000E-01 -2.56814074663000E-01 
-2.32286124575000E-01 -2.07991925668000E-01 -1.84145240532000E-01 -1.60954132702000E-01 
-1.38621590127000E-01 -1.17346846493000E-01 -9.73271890367000E-02 -7.87594494780000E-02 
-6.18400338295000E-02 -4.67615419698000E-02 -3.37038109226000E-02 -2.28169634959000E-02 
-1.41950584385000E-02 -7.84062711156000E-03 -3.62429950019000E-03 -1.24963403230000E-03 
-2.43589841369000E-04 -8.84530835438000E-06 0.00000000000000E+00 0.00000000000000E+00 
0.00000000000000E+00 0.00000000000000E+00 0.00000000000000E+00 0.00000000000000E+00 
0.00000000000000E+00 0.00000000000000E+00 0.00000000000000E+00 0.00000000000000E+00 
0.00000000000000E+00 0.00000000000000E+00 0.00000000000000E+00 0.00000000000000E+00 
0.00000000000000E+00 0.00000000000000E+00 0.00000000000000E+00 0.00000000000000E+00 
0.00000000000000E+00 0.00000000000000E+00 0.00000000000000E+00 0.00000000000000E+00 
0.00000000000000E+00 0.00000000000000E+00 0.00000000000000E+00 0.00000000000000E+00 
0.00000000000000E+00 0.00000000000000E+00 0.00000000000000E+00 0.00000000000000E+00 
0.00000000000000E+00 0.00000000000000E+00 0.00000000000000E+00 0.00000000000000E+00 
0.00000000000000E+00 0.00000000000000E+00 0.00000000000000E+00 0.00000000000000E+00 
0.00000000000000E+00 0.00000000000000E+00 0.00000000000000E+00 0.00000000000000E+00 
0.00000000000000E+00 0.00000000000000E+00 0.00000000000000E+00 0.00000000000000E+00 
0.00000000000000E+00 0.00000000000000E+00 0.00000000000000E+00 0.00000000000000E+00 
0.00000000000000E+00 0.00000000000000E+00 0.00000000000000E+00 0.00000000000000E+00 
0.00000000000000E+00 0.00000000000000E+00 0.00000000000000E+00 0.00000000000000E+00 
0.00000000000000E+00 0.00000000000000E+00 0.00000000000000E+00 0.00000000000000E+00 
0.00000000000000E+00 0.00000000000000E+00 0.00000000000000E+00 0.00000000000000E+00 
0.00000000000000E+00 0.00000000000000E+00 0.00000000000000E+00 0.00000000000000E+00 
0.00000000000000E+00 0.00000000000000E+00 0.00000000000000E+00 0.00000000000000E+00 
0.00000000000000E+00 0.00000000000000E+00 0.00000000000000E+00 0.00000000000000E+00 
0.00000000000000E+00 0.00000000000000E+00 0.00000000000000E+00 0.00000000000000E+00 
0.00000000000000E+00 0.00000000000000E+00 0.00000000000000E+00 0.00000000000000E+00 
0.00000000000000E+00 0.00000000000000E+00 0.00000000000000E+00 0.00000000000000E+00 
0.00000000000000E+00 0.00000000000000E+00 0.00000000000000E+00 0.00000000000000E+00 
0.00000000000000E+00 0.00000000000000E+00 0.00000000000000E+00 0.00000000000000E+00 
0.00000000000000E+00 0.00000000000000E+00 0.00000000000000E+00 0.00000000000000E+00 
0.00000000000000E+00 0.00000000000000E+00 0.00000000000000E+00 0.00000000000000E+00 
0.00000000000000E+00 0.00000000000000E+00 0.00000000000000E+00 0.00000000000000E+00 
0.00000000000000E+00 0.00000000000000E+00 0.00000000000000E+00 0.00000000000000E+00 
0.00000000000000E+00 0.00000000000000E+00 0.00000000000000E+00 0.00000000000000E+00 
0.00000000000000E+00 0.00000000000000E+00 0.00000000000000E+00 0.00000000000000E+00 
0.00000000000000E+00 0.00000000000000E+00 0.00000000000000E+00 0.00000000000000E+00 
0.00000000000000E+00 0.00000000000000E+00 0.00000000000000E+00 0.00000000000000E+00 
0.00000000000000E+00 0.00000000000000E+00 0.00000000000000E+00 0.00000000000000E+00 
0.00000000000000E+00 0.00000000000000E+00 0.00000000000000E+00 0.00000000000000E+00 
0.00000000000000E+00 0.00000000000000E+00 0.00000000000000E+00 0.00000000000000E+00 
0.00000000000000E+00 0.00000000000000E+00 0.00000000000000E+00 0.00000000000000E+00 
0.00000000000000E+00 0.00000000000000E+00 0.00000000000000E+00 0.00000000000000E+00 
0.00000000000000E+00 0.00000000000000E+00 0.00000000000000E+00 0.00000000000000E+00 
0.00000000000000E+00 0.00000000000000E+00 0.00000000000000E+00 0.00000000000000E+00 
0.00000000000000E+00 0.00000000000000E+00 0.00000000000000E+00 0.00000000000000E+00 
0.00000000000000E+00 0.00000000000000E+00 0.00000000000000E+00 0.00000000000000E+00 
0.00000000000000E+00 0.00000000000000E+00 0.00000000000000E+00 0.00000000000000E+00 
0.00000000000000E+00 0.00000000000000E+00 0.00000000000000E+00 0.00000000000000E+00 
0.00000000000000E+00 0.00000000000000E+00 0.00000000000000E+00 0.00000000000000E+00 
0.00000000000000E+00 0.00000000000000E+00 0.00000000000000E+00 0.00000000000000E+00 
0.00000000000000E+00 0.00000000000000E+00 0.00000000000000E+00 0.00000000000000E+00 
0.00000000000000E+00 0.00000000000000E+00 0.00000000000000E+00 0.00000000000000E+00 
0.00000000000000E+00 0.00000000000000E+00 0.00000000000000E+00 0.00000000000000E+00 
0.00000000000000E+00 0.00000000000000E+00 0.00000000000000E+00 0.00000000000000E+00 
0.00000000000000E+00 0.00000000000000E+00 0.00000000000000E+00 0.00000000000000E+00 
0.00000000000000E+00 0.00000000000000E+00 0.00000000000000E+00 0.00000000000000E+00 
0.00000000000000E+00 0.00000000000000E+00 0.00000000000000E+00 0.00000000000000E+00 
0.00000000000000E+00 0.00000000000000E+00 0.00000000000000E+00 0.00000000000000E+00 
0.00000000000000E+00 0.00000000000000E+00 0.00000000000000E+00 0.00000000000000E+00 
0.00000000000000E+00 0.00000000000000E+00 0.00000000000000E+00 0.00000000000000E+00 
0.00000000000000E+00 0.00000000000000E+00 0.00000000000000E+00 0.00000000000000E+00 
0.00000000000000E+00 0.00000000000000E+00 0.00000000000000E+00 0.00000000000000E+00 
0.00000000000000E+00 0.00000000000000E+00 0.00000000000000E+00 0.00000000000000E+00 
0.00000000000000E+00 0.00000000000000E+00 0.00000000000000E+00 0.00000000000000E+00 
0.00000000000000E+00 0.00000000000000E+00 0.00000000000000E+00 0.00000000000000E+00 
0.00000000000000E+00 0.00000000000000E+00 0.00000000000000E+00 0.00000000000000E+00 
0.00000000000000E+00 0.00000000000000E+00 0.00000000000000E+00 0.00000000000000E+00 
0.00000000000000E+00 0.00000000000000E+00 0.00000000000000E+00 0.00000000000000E+00 
0.00000000000000E+00 0.00000000000000E+00 0.00000000000000E+00 0.00000000000000E+00 
0.00000000000000E+00 0.00000000000000E+00 0.00000000000000E+00 0.00000000000000E+00 
0.00000000000000E+00 0.00000000000000E+00 0.00000000000000E+00 0.00000000000000E+00 
0.00000000000000E+00 0.00000000000000E+00 0.00000000000000E+00 0.00000000000000E+00 
0.00000000000000E+00 0.00000000000000E+00 0.00000000000000E+00 0.00000000000000E+00 
0.00000000000000E+00 0.00000000000000E+00 0.00000000000000E+00 0.00000000000000E+00 
0.00000000000000E+00 0.00000000000000E+00 0.00000000000000E+00 0.00000000000000E+00 
0.00000000000000E+00 0.00000000000000E+00 0.00000000000000E+00 0.00000000000000E+00 
0.00000000000000E+00 
</PP_QIJL.2.2.0>
      <PP_QIJL.2.2.2 angular_momentum="2" first_index="2" second_index="2" composite_index="3" is_null="F">
0.00000000000000E+00 3.55427594108095E-23 5.88041430236743E-22 3.07857665867668E-21 
1.00628763665412E-20 2.54108744607667E-20 5.45057368165787E-20 1.04464128561862E-19 
1.84379643536467E-19 3.05591475097380E-19 4.81980578107760E-19 7.30295755783352E-19 
1.07051230317959E-18 1.52622605273134E-18 2.12508589692036E-18 2.89926811058444E-18 
3.88599606252178E-18 5.12810919254882E-18 6.67468543910722E-18 8.58172163445548E-18 
1.09128767447225E-17 1.37402832115384E-17 1.71454320741754E-17 2.12201379869902E-17 
2.60675907343009E-17 3.18035003553732E-17 3.85573435456056E-17 4.64737195997480E-17 
5.57138247962624E-17 6.64570548168720E-17 7.89027455308281E-17 9.32720632662045E-17 
1.09810056549490E-16 1.28787882206064E-16 1.50505219704697E-16 1.75292888680680E-16 
2.03515685719639E-16 2.35575457688665E-16 2.71914430229716E-16 3.13018811426076E-16 
3.59422692163521E-16 4.11712266341514E-16 4.70530395820724E-16 5.36581546846706E-16 
6.10637126751277E-16 6.93541251815638E-16 7.86216979525638E-16 8.89673040956793E-16 
1.00501111160529E-15 1.13343366193799E-15 1.27625243189871E-15 1.43489757697953E-15 
1.61092753688597E-15 1.80603968176376E-15 2.02208179476496E-15 2.26106445449322E-15 
2.52517438455378E-15 2.81678884466963E-15 3.13849113932647E-15 3.49308733024646E-15 
3.88362424186513E-15 4.31340885567443E-15 4.78602920001684E-15 5.30537684347627E-15 
5.87567111356871E-15 6.50148516942153E-15 7.18777406412833E-15 7.93990494571499E-15 
8.76368955596622E-15 9.66541919552216E-15 1.06519023370827E-14 1.17305050851829E-14 
1.29091946882305E-14 1.41965863315299E-14 1.56019934475981E-14 1.71354818077090E-14 
1.88079276674438E-14 2.06310802650522E-14 2.26176289907168E-14 2.47812755685147E-14 
2.71368116176760E-14 2.97002019822113E-14 3.24886742537600E-14 3.55208149366789E-14 
3.88166727333198E-14 4.23978694770793E-14 4.62877192583587E-14 5.05113563434807E-14 
5.50958725186578E-14 6.00704645489015E-14 6.54665924702530E-14 7.13181495139512E-14 
7.76616444908849E-14 8.45363975346588E-14 9.19847501740997E-14 1.00052290761485E-13 
1.08788096362269E-13 1.18244992286252E-13 1.28479830533089E-13 1.39553788516368E-13 
1.51532689491695E-13 1.64487346289626E-13 1.78493929980071E-13 1.93634365281285E-13 
2.09996754617556E-13 2.27675832859777E-13 2.46773454979085E-13 2.67399118904991E-13 
2.89670526174718E-13 3.13714182986904E-13 3.39666044603778E-13 3.67672206174976E-13 
3.97889643240104E-13 4.30487005535135E-13 4.65645467790653E-13 5.03559641646379E-13 
5.44438553021497E-13 5.88506689505461E-13 6.36005122867949E-13 6.87192711884598E-13 
7.42347391273621E-13 8.01767552788715E-13 8.65773524987386E-13 9.34709158737201E-13 
1.00894352582647E-12 1.08887273877827E-12 1.17492190036496E-12 1.26754719201458E-12 
1.36723811098988E-12 1.47451986667627E-12 1.58995594735660E-12 1.71415086947874E-12 
1.84775312217317E-12 1.99145832094595E-12 2.14601258512063E-12 2.31221615502022E-12 
2.49092726535617E-12 2.68306629345547E-12 2.88962020102412E-12 3.11164729059981E-12 
3.35028229849804E-12 3.60674184804987E-12 3.88233028849810E-12 4.17844594641954E-12 
4.49658781884025E-12 4.83836273903800E-12 5.20549304795423E-12 5.59982480724486E-12 
6.02333659114767E-12 6.47814889852660E-12 6.96653422803076E-12 7.49092786316691E-12 
8.05393941673538E-12 8.65836518800014E-12 9.30720138954542E-12 1.00036583043853E-11 
1.07511754388786E-11 1.15534377406645E-11 1.24143929562948E-11 1.33382702085250E-11 
1.43295998779203E-11 1.53932348806983E-11 1.65343734395323E-11 1.77585834523016E-11 
1.90718285700813E-11 2.04804961048719E-11 2.19914268895675E-11 2.36119472386214E-11 
2.53499031375628E-11 2.72136968364598E-11 2.92123260022637E-11 3.13554256093672E-11 
3.36533127676785E-11 3.61170346801779E-11 3.87584199649787E-11 4.15901335564354E-11 
4.46257354540952E-11 4.78797435664096E-11 5.13677009606614E-11 5.51062478071552E-11 
5.91131983356945E-11 6.34076231899491E-11 6.80099375119772E-11 7.29419951860885E-11 
7.82271896631218E-11 8.38905618074993E-11 8.99589152828011E-11 9.64609399818609E-11 
1.03427344048465E-10 1.10890995139450E-10 1.18887071497245E-10 1.27453223574656E-10 
1.36629746919585E-10 1.46459767100749E-10 1.56989437520355E-10 1.68268150998696E-10 
1.80348766101605E-10 1.93287849220004E-10 2.07145933511258E-10 2.21987795851979E-10 
2.37882753068731E-10 2.54904978807168E-10 2.73133842396305E-10 2.92654271323619E-10 
3.13557138928804E-10 3.35939679015683E-10 3.59905929352319E-10 3.85567205952225E-10 
4.13042610353161E-10 4.42459572151359E-10 4.73954429243194E-10 5.07673048380952E-10 
5.43771488854607E-10 5.82416712253299E-10 6.23787341575227E-10 6.68074473001587E-10 
7.15482544149201E-10 7.66230262471066E-10 8.20551598219793E-10 8.78696846334507E-10 
9.40933762050397E-10 1.00754877523751E-09 1.07884828914409E-09 1.15516006920241E-09 
1.23683472821787E-09 1.32424731458626E-09 1.41779901072720E-09 1.51791894933681E-09 
1.62506615557593E-09 1.73973162403458E-09 1.86244053966325E-09 1.99375465281401E-09 
2.13427481888395E-09 2.28464371412197E-09 2.44554873955970E-09 2.61772512655579E-09 
2.80195925733408E-09 2.99909221574392E-09 3.21002358437772E-09 3.43571550446832E-09 
3.67719701729891E-09 3.93556870678730E-09 4.21200766301738E-09 4.50777279056589E-09 
4.82421048398973E-09 5.16276069664082E-09 5.52496343028544E-09 5.91246567370049E-09 
6.32702882224974E-09 6.77053661165003E-09 7.24500360041170E-09 7.75258424098496E-09 
8.29558257784443E-09 8.87646261836024E-09 9.49785942113955E-09 1.01625909526722E-08 
1.08736707646100E-08 1.16343215492627E-08 1.24479896336085E-08 1.33183604767212E-08 
1.42493752405323E-08 1.52452485076082E-08 1.63104872256897E-08 1.74499109644058E-08 
1.86686735735322E-08 1.99722863413088E-08 2.13666427557832E-08 2.28580449806452E-08 
2.44532321636212E-08 2.61594107055012E-08 2.79842866226910E-08 2.99361001528548E-08 
3.20236627543644E-08 3.42563966677547E-08 3.66443772156026E-08 3.91983780318780E-08 
4.19299194214384E-08 4.48513200677890E-08 4.79757523207229E-08 5.13173013119803E-08 
5.48910281628512E-08 5.87130375702052E-08 6.28005500685446E-08 6.71719792977214E-08 
7.18470146211651E-08 7.68467094637493E-08 8.21935757670960E-08 8.79116849853414E-08 
9.40267760756478E-08 1.00566370968256E-07 1.07559898030567E-07 1.15038824088043E-07 
1.23036795584658E-07 1.31589789522772E-07 1.40736274861971E-07 1.50517385093897E-07 
1.60977102780233E-07 1.72162456871441E-07 1.84123733700424E-07 1.96914702603397E-07 
2.10592857153295E-07 2.25219673174262E-07 2.40860884544394E-07 2.57586778207611E-07 
2.75472509613613E-07 2.94598439986968E-07 3.15050497049546E-07 3.36920560706193E-07 
3.60306875532603E-07 3.85314491840410E-07 4.12055737360848E-07 4.40650721652284E-07 
4.71227875519540E-07 5.03924527850068E-07 5.38887522577689E-07 5.76273878382431E-07 
6.16251494214654E-07 6.58999903953405E-07 7.04711083296218E-07 7.53590312839875E-07 
8.05857101173431E-07 8.61746171939153E-07 9.21508519828894E-07 9.85412539665978E-07 
1.05374523435450E-06 1.12681350661450E-06 1.20494554066472E-06 1.28849228024993E-06 
1.37782900932750E-06 1.47335704296737E-06 1.57550553610291E-06 1.68473341808177E-06 
1.80153146231999E-06 1.92642450021270E-06 2.05997378920726E-06 2.20277954633702E-06 
2.35548365859443E-06 2.51877258234088E-06 2.69338044523769E-06 2.88009236510361E-06 
3.07974800045208E-06 3.29324534929113E-06 3.52154481399304E-06 3.76567354992816E-06 
4.02673011935562E-06 4.30588947044941E-06 4.60440826562011E-06 4.92363058321727E-06 
5.26499401902074E-06 5.63003621621921E-06 6.02040185306291E-06 6.43785012182846E-06 
6.88426273348354E-06 7.36165248450077E-06 7.87217242695242E-06 8.41812568370626E-06 
9.00197595522634E-06 9.62635876664271E-06 1.02940935075248E-05 1.10081963219360E-05 
1.17718939082318E-05 1.25886382936917E-05 1.34621226536888E-05 1.43962982509714E-05 
1.53953925725369E-05 1.64639287529368E-05 1.76067463741084E-05 1.88290237421241E-05 
2.01363017433938E-05 2.15345093993686E-05 2.30299912359090E-05 2.46295366040484E-05 
2.63404110854458E-05 2.81703901416353E-05 3.01277951613216E-05 3.22215320833886E-05 
3.44611327823395E-05 3.68567994127027E-05 3.94194519304220E-05 4.21607790230992E-05 
4.50932926901149E-05 4.82303867469514E-05 5.15863995337051E-05 5.51766811364468E-05 
5.90176654509294E-05 6.31269474419772E-05 6.75233659797707E-05 7.22270926609795E-05 
7.72597270514217E-05 8.26443988288785E-05 8.84058773199668E-05 9.45706889924859E-05 
1.01167243469722E-04 1.08225968712992E-04 1.15779456034303E-04 1.23862615670726E-04 
1.32512843705993E-04 1.41770201164441E-04 1.51677606195917E-04 1.62281040305475E-04 
1.73629769675211E-04 1.85776582697037E-04 1.98778044924339E-04 2.12694772717136E-04 
2.27591726989363E-04 2.43538528538459E-04 2.60609796560171E-04 2.78885512081832E-04 
2.98451408137680E-04 3.19399388710123E-04 3.41827978528634E-04 3.65842806052683E-04 
3.91557122074601E-04 4.19092356587379E-04 4.48578716747866E-04 4.80155828976962E-04 
5.13973428448692E-04 5.50192099455406E-04 5.88984070404387E-04 6.30534067450185E-04 
6.75040231030565E-04 7.22715099955897E-04 7.73786667908529E-04 8.28499517655401E-04 
8.87116038545240E-04 9.49917733357258E-04 1.01720662083084E-03 1.08930674073595E-03 
1.16656576879710E-03 1.24935674913748E-03 1.33807995257125E-03 1.43316486941167E-03 
1.53507234618031E-03 1.64429687594841E-03 1.76136905283987E-03 1.88685820169597E-03 
2.02137519437493E-03 2.16557546531562E-03 2.32016223867193E-03 2.48588998085628E-03 
2.66356809296579E-03 2.85406485703711E-03 3.05831165191626E-03 3.27730745478599E-03 
3.51212364484640E-03 3.76390912478781E-03 4.03389578004481E-03 4.32340428978734E-03 
4.63385031149072E-03 4.96675105264186E-03 5.32373225163295E-03 5.70653558188585E-03 
6.11702649725805E-03 6.55720253534714E-03 7.02920209267567E-03 7.53531368558135E-03 
8.07798570697334E-03 8.65983669014595E-03 9.28366608191167E-03 9.95246553009415E-03 
1.06694306805725E-02 1.14379734769863E-02 1.22617349464377E-02 1.31445984543962E-02 
1.40907033895222E-02 1.51044592451214E-02 1.61905600433546E-02 1.73539990281511E-02 
1.86000835592688E-02 1.99344500976139E-02 2.13630791664914E-02 2.28923101519642E-02 
2.45288557757147E-02 2.62798160442336E-02 2.81526914595834E-02 3.01553952295199E-02 
3.22962641852177E-02 3.45840680738362E-02 3.70280168526689E-02 3.96377655541047E-02 
4.24234162519513E-02 4.53955165934301E-02 4.85650543286046E-02 5.19434471670914E-02 
5.55425272736846E-02 5.93745196387935E-02 6.34520134631169E-02 6.77879257005176E-02 
7.23954557742136E-02 7.72880304800026E-02 8.24792380068607E-02 8.79827499875999E-02 
9.38122304657685E-02 9.99812306381591E-02 1.06503068280870E-01 1.13390690776529E-01 
1.20656520734675E-01 1.28312283348100E-01 1.36368814734422E-01 1.44835850769264E-01 
1.53721796166162E-01 1.63033473920073E-01 1.72775855684659E-01 1.82951774109217E-01 
1.93561618868448E-01 2.04603018779910E-01 2.16070513276356E-01 2.27955217460091E-01 
2.40244486035803E-01 2.52921582637545E-01 2.65965362308033E-01 2.79349976375314E-01 
2.93044610308969E-01 3.07013266696307E-01 3.21214606867582E-01 3.35601866070799E-01 
3.50122858180405E-01 3.64720086815184E-01 3.79330980108002E-01 3.93888266072876E-01 
4.08320504545346E-01 4.22552789482533E-01 4.36507632059825E-01 4.50106029942800E-01 
4.63268721221898E-01 4.75917612424335E-01 4.87977358331106E-01 4.99377057078682E-01 
5.10052006616129E-01 5.19945448389018E-01 5.29010200937530E-01 5.37210060496134E-01 
5.44520818337587E-01 5.50930716790485E-01 5.56440139355234E-01 5.61060307724419E-01 
5.64810743284208E-01 5.67715247296780E-01 5.69796168131522E-01 5.71066762533859E-01 
5.71521529112360E-01 5.71124505074564E-01 5.69795681530243E-01 5.67395917908244E-01 
5.63711030371875E-01 5.58436097404757E-01 5.51161466798137E-01 5.41362451176752E-01 
5.28395238197074E-01 5.11502069818825E-01 4.89829186745227E-01 4.62461275723454E-01 
4.28476038395414E-01 3.87021805727188E-01 3.37419578771966E-01 2.79288160872859E-01 
2.12686810028256E-01 1.38263770419888E-01 5.73909802842357E-02 -2.77445918507264E-02 
-1.14133221463953E-01 -1.98067819292184E-01 -2.75455230112240E-01 -3.42355159394816E-01 
-3.95748493201350E-01 -4.34443648646600E-01 -4.59843805162396E-01 -4.75956576462254E-01 
-4.87450922098000E-01 -4.96014475601000E-01 -5.01702555652000E-01 -5.04544078038000E-01 
-5.04587273518000E-01 -5.01899843492000E-01 -4.96568906158000E-01 -4.88700711426000E-01 
-4.78420112811000E-01 -4.65869778403000E-01 -4.51209141619000E-01 -4.34613081455000E-01 
-4.16270352593000E-01 -3.96381767144000E-01 -3.75158175970000E-01 -3.52818267962000E-01 
-3.29586270592000E-01 -3.05689590620000E-01 -2.81356520729000E-01 -2.56814074663000E-01 
-2.32286124575000E-01 -2.07991925668000E-01 -1.84145240532000E-01 -1.60954132702000E-01 
-1.38621590127000E-01 -1.17346846493000E-01 -9.73271890367000E-02 -7.87594494780000E-02 
-6.18400338295000E-02 -4.67615419698000E-02 -3.37038109226000E-02 -2.28169634959000E-02 
-1.41950584385000E-02 -7.84062711156000E-03 -3.62429950019000E-03 -1.24963403230000E-03 
-2.43589841369000E-04 -8.84530835438000E-06 0.00000000000000E+00 0.00000000000000E+00 
0.00000000000000E+00 0.00000000000000E+00 0.00000000000000E+00 0.00000000000000E+00 
0.00000000000000E+00 0.00000000000000E+00 0.00000000000000E+00 0.00000000000000E+00 
0.00000000000000E+00 0.00000000000000E+00 0.00000000000000E+00 0.00000000000000E+00 
0.00000000000000E+00 0.00000000000000E+00 0.00000000000000E+00 0.00000000000000E+00 
0.00000000000000E+00 0.00000000000000E+00 0.00000000000000E+00 0.00000000000000E+00 
0.00000000000000E+00 0.00000000000000E+00 0.00000000000000E+00 0.00000000000000E+00 
0.00000000000000E+00 0.00000000000000E+00 0.00000000000000E+00 0.00000000000000E+00 
0.00000000000000E+00 0.00000000000000E+00 0.00000000000000E+00 0.00000000000000E+00 
0.00000000000000E+00 0.00000000000000E+00 0.00000000000000E+00 0.00000000000000E+00 
0.00000000000000E+00 0.00000000000000E+00 0.00000000000000E+00 0.00000000000000E+00 
0.00000000000000E+00 0.00000000000000E+00 0.00000000000000E+00 0.00000000000000E+00 
0.00000000000000E+00 0.00000000000000E+00 0.00000000000000E+00 0.00000000000000E+00 
0.00000000000000E+00 0.00000000000000E+00 0.00000000000000E+00 0.00000000000000E+00 
0.00000000000000E+00 0.00000000000000E+00 0.00000000000000E+00 0.00000000000000E+00 
0.00000000000000E+00 0.00000000000000E+00 0.00000000000000E+00 0.00000000000000E+00 
0.00000000000000E+00 0.00000000000000E+00 0.00000000000000E+00 0.00000000000000E+00 
0.00000000000000E+00 0.00000000000000E+00 0.00000000000000E+00 0.00000000000000E+00 
0.00000000000000E+00 0.00000000000000E+00 0.00000000000000E+00 0.00000000000000E+00 
0.00000000000000E+00 0.00000000000000E+00 0.00000000000000E+00 0.00000000000000E+00 
0.00000000000000E+00 0.00000000000000E+00 0.00000000000000E+00 0.00000000000000E+00 
0.00000000000000E+00 0.00000000000000E+00 0.00000000000000E+00 0.00000000000000E+00 
0.00000000000000E+00 0.00000000000000E+00 0.00000000000000E+00 0.00000000000000E+00 
0.00000000000000E+00 0.00000000000000E+00 0.00000000000000E+00 0.00000000000000E+00 
0.00000000000000E+00 0.00000000000000E+00 0.00000000000000E+00 0.00000000000000E+00 
0.00000000000000E+00 0.00000000000000E+00 0.00000000000000E+00 0.00000000000000E+00 
0.00000000000000E+00 0.00000000000000E+00 0.00000000000000E+00 0.00000000000000E+00 
0.00000000000000E+00 0.00000000000000E+00 0.00000000000000E+00 0.00000000000000E+00 
0.00000000000000E+00 0.00000000000000E+00 0.00000000000000E+00 0.00000000000000E+00 
0.00000000000000E+00 0.00000000000000E+00 0.00000000000000E+00 0.00000000000000E+00 
0.00000000000000E+00 0.00000000000000E+00 0.00000000000000E+00 0.00000000000000E+00 
0.00000000000000E+00 0.00000000000000E+00 0.00000000000000E+00 0.00000000000000E+00 
0.00000000000000E+00 0.00000000000000E+00 0.00000000000000E+00 0.00000000000000E+00 
0.00000000000000E+00 0.00000000000000E+00 0.00000000000000E+00 0.00000000000000E+00 
0.00000000000000E+00 0.00000000000000E+00 0.00000000000000E+00 0.00000000000000E+00 
0.00000000000000E+00 0.00000000000000E+00 0.00000000000000E+00 0.00000000000000E+00 
0.00000000000000E+00 0.00000000000000E+00 0.00000000000000E+00 0.00000000000000E+00 
0.00000000000000E+00 0.00000000000000E+00 0.00000000000000E+00 0.00000000000000E+00 
0.00000000000000E+00 0.00000000000000E+00 0.00000000000000E+00 0.00000000000000E+00 
0.00000000000000E+00 0.00000000000000E+00 0.00000000000000E+00 0.00000000000000E+00 
0.00000000000000E+00 0.00000000000000E+00 0.00000000000000E+00 0.00000000000000E+00 
0.00000000000000E+00 0.00000000000000E+00 0.00000000000000E+00 0.00000000000000E+00 
0.00000000000000E+00 0.00000000000000E+00 0.00000000000000E+00 0.00000000000000E+00 
0.00000000000000E+00 0.00000000000000E+00 0.00000000000000E+00 0.00000000000000E+00 
0.00000000000000E+00 0.00000000000000E+00 0.00000000000000E+00 0.00000000000000E+00 
0.00000000000000E+00 0.00000000000000E+00 0.00000000000000E+00 0.00000000000000E+00 
0.00000000000000E+00 0.00000000000000E+00 0.00000000000000E+00 0.00000000000000E+00 
0.00000000000000E+00 0.00000000000000E+00 0.00000000000000E+00 0.00000000000000E+00 
0.00000000000000E+00 0.00000000000000E+00 0.00000000000000E+00 0.00000000000000E+00 
0.00000000000000E+00 0.00000000000000E+00 0.00000000000000E+00 0.00000000000000E+00 
0.00000000000000E+00 0.00000000000000E+00 0.00000000000000E+00 0.00000000000000E+00 
0.00000000000000E+00 0.00000000000000E+00 0.00000000000000E+00 0.00000000000000E+00 
0.00000000000000E+00 0.00000000000000E+00 0.00000000000000E+00 0.00000000000000E+00 
0.00000000000000E+00 0.00000000000000E+00 0.00000000000000E+00 0.00000000000000E+00 
0.00000000000000E+00 0.00000000000000E+00 0.00000000000000E+00 0.00000000000000E+00 
0.00000000000000E+00 0.00000000000000E+00 0.00000000000000E+00 0.00000000000000E+00 
0.00000000000000E+00 0.00000000000000E+00 0.00000000000000E+00 0.00000000000000E+00 
0.00000000000000E+00 0.00000000000000E+00 0.00000000000000E+00 0.00000000000000E+00 
0.00000000000000E+00 0.00000000000000E+00 0.00000000000000E+00 0.00000000000000E+00 
0.00000000000000E+00 0.00000000000000E+00 0.00000000000000E+00 0.00000000000000E+00 
0.00000000000000E+00 0.00000000000000E+00 0.00000000000000E+00 0.00000000000000E+00 
0.00000000000000E+00 0.00000000000000E+00 0.00000000000000E+00 0.00000000000000E+00 
0.00000000000000E+00 0.00000000000000E+00 0.00000000000000E+00 0.00000000000000E+00 
0.00000000000000E+00 0.00000000000000E+00 0.00000000000000E+00 0.00000000000000E+00 
0.00000000000000E+00 0.00000000000000E+00 0.00000000000000E+00 0.00000000000000E+00 
0.00000000000000E+00 0.00000000000000E+00 0.00000000000000E+00 0.00000000000000E+00 
0.00000000000000E+00 0.00000000000000E+00 0.00000000000000E+00 0.00000000000000E+00 
0.00000000000000E+00 0.00000000000000E+00 0.00000000000000E+00 0.00000000000000E+00 
0.00000000000000E+00 0.00000000000000E+00 0.00000000000000E+00 0.00000000000000E+00 
0.00000000000000E+00 0.00000000000000E+00 0.00000000000000E+00 0.00000000000000E+00 
0.00000000000000E+00 0.00000000000000E+00 0.00000000000000E+00 0.00000000000000E+00 
0.00000000000000E+00 0.00000000000000E+00 0.00000000000000E+00 0.00000000000000E+00 
0.00000000000000E+00 
</PP_QIJL.2.2.2>
      <PP_QIJL.2.3.1 angular_momentum="1" first_index="2" second_index="3" composite_index="5" is_null="F">
-0.00000000000000E+00 -8.08684828644216E-18 -6.63394525225813E-17 -2.29603454731274E-16 
-5.58158498694777E-16 -1.11809999885954E-15 -1.98174421977571E-15 -3.22805799189941E-15 
-4.94311446213482E-15 -7.22057635360286E-15 -1.01622082902244E-14 -1.38784198253219E-14 
-1.84888409028314E-14 -2.41229315762411E-14 -3.09206279055265E-14 -3.90330260562089E-14 
-4.86231067409963E-14 -5.98665022536071E-14 -7.29523084673970E-14 -8.80839442960409E-14 
-1.05480061268683E-13 -1.25375505969767E-13 -1.48022338308211E-13 -1.73690908665102E-13 
-2.02670997197977E-13 -2.35273018719432E-13 -2.71829296752710E-13 -3.12695410585233E-13 
-3.58251619306466E-13 -4.08904367070657E-13 -4.65087874028117E-13 -5.27265817600749E-13 
-5.95933109052903E-13 -6.71617770545015E-13 -7.54882918158720E-13 -8.46328856646205E-13 
-9.46595292006394E-13 -1.05636366825269E-12 -1.17635963514407E-12 -1.30735565396484E-12 
-1.45017374881842E-12 -1.60568841133337E-12 -1.77482966706197E-12 -1.95858631225042E-12 
-2.15800933028268E-12 -2.37421549737898E-12 -2.60839118775508E-12 -2.86179638905208E-12 
-3.13576893920470E-12 -3.43172899677659E-12 -3.75118375717414E-12 -4.09573242802333E-12 
-4.46707147745257E-12 -4.86700017011114E-12 -5.29742640599803E-12 -5.76037287884652E-12 
-6.25798356973153E-12 -6.79253059680373E-12 -7.36642143558595E-12 -7.98220653404689E-12 
-8.64258734134839E-12 -9.35042477079763E-12 -1.01087481247683E-11 -1.09207645003513E-11 
-1.17898687050372E-11 -1.27196537098412E-11 -1.37139216652527E-11 -1.47766955119765E-11 
-1.59122312190556E-11 -1.71250306802801E-11 -1.84198553033731E-11 -1.98017403326733E-11 
-2.12760099386536E-11 -2.28482931200940E-11 -2.45245404557008E-11 -2.63110417570529E-11 
-2.82144446648454E-11 -3.02417742404739E-11 -3.24004536049547E-11 -3.46983256808052E-11 
-3.71436760955671E-11 -3.97452573047243E-11 -4.25123140030036E-11 -4.54546098898254E-11 
-4.85824558553208E-11 -5.19067396716571E-11 -5.54389572591199E-11 -5.91912456154217E-11 
-6.31764174911135E-11 -6.74079979095529E-11 -7.19002626168698E-11 -7.66682785768247E-11 
-8.17279466079167E-11 -8.70960462750135E-11 -9.27902831600467E-11 -9.88293386317029E-11 
-1.05232922245611E-10 -1.12021826910050E-10 -1.19217986965923E-10 -1.26844539337440E-10 
-1.34925887893704E-10 -1.43487771220042E-10 -1.52557333947657E-10 -1.62163201846643E-10 
-1.72335560872294E-10 -1.83106240362474E-10 -1.94508800625973E-10 -2.06578625114991E-10 
-2.19353017465501E-10 -2.32871303610658E-10 -2.47174939269534E-10 -2.62307623081711E-10 
-2.78315415656166E-10 -2.95246864891272E-10 -3.13153137837373E-10 -3.32088159481949E-10 
-3.52108758815125E-10 -3.73274822513634E-10 -3.95649456703382E-10 -4.19299157156571E-10 
-4.44293988410641E-10 -4.70707772245669E-10 -4.98618286003921E-10 -5.28107471296560E-10 
-5.59261653586243E-10 -5.92171773253724E-10 -6.26933628714129E-10 -6.63648132219875E-10 
-7.02421579035736E-10 -7.43365930613346E-10 -7.86599112550743E-10 -8.32245328093716E-10 
-8.80435387943507E-10 -9.31307057276234E-10 -9.85005420805765E-10 -1.04168326690611E-09 
-1.10150149163807E-09 -1.16462952391560E-09 -1.23124577268986E-09 -1.30153809746105E-09 
-1.37570430321935E-09 -1.45395266112757E-09 -1.53650245629213E-09 -1.62358456395647E-09 
-1.71544205564909E-09 -1.81233083683035E-09 -1.91452031759694E-09 -2.02229411831068E-09 
-2.13595081173122E-09 -2.25580470375596E-09 -2.38218665461649E-09 -2.51544494271159E-09 
-2.65594617320648E-09 -2.80407623376085E-09 -2.96024129983059E-09 -3.12486889202876E-09 
-3.29840898834426E-09 -3.48133519394235E-09 -3.67414597156622E-09 -3.87736593572667E-09 
-4.09154721383588E-09 -4.31727087790843E-09 -4.55514845028828E-09 -4.80582348737072E-09 
-5.06997324527439E-09 -5.34831043191653E-09 -5.64158504891680E-09 -5.95058633035339E-09 
-6.27614477977672E-09 -6.61913431433074E-09 -6.98047451903454E-09 -7.36113301712845E-09 
-7.76212796396511E-09 -8.18453066852809E-09 -8.62946835210694E-09 -9.09812704775218E-09 
-9.59175465107550E-09 -1.01116641266842E-08 -1.06592368825541E-08 -1.12359263178776E-08 
-1.18432615520715E-08 -1.24828513499005E-08 -1.31563882461416E-08 -1.38656528847124E-08 
-1.46125185820956E-08 -1.53989561244403E-08 -1.62270388142396E-08 -1.70989477767867E-08 
-1.80169775382254E-08 -1.89835418959959E-08 -2.00011800871126E-08 -2.10725632775259E-08 
-2.22005013856514E-08 -2.33879502571335E-08 -2.46380192100649E-08 -2.59539789684650E-08 
-2.73392700056743E-08 -2.87975113170017E-08 -3.03325096454999E-08 -3.19482691817746E-08 
-3.36490017640218E-08 -3.54391376062800E-08 -3.73233365739929E-08 -3.93065000445285E-08 
-4.13937833792604E-08 -4.35906090336546E-08 -4.59026803483736E-08 -4.83359960453368E-08 
-5.08968654729774E-08 -5.35919246360930E-08 -5.64281530512347E-08 -5.94128914692699E-08 
-6.25538605111245E-08 -6.58591802604065E-08 -6.93373908684485E-08 -7.29974742147050E-08 
-7.68488766904108E-08 -8.09015331428572E-08 -8.51658920602112E-08 -8.96529420510040E-08 
-9.43742396865682E-08 -9.93419387687791E-08 -1.04568821112969E-07 -1.10068328909247E-07 
-1.15854598749428E-07 -1.21942497402725E-07 -1.28347659433533E-07 -1.35086526753528E-07 
-1.42176390204448E-07 -1.49635433283690E-07 -1.57482778113125E-07 -1.65738533777482E-07 
-1.74423847142269E-07 -1.83560956288784E-07 -1.93173246685972E-07 -2.03285310267510E-07 
-2.13923007528231E-07 -2.25113532815788E-07 -2.36885482991974E-07 -2.49268929600679E-07 
-2.62295494753491E-07 -2.75998430931861E-07 -2.90412704849390E-07 -3.05575085669411E-07 
-3.21524237721604E-07 -3.38300817988619E-07 -3.55947578618893E-07 -3.74509474676266E-07 
-3.94033777441170E-07 -4.14570193542703E-07 -4.36170990169628E-07 -4.58891126767238E-07 
-4.82788393437530E-07 -5.07923556497794E-07 -5.34360511480277E-07 -5.62166444006574E-07 
-5.91411998904197E-07 -6.22171458021179E-07 -6.54522927164124E-07 -6.88548532625810E-07 
-7.24334627812634E-07 -7.61972010465741E-07 -8.01556151033393E-07 -8.43187432784169E-07 
-8.86971404209243E-07 -9.33019044399560E-07 -9.81447042031160E-07 -1.03237808867404E-06 
-1.08594118713766E-06 -1.14227197566468E-06 -1.20151306869123E-06 -1.26381441517576E-06 
-1.32933367524590E-06 -1.39823661618351E-06 -1.47069752870805E-06 -1.54689966464193E-06 
-1.62703569698714E-06 -1.71130820360359E-06 -1.79993017569041E-06 -1.89312555234649E-06 
-1.99112978251277E-06 -2.09419041578306E-06 -2.20256772340650E-06 -2.31653535118488E-06 
-2.43638100584289E-06 -2.56240717654490E-06 -2.69493189339737E-06 -2.83428952480806E-06 
-2.98083161571653E-06 -3.13492776878650E-06 -3.29696657066647E-06 -3.46735656582768E-06 
-3.64652728016742E-06 -3.83493029707042E-06 -4.03304038863850E-06 -4.24135670472831E-06 
-4.46040402301444E-06 -4.69073406293321E-06 -4.93292686693490E-06 -5.18759225254761E-06 
-5.45537133828317E-06 -5.73693814882655E-06 -6.03300130048021E-06 -6.34430577457812E-06 
-6.67163478110648E-06 -7.01581171687004E-06 -7.37770222499986E-06 -7.75821635879548E-06 
-8.15831085708987E-06 -8.57899153527460E-06 -9.02131579884634E-06 -9.48639528531080E-06 
-9.97539864118880E-06 -1.04895544405247E-05 -1.10301542537899E-05 -1.15985558719351E-05 
-1.21961866953265E-05 -1.28245472976729E-05 -1.34852151689990E-05 -1.41798486515727E-05 
-1.49101910771039E-05 -1.56780751123000E-05 -1.64854273304258E-05 -1.73342730112541E-05 
-1.82267411903050E-05 -1.91650699621190E-05 -2.01516120546799E-05 -2.11888406900687E-05 
-2.22793557405913E-05 -2.34258902001568E-05 -2.46313169858930E-05 -2.58986560832519E-05 
-2.72310820578967E-05 -2.86319319492153E-05 -3.01047135626245E-05 -3.16531141863994E-05 
-3.32810097518386E-05 -3.49924744569609E-05 -3.67917908795260E-05 -3.86834606058657E-05 
-4.06722153964806E-05 -4.27630289185911E-05 -4.49611290774429E-05 -4.72720109664610E-05 
-4.97014504819236E-05 -5.22555186199584E-05 -5.49405965018616E-05 -5.77633911589714E-05 
-6.07309521156857E-05 -6.38506888145092E-05 -6.71303889157368E-05 -7.05782375264295E-05 
-7.42028374014752E-05 -7.80132301588470E-05 -8.20189185700666E-05 -8.62298899714023E-05 
-9.06566408570725E-05 -9.53102027093626E-05 -1.00202169125609E-04 -1.05344724314844E-04 
-1.10750673023537E-04 -1.16433471962920E-04 -1.22407262813027E-04 -1.28686906887634E-04 
-1.35288021524221E-04 -1.42227018305080E-04 -1.49521143185539E-04 -1.57188518633728E-04 
-1.65248187858529E-04 -1.73720161262716E-04 -1.82625465192603E-04 -1.91986193133089E-04 
-2.01825559423287E-04 -2.12167955666222E-04 -2.23039009917570E-04 -2.34465648812798E-04 
-2.46476162775423E-04 -2.59100274435062E-04 -2.72369210428002E-04 -2.86315776747634E-04 
-3.00974437779625E-04 -3.16381399242041E-04 -3.32574695185657E-04 -3.49594279257176E-04 
-3.67482120426602E-04 -3.86282303386022E-04 -4.06041133843830E-04 -4.26807248940566E-04 
-4.48631733015642E-04 -4.71568239004924E-04 -4.95673115672974E-04 -5.21005541023521E-04 
-5.47627662090590E-04 -5.75604741477228E-04 -6.05005310889479E-04 -6.35901332006466E-04 
-6.68368365035538E-04 -7.02485745243369E-04 -7.38336767885020E-04 -7.76008881844156E-04 
-8.15593892392501E-04 -8.57188173466060E-04 -9.00892889888877E-04 -9.46814229911730E-04 
-9.95063648577644E-04 -1.04575812233096E-03 -1.09902041534397E-03 -1.15497935808464E-03 
-1.21377013854761E-03 -1.27553460678334E-03 -1.34042159313222E-03 -1.40858724082219E-03 
-1.48019535342501E-03 -1.55541775776938E-03 -1.63443468290127E-03 -1.71743515570904E-03 
-1.80461741381760E-03 -1.89618933637093E-03 -1.99236889337846E-03 -2.09338461426247E-03 
-2.19947607620516E-03 -2.31089441309512E-03 -2.42790284559770E-03 -2.55077723313468E-03 
-2.67980664833946E-03 -2.81529397481084E-03 -2.95755652866429E-03 -3.10692670461100E-03 
-3.26375264728178E-03 -3.42839894825390E-03 -3.60124736956842E-03 -3.78269759413803E-03 
-3.97316800377447E-03 -4.17309648511190E-03 -4.38294126408490E-03 -4.60318176931871E-03 
-4.83431952449905E-03 -5.07687907065219E-03 -5.33140891752105E-03 -5.59848252472512E-03 
-5.87869931319787E-03 -6.17268570543249E-03 -6.48109619500085E-03 -6.80461444507614E-03 
-7.14395441537745E-03 -7.49986151489017E-03 -7.87311378321834E-03 -8.26452309404169E-03 
-8.67493638483482E-03 -9.10523690508068E-03 -9.55634548665918E-03 -1.00292218293377E-02 
-1.05248658001242E-02 -1.10443187438467E-02 -1.15886648000566E-02 -1.21590322225932E-02 
-1.27565946956681E-02 -1.33825726437313E-02 -1.40382345251894E-02 -1.47248981066799E-02 
-1.54439317079636E-02 -1.61967554103265E-02 -1.69848422170758E-02 -1.78097191609736E-02 
-1.86729683391010E-02 -1.95762278702514E-02 -2.05211927597742E-02 -2.15096156500747E-02 
-2.25433074527594E-02 -2.36241378347693E-02 -2.47540355421628E-02 -2.59349885435375E-02 
-2.71690439690493E-02 -2.84583078179631E-02 -2.98049444147789E-02 -3.12111755813305E-02 
-3.26792794960605E-02 -3.42115892089395E-02 -3.58104907804062E-02 -3.74784210035850E-02 
-3.92178646750121E-02 -4.10313513687941E-02 -4.29214516820345E-02 -4.48907728908130E-02 
-4.69419539809499E-02 -4.90776600066060E-02 -5.13005757093057E-02 -5.36133983659870E-02 
-5.60188297935426E-02 -5.85195674658504E-02 -6.11182946786407E-02 -6.38176697079195E-02 
-6.66203139060567E-02 -6.95287986706627E-02 -7.25456312391825E-02 -7.56732392482508E-02 
-7.89139540003799E-02 -8.22699924008551E-02 -8.57434375075460E-02 -8.93362176612428E-02 
-9.30500841578057E-02 -9.68865874368256E-02 -1.00847051779648E-01 -1.04932548493056E-01 
-1.09143867602923E-01 -1.13481488068219E-01 -1.17945546553698E-01 -1.22535804816374E-01 
-1.27251615775672E-01 -1.32091888367092E-01 -1.37055051278914E-01 -1.42139015732437E-01 
-1.47341137447538E-01 -1.52658177993581E-01 -1.58086265731670E-01 -1.63620856592670E-01 
-1.69256694937453E-01 -1.74987774790308E-01 -1.80807301750787E-01 -1.86707655881727E-01 
-1.92680355916205E-01 -1.98716025098418E-01 -2.04804358997753E-01 -2.10934095605612E-01 
-2.17092988010786E-01 -2.23267779938586E-01 -2.29444184366703E-01 -2.35606865440572E-01 
-2.41739423808930E-01 -2.47824385491122E-01 -2.53843194323333E-01 -2.59776208003214E-01 
-2.65602697729589E-01 -2.71300851461390E-01 -2.76847780888414E-01 -2.82219532331661E-01 
-2.87391102029440E-01 -2.92336456610414E-01 -2.97028560044310E-01 -3.01439409023533E-01 
-3.05540079627979E-01 -3.09300789194857E-01 -3.12690978693860E-01 -3.15679422470581E-01 
-3.18234374019021E-01 -3.20323758350542E-01 -3.21915423436789E-01 -3.22977464875151E-01 
-3.23478639056495E-01 -3.23388880222714E-01 -3.22679935287080E-01 -3.21326126330362E-01 
-3.19305243282794E-01 -3.16599557275135E-01 -3.13196927200029E-01 -3.09091946921163E-01 
-3.04287047406792E-01 -2.98793426817305E-01 -2.92631633943787E-01 -2.85831581296480E-01 
-2.78431723768396E-01 -2.70477126296110E-01 -2.62016192288905E-01 -2.53095988671180E-01 
-2.43756471206448E-01 -2.34024623623687E-01 -2.23910788799068E-01 -2.13411613141336E-01 
-2.02527436841000E-01 -1.91289165551000E-01 -1.79745532131000E-01 -1.67949821199000E-01 
-1.55959298888000E-01 -1.43834879469000E-01 -1.31640709516000E-01 -1.19443662075000E-01 
-1.07312746234000E-01 -9.53184254019000E-02 -8.35318580511000E-02 -7.20240555621000E-02 
-6.08649816554000E-02 -5.01225895518000E-02 -3.98618341633000E-02 -3.01436568840000E-02 
-2.10239950032000E-02 -1.25528152543000E-02 -4.77324162305000E-03 2.27921745386000E-03 
8.57724656296000E-03 1.41020863193000E-02 1.88435523147000E-02 2.27996804296000E-02 
2.59758658001000E-02 2.83835375654000E-02 3.00383914431000E-02 3.09585330792000E-02 
3.11629933308000E-02 3.06715028440000E-02 2.95064286091000E-02 2.76978958235000E-02 
2.52925351380000E-02 2.23655966933000E-02 1.90345428930000E-02 1.54702233426000E-02 
1.18982839458000E-02 8.57871228349000E-03 5.74363331451000E-03 3.50176299806000E-03 
1.86728244730000E-03 8.10163134823000E-04 2.46496928861000E-04 3.53790689799000E-05 
2.33958740860000E-07 0.00000000000000E+00 0.00000000000000E+00 0.00000000000000E+00 
0.00000000000000E+00 0.00000000000000E+00 0.00000000000000E+00 0.00000000000000E+00 
0.00000000000000E+00 0.00000000000000E+00 0.00000000000000E+00 0.00000000000000E+00 
0.00000000000000E+00 0.00000000000000E+00 0.00000000000000E+00 0.00000000000000E+00 
0.00000000000000E+00 0.00000000000000E+00 0.00000000000000E+00 0.00000000000000E+00 
0.00000000000000E+00 0.00000000000000E+00 0.00000000000000E+00 0.00000000000000E+00 
0.00000000000000E+00 0.00000000000000E+00 0.00000000000000E+00 0.00000000000000E+00 
0.00000000000000E+00 0.00000000000000E+00 0.00000000000000E+00 0.00000000000000E+00 
0.00000000000000E+00 0.00000000000000E+00 0.00000000000000E+00 0.00000000000000E+00 
0.00000000000000E+00 0.00000000000000E+00 0.00000000000000E+00 0.00000000000000E+00 
0.00000000000000E+00 0.00000000000000E+00 0.00000000000000E+00 0.00000000000000E+00 
0.00000000000000E+00 0.00000000000000E+00 0.00000000000000E+00 0.00000000000000E+00 
0.00000000000000E+00 0.00000000000000E+00 0.00000000000000E+00 0.00000000000000E+00 
0.00000000000000E+00 0.00000000000000E+00 0.00000000000000E+00 0.00000000000000E+00 
0.00000000000000E+00 0.00000000000000E+00 0.00000000000000E+00 0.00000000000000E+00 
0.00000000000000E+00 0.00000000000000E+00 0.00000000000000E+00 0.00000000000000E+00 
0.00000000000000E+00 0.00000000000000E+00 0.00000000000000E+00 0.00000000000000E+00 
0.00000000000000E+00 0.00000000000000E+00 0.00000000000000E+00 0.00000000000000E+00 
0.00000000000000E+00 0.00000000000000E+00 0.00000000000000E+00 0.00000000000000E+00 
0.00000000000000E+00 0.00000000000000E+00 0.00000000000000E+00 0.00000000000000E+00 
0.00000000000000E+00 0.00000000000000E+00 0.00000000000000E+00 0.00000000000000E+00 
0.00000000000000E+00 0.00000000000000E+00 0.00000000000000E+00 0.00000000000000E+00 
0.00000000000000E+00 0.00000000000000E+00 0.00000000000000E+00 0.00000000000000E+00 
0.00000000000000E+00 0.00000000000000E+00 0.00000000000000E+00 0.00000000000000E+00 
0.00000000000000E+00 0.00000000000000E+00 0.00000000000000E+00 0.00000000000000E+00 
0.00000000000000E+00 0.00000000000000E+00 0.00000000000000E+00 0.00000000000000E+00 
0.00000000000000E+00 0.00000000000000E+00 0.00000000000000E+00 0.00000000000000E+00 
0.00000000000000E+00 0.00000000000000E+00 0.00000000000000E+00 0.00000000000000E+00 
0.00000000000000E+00 0.00000000000000E+00 0.00000000000000E+00 0.00000000000000E+00 
0.00000000000000E+00 0.00000000000000E+00 0.00000000000000E+00 0.00000000000000E+00 
0.00000000000000E+00 0.00000000000000E+00 0.00000000000000E+00 0.00000000000000E+00 
0.00000000000000E+00 0.00000000000000E+00 0.00000000000000E+00 0.00000000000000E+00 
0.00000000000000E+00 0.00000000000000E+00 0.00000000000000E+00 0.00000000000000E+00 
0.00000000000000E+00 0.00000000000000E+00 0.00000000000000E+00 0.00000000000000E+00 
0.00000000000000E+00 0.00000000000000E+00 0.00000000000000E+00 0.00000000000000E+00 
0.00000000000000E+00 0.00000000000000E+00 0.00000000000000E+00 0.00000000000000E+00 
0.00000000000000E+00 0.00000000000000E+00 0.00000000000000E+00 0.00000000000000E+00 
0.00000000000000E+00 0.00000000000000E+00 0.00000000000000E+00 0.00000000000000E+00 
0.00000000000000E+00 0.00000000000000E+00 0.00000000000000E+00 0.00000000000000E+00 
0.00000000000000E+00 0.00000000000000E+00 0.00000000000000E+00 0.00000000000000E+00 
0.00000000000000E+00 0.00000000000000E+00 0.00000000000000E+00 0.00000000000000E+00 
0.00000000000000E+00 0.00000000000000E+00 0.00000000000000E+00 0.00000000000000E+00 
0.00000000000000E+00 0.00000000000000E+00 0.00000000000000E+00 0.00000000000000E+00 
0.00000000000000E+00 0.00000000000000E+00 0.00000000000000E+00 0.00000000000000E+00 
0.00000000000000E+00 0.00000000000000E+00 0.00000000000000E+00 0.00000000000000E+00 
0.00000000000000E+00 0.00000000000000E+00 0.00000000000000E+00 0.00000000000000E+00 
0.00000000000000E+00 0.00000000000000E+00 0.00000000000000E+00 0.00000000000000E+00 
0.00000000000000E+00 0.00000000000000E+00 0.00000000000000E+00 0.00000000000000E+00 
0.00000000000000E+00 0.00000000000000E+00 0.00000000000000E+00 0.00000000000000E+00 
0.00000000000000E+00 0.00000000000000E+00 0.00000000000000E+00 0.00000000000000E+00 
0.00000000000000E+00 0.00000000000000E+00 0.00000000000000E+00 0.00000000000000E+00 
0.00000000000000E+00 0.00000000000000E+00 0.00000000000000E+00 0.00000000000000E+00 
0.00000000000000E+00 0.00000000000000E+00 0.00000000000000E+00 0.00000000000000E+00 
0.00000000000000E+00 0.00000000000000E+00 0.00000000000000E+00 0.00000000000000E+00 
0.00000000000000E+00 0.00000000000000E+00 0.00000000000000E+00 0.00000000000000E+00 
0.00000000000000E+00 0.00000000000000E+00 0.00000000000000E+00 0.00000000000000E+00 
0.00000000000000E+00 0.00000000000000E+00 0.00000000000000E+00 0.00000000000000E+00 
0.00000000000000E+00 0.00000000000000E+00 0.00000000000000E+00 0.00000000000000E+00 
0.00000000000000E+00 0.00000000000000E+00 0.00000000000000E+00 0.00000000000000E+00 
0.00000000000000E+00 0.00000000000000E+00 0.00000000000000E+00 0.00000000000000E+00 
0.00000000000000E+00 0.00000000000000E+00 0.00000000000000E+00 0.00000000000000E+00 
0.00000000000000E+00 0.00000000000000E+00 0.00000000000000E+00 0.00000000000000E+00 
0.00000000000000E+00 0.00000000000000E+00 0.00000000000000E+00 0.00000000000000E+00 
0.00000000000000E+00 0.00000000000000E+00 0.00000000000000E+00 0.00000000000000E+00 
0.00000000000000E+00 0.00000000000000E+00 0.00000000000000E+00 0.00000000000000E+00 
0.00000000000000E+00 0.00000000000000E+00 0.00000000000000E+00 0.00000000000000E+00 
0.00000000000000E+00 0.00000000000000E+00 0.00000000000000E+00 0.00000000000000E+00 
0.00000000000000E+00 0.00000000000000E+00 0.00000000000000E+00 0.00000000000000E+00 
0.00000000000000E+00 0.00000000000000E+00 0.00000000000000E+00 0.00000000000000E+00 
0.00000000000000E+00 0.00000000000000E+00 0.00000000000000E+00 0.00000000000000E+00 
0.00000000000000E+00 
</PP_QIJL.2.3.1>
      <PP_QIJL.2.3.3 angular_momentum="3" first_index="2" second_index="3" composite_index="5" is_null="F">
-0.00000000000000E+00 -2.25375296484713E-30 -7.52016363323344E-29 -5.95531653717320E-28 
-2.61739975071784E-27 -8.33185877266058E-27 -2.16281890293152E-26 -4.87726521137487E-26 
-9.92221436364046E-26 -1.86592394332161E-25 -3.29802785611773E-25 -5.54422530268751E-25 
-8.94245949560521E-25 -1.39312788504275E-24 -2.10711395034572E-24 -3.10690439170221E-24 
-4.48069482792572E-24 -6.33744212317728E-24 -8.81060915956943E-24 -1.20624483736538E-23 
-1.62888906659442E-23 -2.17251137319069E-23 -2.86518721033403E-23 -3.74026802544765E-23 
-4.83719501650439E-23 -6.20241957814212E-23 -7.89044290077974E-23 -9.96498853100679E-23 
-1.25003231810079E-22 -1.55827427080247E-22 -1.93122419807345E-22 -2.38043893268254E-22 
-2.91924284344729E-22 -3.56296329738113E-22 -4.32919418405061E-22 -5.23809058180761E-22 
-6.31269796438382E-22 -7.57931969574906E-22 -9.06792694630574E-22 -1.08126155855031E-21 
-1.28521150698134E-21 -1.52303548548553E-21 -1.79970944191770E-21 -2.12086236000480E-21 
-2.49285406175217E-21 -2.92286158984375E-21 -3.41897506236977E-21 -3.99030398121508E-21 
-4.64709507241400E-21 -5.40086284409094E-21 -6.26453416409745E-21 -7.25260828817012E-21 
-8.38133390930842E-21 -9.66890495394416E-21 -1.11356770174975E-20 -1.28044065192075E-20 
-1.47005148515387E-20 -1.68523800363130E-20 -1.92916586146923E-20 -2.20536407956123E-20 
-2.51776421543498E-20 -2.87074354892377E-20 -3.26917268210953E-20 -3.71846798515255E-20 
-4.22464936543613E-20 -4.79440388163580E-20 -5.43515577182914E-20 -6.15514352181019E-20 
-6.96350465892589E-20 -7.87036901939477E-20 -8.88696130881423E-20 -1.00257138565927E-19 
-1.13003905427251E-19 -1.27262229758335E-19 -1.43200600933149E-19 -1.61005324758150E-19 
-1.80882327781992E-19 -2.03059138173690E-19 -2.27787059987754E-19 -2.55343559214163E-19 
-2.86034881729582E-19 -3.20198925087935E-19 -3.58208388228959E-19 -4.00474225339840E-19 
-4.47449432487142E-19 -4.99633198501918E-19 -5.57575454232710E-19 -6.21881857655288E-19 
-6.93219255631653E-19 -7.72321667062842E-19 -8.59996835978933E-19 -9.57133408029020E-19 
-1.06470878832079E-18 -1.18379774404243E-18 -1.31558182126800E-18 -1.46135965147846E-18 
-1.62255823035043E-18 -1.80074525883158E-18 -1.99764264491303E-18 -2.21514127352520E-18 
-2.45531716107913E-18 -2.72044912324086E-18 -3.01303809451662E-18 -3.33582825223644E-18 
-3.69183011065634E-18 -4.08434576581517E-18 -4.51699648932045E-18 -4.99375288507609E-18 
-5.51896784533979E-18 -6.09741256034833E-18 -6.73431586210334E-18 -7.43540720650489E-18 
-8.20696362460540E-18 -9.05586100708263E-18 -9.98963011404105E-18 -1.10165177420552E-17 
-1.21455535174546E-17 -1.33866228247907E-17 -1.47505464310721E-17 -1.62491674095697E-17 
-1.78954460277639E-17 -1.97035633192817E-17 -2.16890341256020E-17 -2.38688304664949E-17 
-2.62615161692772E-17 -2.88873937769634E-17 -3.17686648414550E-17 -3.49296048100000E-17 
-3.83967538229677E-17 -4.21991248507110E-17 -4.63684307356924E-17 -5.09393318404198E-17 
-5.59497061501190E-17 -6.14409438541552E-17 -6.74582685988084E-17 -7.40510878146053E-17 
-8.12733747106608E-17 -8.91840847993461E-17 -9.78476100205512E-17 -1.07334273854092E-16 
-1.17720871076844E-16 -1.29091256165741E-16 -1.41536984700148E-16 -1.55158012491856E-16 
-1.70063457609833E-16 -1.86372430916958E-16 -2.04214941223217E-16 -2.23732881740581E-16 
-2.45081105052122E-16 -2.68428594524884E-16 -2.93959740735302E-16 -3.21875732278660E-16 
-3.52396071133436E-16 -3.85760223676919E-16 -4.22229419424792E-16 -4.62088610616263E-16 
-5.05648606970632E-16 -5.53248401158212E-16 -6.05257701939273E-16 -6.62079693430845E-16 
-7.24154040540470E-16 -7.91960162460841E-16 -8.66020797955884E-16 -9.46905888360803E-16 
-1.03523680644627E-15 -1.13169096188169E-15 -1.23700681630711E-15 -1.35198934513985E-15 
-1.47751598439452E-15 -1.61454310682804E-15 -1.76411307336733E-15 -1.92736191076103E-15 
-2.10552767148272E-15 -2.29995953524682E-15 -2.51212771901396E-15 -2.74363426538838E-15 
-2.99622478857241E-15 -3.27180126075161E-15 -3.57243593298409E-15 -3.90038648924614E-15 
-4.25811254167194E-15 -4.64829358860688E-15 -5.07384856073846E-15 -5.53795709811551E-15 
-6.04408271012031E-15 -6.59599798297597E-15 -7.19781201793576E-15 -7.85400029510865E-15 
-8.56943717542179E-15 -9.34943127847332E-15 -1.01997639823207E-14 -1.11267313263865E-14 
-1.21371896146635E-14 -1.32386050449418E-14 -1.44391077196270E-14 -1.57475504228081E-14 
-1.71735725848265E-14 -1.87276698893211E-14 -2.04212700212526E-14 -2.22668150938224E-14 
-2.42778513438883E-14 -2.64691267383522E-14 -2.88566971778433E-14 -3.14580420652999E-14 
-3.42921900595333E-14 -3.73798559026915E-14 -4.07435893094188E-14 -4.44079369632686E-14 
-4.83996187840846E-14 -5.27477197169935E-14 -5.74838984087350E-14 -6.26426142548288E-14 
-6.82613744351565E-14 -7.43810026895230E-14 -8.10459317559245E-14 -8.83045215349837E-14 
-9.62094052685889E-14 -1.04817866155075E-13 -1.14192247116773E-13 -1.24400396615767E-13 
-1.35516153690521E-13 -1.47619875642588E-13 -1.60799012161902E-13 -1.75148729939288E-13 
-1.90772592219056E-13 -2.07783298115622E-13 -2.26303486958336E-13 -2.46466613376249E-13 
-2.68417899333662E-13 -2.92315369906926E-13 -3.18330980137547E-13 -3.46651841007517E-13 
-3.77481553217643E-13 -4.11041658286475E-13 -4.47573217238370E-13 -4.87338528210664E-13 
-5.30622995074035E-13 -5.77737160432312E-13 -6.29018917519690E-13 -6.84835916592775E-13 
-7.45588183069807E-13 -8.11710966112666E-13 -8.83677837675013E-13 -9.62004064497061E-13 
-1.04725027671280E-12 -1.14002645940155E-12 -1.24099629562576E-12 -1.35088189168433E-12 
-1.47046891854309E-12 -1.60061220614216E-12 -1.74224183021742E-12 -1.89636973571189E-12 
-2.06409694340707E-12 -2.24662139202094E-12 -2.44524647134366E-12 -2.66139030784436E-12 
-2.89659586900463E-12 -3.15254195903836E-12 -3.43105518470647E-12 -3.73412297706263E-12 
-4.06390776278679E-12 -4.42276238672614E-12 -4.81324689664510E-12 -5.23814681114550E-12 
-5.70049300178151E-12 -6.20358333316804E-12 -6.75100621685459E-12 -7.34666624916532E-12 
-7.99481211799561E-12 -8.70006698084084E-12 -9.46746153279458E-12 -1.03024700059396E-11 
-1.12110493594066E-11 -1.21996819455694E-11 -1.32754219620644E-11 -1.44459460282465E-11 
-1.57196082535573E-11 -1.71055001999800E-11 -1.86135161763227E-11 -2.02544243418258E-11 
-2.20399441390553E-11 -2.39828306252212E-11 -2.60969663182438E-11 -2.83974612355103E-11 
-3.09007618610480E-11 -3.36247698438218E-11 -3.65889713045543E-11 -3.98145777071952E-11 
-4.33246793394791E-11 -4.71444125419482E-11 -5.13011419267219E-11 -5.58246589484675E-11 
-6.07473983038024E-11 -6.61046737808535E-11 -7.19349353273502E-11 -7.82800492624352E-11 
-8.51856037480515E-11 -9.27012418159513E-11 -1.00881024471760E-10 -1.09783826629257E-10 
-1.19473768860593E-10 -1.30020688307087E-10 -1.41500652234938E-10 -1.53996518291057E-10 
-1.67598545679559E-10 -1.82405061941200E-10 -1.98523190556182E-10 -2.16069644908497E-10 
-2.35171594845766E-10 -2.55967612506947E-10 -2.78608704835749E-10 -3.03259440839287E-10 
-3.30099182447749E-10 -3.59323428638412E-10 -3.91145283534225E-10 -4.25797059952516E-10 
-4.63532031244002E-10 -5.04626345516390E-10 -5.49381117271932E-10 -5.98124713552819E-10 
-6.51215252957892E-10 -7.09043337528380E-10 -7.72035040200744E-10 -8.40655171543400E-10 
-9.15410853210096E-10 -9.96855426898498E-10 -1.08559273138496E-09 -1.18228178323158E-09 
-1.28764189966648E-09 -1.40245830686044E-09 -1.52758828062208E-09 -1.66396787092727E-09 
-1.81261926781130E-09 -1.97465887094271E-09 -2.15130613155454E-09 -2.34389324323864E-09 
-2.55387576492671E-09 -2.78284426780743E-09 -3.03253710782485E-09 -3.30485443574744E-09 
-3.60187356726164E-09 -3.92586584919473E-09 -4.27931517208080E-09 -4.66493829262848E-09 
-5.08570715046161E-09 -5.54487337769109E-09 -6.04599522500152E-09 -6.59296714838195E-09 
-7.19005232705782E-09 -7.84191841223669E-09 -8.55367683495233E-09 -9.33092604000253E-09 
-1.01797990488128E-08 -1.11070157957718E-08 -1.21199407336424E-08 -1.32266462520343E-08 
-1.44359825141195E-08 -1.57576543790743E-08 -1.72023061496321E-08 -1.87816149664538E-08 
-2.05083937545885E-08 -2.23967047276615E-08 -2.44619845639353E-08 -2.67211824911153E-08 
-2.91929126424336E-08 -3.18976222084769E-08 -3.48577770629453E-08 -3.80980667330809E-08 
-4.16456307767468E-08 -4.55303088782023E-08 -4.97849171976958E-08 -5.44455538220312E-08 
-5.95519364393883E-08 -6.51477757528976E-08 -7.12811884881409E-08 -7.80051543124738E-08 
-8.53780214521630E-08 -9.34640663122034E-08 -1.02334113016827E-07 -1.12066219442379E-07 
-1.22746437019283E-07 -1.34469652447615E-07 -1.47340520330866E-07 -1.61474496769211E-07 
-1.76998985072739E-07 -1.94054606005491E-07 -2.12796606372405E-07 -2.33396421308339E-07 
-2.56043407349291E-07 -2.80946765332143E-07 -3.08337674223805E-07 -3.38471659500747E-07 
-3.71631222193084E-07 -4.08128757833568E-07 -4.48309797694535E-07 -4.92556608451231E-07 
-5.41292190493032E-07 -5.94984719540953E-07 -6.54152481450913E-07 -7.19369355527922E-07 
-7.91270908047723E-07 -8.70561164610146E-07 -9.58020137730159E-07 -1.05451219453289E-06 
-1.16099535924187E-06 -1.27853165559658E-06 -1.40829860624754E-06 -1.55160201942876E-06 
-1.70989020754964E-06 -1.88476979908585E-06 -2.07802332258728E-06 -2.29162876228147E-06 
-2.52778130653853E-06 -2.78891753539620E-06 -3.07774232069690E-06 -3.39725874284443E-06 
-3.75080136181073E-06 -4.14207321738525E-06 -4.57518697525147E-06 -5.05471068116327E-06 
-5.58571863600315E-06 -6.17384796160529E-06 -6.82536148806153E-06 -7.54721766314974E-06 
-8.34714825929661E-06 -9.23374473876708E-06 -1.02165542284349E-05 -1.13061861588363E-05 
-1.25144307348540E-05 -1.38543905274628E-05 -1.53406266147922E-05 -1.69893208479484E-05 
-1.88184559846258E-05 -2.08480156107884E-05 -2.31002059727231E-05 -2.55997020570464E-05 
-2.83739204910556E-05 -3.14533221064612E-05 -3.48717472741682E-05 -3.86667874447357E-05 
-4.28801966682012E-05 -4.75583472070139E-05 -5.27527337801660E-05 -5.85205314019503E-05 
-6.49252122436922E-05 -7.20372274121388E-05 -7.99347601872420E-05 -8.87045576702497E-05 
-9.84428486316917E-05 -1.09256355774029E-04 -1.21263411589759E-04 -1.34595187515708E-04 
-1.49397047016273E-04 -1.65830034054655E-04 -1.84072509237470E-04 -2.04321946880153E-04 
-2.26796907122102E-04 -2.51739198333466E-04 -2.79416245809769E-04 -3.10123684011836E-04 
-3.44188190380534E-04 -3.81970579863422E-04 -4.23869180057444E-04 -4.70323508097092E-04 
-5.21818270498311E-04 -5.78887708608563E-04 -6.42120312371508E-04 -7.12163924944652E-04 
-7.89731261950525E-04 -8.75605867399310E-04 -9.70648528362783E-04 -1.07580416935665E-03 
-1.19210924530633E-03 -1.32069964934438E-03 -1.46281914930589E-03 -1.61982836171130E-03 
-1.79321426734409E-03 -1.98460026612921E-03 -2.19575676159352E-03 -2.42861225508950E-03 
-2.68526491996529E-03 -2.96799461191513E-03 -3.27927525901377E-03 -3.62178755370699E-03 
-3.99843185319858E-03 -4.41234117122829E-03 -4.86689411527236E-03 -5.36572760186959E-03 
-5.91274914410869E-03 -6.51214847658997E-03 -7.16840824178492E-03 -7.88631342365866E-03 
-8.67095917150573E-03 -9.52775660945064E-03 -1.04624361852166E-02 -1.14810480609057E-02 
-1.25899590020828E-02 -1.37958451831467E-02 -1.51056802795041E-02 -1.65267181901333E-02 
-1.80664697060321E-02 -1.97326724309034E-02 -2.15332532707210E-02 -2.34762828248913E-02 
-2.55699210816773E-02 -2.78223538966781E-02 -3.02417198658990E-02 -3.28360273796234E-02 
-3.56130618703375E-02 -3.85802835649353E-02 -4.17447163999524E-02 -4.51128292197357E-02 
-4.86904108734994E-02 -5.24824414559282E-02 -5.64929626205140E-02 -6.07249506851478E-02 
-6.51801970900166E-02 -6.98592016992102E-02 -7.47610853834992E-02 -7.98835292454935E-02 
-8.52227487608083E-02 -9.07735118383705E-02 -9.65292103622269E-02 -1.02481994963569E-01 
-1.08622982504862E-01 -1.14942544863968E-01 -1.21430685824376E-01 -1.28077510129212E-01 
-1.34873784605356E-01 -1.41811585659502E-01 -1.48885019987330E-01 -1.56090995883487E-01 
-1.63430010885210E-01 -1.70906907601113E-01 -1.78531533538929E-01 -1.86319222875088E-01 
-1.94290999104142E-01 -2.02473378418979E-01 -2.10897636162378E-01 -2.19598385095061E-01 
-2.28611307788472E-01 -2.37969890138212E-01 -2.47701024177665E-01 -2.57819391991988E-01 
-2.68320615750895E-01 -2.79173269035984E-01 -2.90309998967980E-01 -3.01618212688151E-01 
-3.12931037828293E-01 -3.24019570644235E-01 -3.34587763683813E-01 -3.44271648235383E-01 
-3.52644885257773E-01 -3.59232813420563E-01 -3.63537099844320E-01 -3.65072641920035E-01 
-3.63417318354664E-01 -3.58273312923692E-01 -3.49535802791782E-01 -3.37360651382205E-01 
-3.22217416609803E-01 -3.04907977076359E-01 -2.86525775801169E-01 -2.68329075618605E-01 
-2.51509493123615E-01 -2.36864890870455E-01 -2.24451591950568E-01 -2.13425298412310E-01 
-2.02527436841000E-01 -1.91289165551000E-01 -1.79745532131000E-01 -1.67949821199000E-01 
-1.55959298888000E-01 -1.43834879469000E-01 -1.31640709516000E-01 -1.19443662075000E-01 
-1.07312746234000E-01 -9.53184254019000E-02 -8.35318580511000E-02 -7.20240555621000E-02 
-6.08649816554000E-02 -5.01225895518000E-02 -3.98618341633000E-02 -3.01436568840000E-02 
-2.10239950032000E-02 -1.25528152543000E-02 -4.77324162305000E-03 2.27921745386000E-03 
8.57724656296000E-03 1.41020863193000E-02 1.88435523147000E-02 2.27996804296000E-02 
2.59758658001000E-02 2.83835375654000E-02 3.00383914431000E-02 3.09585330792000E-02 
3.11629933308000E-02 3.06715028440000E-02 2.95064286091000E-02 2.76978958235000E-02 
2.52925351380000E-02 2.23655966933000E-02 1.90345428930000E-02 1.54702233426000E-02 
1.18982839458000E-02 8.57871228349000E-03 5.74363331451000E-03 3.50176299806000E-03 
1.86728244730000E-03 8.10163134823000E-04 2.46496928861000E-04 3.53790689799000E-05 
2.33958740860000E-07 0.00000000000000E+00 0.00000000000000E+00 0.00000000000000E+00 
0.00000000000000E+00 0.00000000000000E+00 0.00000000000000E+00 0.00000000000000E+00 
0.00000000000000E+00 0.00000000000000E+00 0.00000000000000E+00 0.00000000000000E+00 
0.00000000000000E+00 0.00000000000000E+00 0.00000000000000E+00 0.00000000000000E+00 
0.00000000000000E+00 0.00000000000000E+00 0.00000000000000E+00 0.00000000000000E+00 
0.00000000000000E+00 0.00000000000000E+00 0.00000000000000E+00 0.00000000000000E+00 
0.00000000000000E+00 0.00000000000000E+00 0.00000000000000E+00 0.00000000000000E+00 
0.00000000000000E+00 0.00000000000000E+00 0.00000000000000E+00 0.00000000000000E+00 
0.00000000000000E+00 0.00000000000000E+00 0.00000000000000E+00 0.00000000000000E+00 
0.00000000000000E+00 0.00000000000000E+00 0.00000000000000E+00 0.00000000000000E+00 
0.00000000000000E+00 0.00000000000000E+00 0.00000000000000E+00 0.00000000000000E+00 
0.00000000000000E+00 0.00000000000000E+00 0.00000000000000E+00 0.00000000000000E+00 
0.00000000000000E+00 0.00000000000000E+00 0.00000000000000E+00 0.00000000000000E+00 
0.00000000000000E+00 0.00000000000000E+00 0.00000000000000E+00 0.00000000000000E+00 
0.00000000000000E+00 0.00000000000000E+00 0.00000000000000E+00 0.00000000000000E+00 
0.00000000000000E+00 0.00000000000000E+00 0.00000000000000E+00 0.00000000000000E+00 
0.00000000000000E+00 0.00000000000000E+00 0.00000000000000E+00 0.00000000000000E+00 
0.00000000000000E+00 0.00000000000000E+00 0.00000000000000E+00 0.00000000000000E+00 
0.00000000000000E+00 0.00000000000000E+00 0.00000000000000E+00 0.00000000000000E+00 
0.00000000000000E+00 0.00000000000000E+00 0.00000000000000E+00 0.00000000000000E+00 
0.00000000000000E+00 0.00000000000000E+00 0.00000000000000E+00 0.00000000000000E+00 
0.00000000000000E+00 0.00000000000000E+00 0.00000000000000E+00 0.00000000000000E+00 
0.00000000000000E+00 0.00000000000000E+00 0.00000000000000E+00 0.00000000000000E+00 
0.00000000000000E+00 0.00000000000000E+00 0.00000000000000E+00 0.00000000000000E+00 
0.00000000000000E+00 0.00000000000000E+00 0.00000000000000E+00 0.00000000000000E+00 
0.00000000000000E+00 0.00000000000000E+00 0.00000000000000E+00 0.00000000000000E+00 
0.00000000000000E+00 0.00000000000000E+00 0.00000000000000E+00 0.00000000000000E+00 
0.00000000000000E+00 0.00000000000000E+00 0.00000000000000E+00 0.00000000000000E+00 
0.00000000000000E+00 0.00000000000000E+00 0.00000000000000E+00 0.00000000000000E+00 
0.00000000000000E+00 0.00000000000000E+00 0.00000000000000E+00 0.00000000000000E+00 
0.00000000000000E+00 0.00000000000000E+00 0.00000000000000E+00 0.00000000000000E+00 
0.00000000000000E+00 0.00000000000000E+00 0.00000000000000E+00 0.00000000000000E+00 
0.00000000000000E+00 0.00000000000000E+00 0.00000000000000E+00 0.00000000000000E+00 
0.00000000000000E+00 0.00000000000000E+00 0.00000000000000E+00 0.00000000000000E+00 
0.00000000000000E+00 0.00000000000000E+00 0.00000000000000E+00 0.00000000000000E+00 
0.00000000000000E+00 0.00000000000000E+00 0.00000000000000E+00 0.00000000000000E+00 
0.00000000000000E+00 0.00000000000000E+00 0.00000000000000E+00 0.00000000000000E+00 
0.00000000000000E+00 0.00000000000000E+00 0.00000000000000E+00 0.00000000000000E+00 
0.00000000000000E+00 0.00000000000000E+00 0.00000000000000E+00 0.00000000000000E+00 
0.00000000000000E+00 0.00000000000000E+00 0.00000000000000E+00 0.00000000000000E+00 
0.00000000000000E+00 0.00000000000000E+00 0.00000000000000E+00 0.00000000000000E+00 
0.00000000000000E+00 0.00000000000000E+00 0.00000000000000E+00 0.00000000000000E+00 
0.00000000000000E+00 0.00000000000000E+00 0.00000000000000E+00 0.00000000000000E+00 
0.00000000000000E+00 0.00000000000000E+00 0.00000000000000E+00 0.00000000000000E+00 
0.00000000000000E+00 0.00000000000000E+00 0.00000000000000E+00 0.00000000000000E+00 
0.00000000000000E+00 0.00000000000000E+00 0.00000000000000E+00 0.00000000000000E+00 
0.00000000000000E+00 0.00000000000000E+00 0.00000000000000E+00 0.00000000000000E+00 
0.00000000000000E+00 0.00000000000000E+00 0.00000000000000E+00 0.00000000000000E+00 
0.00000000000000E+00 0.00000000000000E+00 0.00000000000000E+00 0.00000000000000E+00 
0.00000000000000E+00 0.00000000000000E+00 0.00000000000000E+00 0.00000000000000E+00 
0.00000000000000E+00 0.00000000000000E+00 0.00000000000000E+00 0.00000000000000E+00 
0.00000000000000E+00 0.00000000000000E+00 0.00000000000000E+00 0.00000000000000E+00 
0.00000000000000E+00 0.00000000000000E+00 0.00000000000000E+00 0.00000000000000E+00 
0.00000000000000E+00 0.00000000000000E+00 0.00000000000000E+00 0.00000000000000E+00 
0.00000000000000E+00 0.00000000000000E+00 0.00000000000000E+00 0.00000000000000E+00 
0.00000000000000E+00 0.00000000000000E+00 0.00000000000000E+00 0.00000000000000E+00 
0.00000000000000E+00 0.00000000000000E+00 0.00000000000000E+00 0.00000000000000E+00 
0.00000000000000E+00 0.00000000000000E+00 0.00000000000000E+00 0.00000000000000E+00 
0.00000000000000E+00 0.00000000000000E+00 0.00000000000000E+00 0.00000000000000E+00 
0.00000000000000E+00 0.00000000000000E+00 0.00000000000000E+00 0.00000000000000E+00 
0.00000000000000E+00 0.00000000000000E+00 0.00000000000000E+00 0.00000000000000E+00 
0.00000000000000E+00 0.00000000000000E+00 0.00000000000000E+00 0.00000000000000E+00 
0.00000000000000E+00 0.00000000000000E+00 0.00000000000000E+00 0.00000000000000E+00 
0.00000000000000E+00 0.00000000000000E+00 0.00000000000000E+00 0.00000000000000E+00 
0.00000000000000E+00 0.00000000000000E+00 0.00000000000000E+00 0.00000000000000E+00 
0.00000000000000E+00 0.00000000000000E+00 0.00000000000000E+00 0.00000000000000E+00 
0.00000000000000E+00 0.00000000000000E+00 0.00000000000000E+00 0.00000000000000E+00 
0.00000000000000E+00 0.00000000000000E+00 0.00000000000000E+00 0.00000000000000E+00 
0.00000000000000E+00 0.00000000000000E+00 0.00000000000000E+00 0.00000000000000E+00 
0.00000000000000E+00 0.00000000000000E+00 0.00000000000000E+00 0.00000000000000E+00 
0.00000000000000E+00 
</PP_QIJL.2.3.3>
      <PP_QIJL.3.3.0 angular_momentum="0" first_index="3" second_index="3" composite_index="6" is_null="F">
-0.00000000000000E+00 -5.29010214350214E-14 -2.15175315917847E-13 -4.92338131002355E-13 
-8.90122040417167E-13 -1.41448482102348E-12 -2.07161760536113E-12 -2.86795331923728E-12 
-3.81017541420498E-12 -4.90522690497109E-12 -6.16031972248409E-12 -7.58294439321080E-12 
-9.18088005577793E-12 -1.09622048273456E-11 -1.29353065309331E-11 -1.51088937956763E-11 
-1.74920075442391E-11 -2.00940328798709E-11 -2.29247113866964E-11 -2.59941538566579E-11 
-2.93128534611166E-11 -3.28916993763950E-11 -3.67419908862616E-11 -4.08754519704759E-11 
-4.53042464012130E-11 -5.00409933629157E-11 -5.50987836124828E-11 -6.04911962008823E-11 
-6.62323157722950E-11 -7.23367504632503E-11 -7.88196504214683E-11 -8.56967269644395E-11 
-9.29842724014778E-11 -1.00699180540474E-10 -1.08858967904070E-10 -1.17481795677841E-10 
-1.26586492418137E-10 -1.36192577542142E-10 -1.46320285630003E-10 -1.56990591565425E-10 
-1.68225236542618E-10 -1.80046754971409E-10 -1.92478502310139E-10 -2.05544683854462E-10 
-2.19270384522992E-10 -2.33681599666215E-10 -2.48805266935186E-10 -2.64669299251396E-10 
-2.81302618906683E-10 -2.98735192840610E-10 -3.16998069128293E-10 -3.36123414726166E-10 
-3.56144554510661E-10 -3.77096011666282E-10 -3.99013549452029E-10 -4.21934214422344E-10 
-4.45896381082435E-10 -4.70939798174784E-10 -4.97105636431304E-10 -5.24436538057094E-10 
-5.52976667899297E-10 -5.82771766298880E-10 -6.13869203883587E-10 -6.46318038119578E-10 
-6.80169071845422E-10 -7.15474913862238E-10 -7.52290041528034E-10 -7.90670865511554E-10 
-8.30675796814557E-10 -8.72365316053840E-10 -9.15802045073639E-10 -9.61050821106227E-10 
-1.00817877338177E-09 -1.05725540244751E-09 -1.10835266209153E-09 -1.16154504418315E-09 
-1.21690966635276E-09 -1.27452636268167E-09 -1.33447777749019E-09 -1.39684946234234E-09 
-1.46172997639158E-09 -1.52921099009104E-09 -1.59938739251356E-09 -1.67235740234713E-09 
-1.74822268257592E-09 -1.82708845922397E-09 -1.90906364406056E-09 -1.99426096154500E-09 
-2.08279708005242E-09 -2.17479274768128E-09 -2.27037293254834E-09 -2.36966696802648E-09 
-2.47280870287698E-09 -2.57993665645243E-09 -2.69119417927579E-09 -2.80672961908222E-09 
-2.92669649252584E-09 -3.05125366269812E-09 -3.18056552273564E-09 -3.31480218579280E-09 
-3.45413968123745E-09 -3.59876015783407E-09 -3.74885209363330E-09 -3.90461051313290E-09 
-4.06623721184264E-09 -4.23394098837428E-09 -4.40793788468296E-09 -4.58845143417849E-09 
-4.77571291866292E-09 -4.96996163366102E-09 -5.17144516300209E-09 -5.38041966281474E-09 
-5.59715015490569E-09 -5.82191083051986E-09 -6.05498536408217E-09 -6.29666723780403E-09 
-6.54726007747498E-09 -6.80707799931243E-09 -7.07644596905308E-09 -7.35570017290544E-09 
-7.64518840136972E-09 -7.94527044603349E-09 -8.25631850976788E-09 -8.57871763115937E-09 
-8.91286612309277E-09 -9.25917602645399E-09 -9.61807357913426E-09 -9.98999970098971E-09 
-1.03754104955684E-08 -1.07747777685038E-08 -1.11885895637527E-08 -1.16173507181678E-08 
-1.20615834346443E-08 -1.25218278750421E-08 -1.29986427729953E-08 -1.34926060680182E-08 
-1.40043155603705E-08 -1.45343895891787E-08 -1.50834677327249E-08 -1.56522115331174E-08 
-1.62413052452710E-08 -1.68514566114317E-08 -1.74833976622138E-08 -1.81378855445256E-08 
-1.88157033777855E-08 -1.95176611393344E-08 -2.02445965795296E-08 -2.09973761686603E-08 
-2.17768960751478E-08 -2.25840831776315E-08 -2.34198961110606E-08 -2.42853263485609E-08 
-2.51813993197966E-08 -2.61091755674031E-08 -2.70697519428306E-08 -2.80642628424737E-08 
-2.90938814861290E-08 -3.01598212385528E-08 -3.12633369758697E-08 -3.24057264986810E-08 
-3.35883319926723E-08 -3.48125415392801E-08 -3.60797906770944E-08 -3.73915640165453E-08 
-3.87493969092927E-08 -4.01548771753091E-08 -4.16096468844207E-08 -4.31154042061331E-08 
-4.46739053121958E-08 -4.62869663523662E-08 -4.79564654936405E-08 -4.96843450264654E-08 
-5.14726135470461E-08 -5.33233482079060E-08 -5.52386970521938E-08 -5.72208814193495E-08 
-5.92721984389788E-08 -6.13950236010219E-08 -6.35918134226901E-08 -6.58651082022661E-08 
-6.82175348582449E-08 -7.06518098787423E-08 -7.31707423586969E-08 -7.57772371459927E-08 
-7.84742980952203E-08 -8.12650314249603E-08 -8.41526491961325E-08 -8.71404729057457E-08 
-9.02319371949683E-08 -9.34305936985028E-08 -9.67401150074167E-08 -1.00164298776053E-07 
-1.03707071966157E-07 -1.07372495232596E-07 -1.11164767459104E-07 -1.15088230445193E-07 
-1.19147373754426E-07 -1.23346839724185E-07 -1.27691428647634E-07 -1.32186104126732E-07 
-1.36835998607376E-07 -1.41646419108680E-07 -1.46622853131025E-07 -1.51770974774844E-07 
-1.57096651067275E-07 -1.62605948491079E-07 -1.68305139748686E-07 -1.74200710741156E-07 
-1.80299367789466E-07 -1.86608045098310E-07 -1.93133912472040E-07 -1.99884383289316E-07 
-2.06867122748429E-07 -2.14090056385141E-07 -2.21561378886214E-07 -2.29289563188596E-07 
-2.37283369903043E-07 -2.45551857029976E-07 -2.54104390020168E-07 -2.62950652171166E-07 
-2.72100655374273E-07 -2.81564751209163E-07 -2.91353642429965E-07 -3.01478394827320E-07 
-3.11950449490869E-07 -3.22781635480991E-07 -3.33984182929706E-07 -3.45570736580494E-07 
-3.57554369776608E-07 -3.69948598926219E-07 -3.82767398443729E-07 -3.96025216201592E-07 
-4.09736989490150E-07 -4.23918161518903E-07 -4.38584698454168E-07 -4.53753107053781E-07 
-4.69440452864479E-07 -4.85664379033092E-07 -5.02443125765720E-07 -5.19795550404167E-07 
-5.37741148185227E-07 -5.56300073714769E-07 -5.75493163101699E-07 -5.95341956891426E-07 
-6.15868723716816E-07 -6.37096484744661E-07 -6.59049038956584E-07 -6.81750989231823E-07 
-7.05227769316300E-07 -7.29505671698061E-07 -7.54611876358017E-07 -7.80574480536531E-07 
-8.07422529413638E-07 -8.35186047860803E-07 -8.63896073201734E-07 -8.93584689073125E-07 
-9.24285060380386E-07 -9.56031469418930E-07 -9.88859353175545E-07 -1.02280534184595E-06 
-1.05790729862563E-06 -1.09420436078980E-06 -1.13173698211778E-06 -1.17054697671988E-06 
-1.21067756426023E-06 -1.25217341667162E-06 -1.29508070637869E-06 -1.33944715609236E-06 
-1.38532209020513E-06 -1.43275648787169E-06 -1.48180303774671E-06 -1.53251619455934E-06 
-1.58495223745297E-06 -1.63916933021245E-06 -1.69522758341016E-06 -1.75318911856234E-06 
-1.81311813430381E-06 -1.87508097467435E-06 -1.93914619957249E-06 -2.00538465744439E-06 
-2.07386956024892E-06 -2.14467656082437E-06 -2.21788383261740E-06 -2.29357215195162E-06 
-2.37182498286778E-06 -2.45272856458183E-06 -2.53637200166056E-06 -2.62284735697575E-06 
-2.71224974752891E-06 -2.80467744322289E-06 -2.90023196860476E-06 -2.99901820777949E-06 
-3.10114451243163E-06 -3.20672281312327E-06 -3.31586873396502E-06 -3.42870171064446E-06 
-3.54534511203903E-06 -3.66592636535674E-06 -3.79057708497740E-06 -3.91943320511130E-06 
-4.05263511606802E-06 -4.19032780504735E-06 -4.33266100003172E-06 -4.47978931862269E-06 
-4.63187242081191E-06 -4.78907516566734E-06 -4.95156777292002E-06 -5.11952598854289E-06 
-5.29313125523469E-06 -5.47257088720445E-06 -5.65803824975212E-06 -5.84973294354138E-06 
-6.04786099371782E-06 -6.25263504374319E-06 -6.46427455467025E-06 -6.68300600876925E-06 
-6.90906311828595E-06 -7.14268703999938E-06 -7.38412659380605E-06 -7.63363848714088E-06 
-7.89148754467984E-06 -8.15794694223884E-06 -8.43329844731769E-06 -8.71783266314471E-06 
-9.01184927934187E-06 -9.31565732651859E-06 -9.62957543614220E-06 -9.95393210599486E-06 
-1.02890659694618E-05 -1.06353260700331E-05 -1.09930721405448E-05 -1.13626748859674E-05 
-1.17445162712763E-05 -1.21389898130688E-05 -1.25465008740901E-05 -1.29674669619219E-05 
-1.34023180307380E-05 -1.38514967851671E-05 -1.43154589864856E-05 -1.47946737611025E-05 
-1.52896239095167E-05 -1.58008062159659E-05 -1.63287317588804E-05 -1.68739262190053E-05 
-1.74369301878487E-05 -1.80182994719186E-05 -1.86186053945152E-05 -1.92384350927894E-05 
-1.98783918090385E-05 -2.05390951758002E-05 -2.12211814913417E-05 -2.19253039863475E-05 
-2.26521330793631E-05 -2.34023566179425E-05 -2.41766801056371E-05 -2.49758269111263E-05 
-2.58005384582604E-05 -2.66515743937959E-05 -2.75297127298913E-05 -2.84357499599683E-05 
-2.93705011432632E-05 -3.03347999549941E-05 -3.13294986986296E-05 -3.23554682773081E-05 
-3.34135981172102E-05 -3.45047960417086E-05 -3.56299880890219E-05 -3.67901182696654E-05 
-3.79861482545813E-05 -3.92190569929204E-05 -4.04898402472083E-05 -4.17995100439946E-05 
-4.31490940259961E-05 -4.45396347044530E-05 -4.59721885964039E-05 -4.74478252406098E-05 
-4.89676260817565E-05 -5.05326832092505E-05 -5.21440979409759E-05 -5.38029792396669E-05 
-5.55104419439169E-05 -5.72676048042780E-05 -5.90755883049217E-05 -6.09355122550040E-05 
-6.28484931313832E-05 -6.48156411527470E-05 -6.68380570646116E-05 -6.89168286123479E-05 
-7.10530266771838E-05 -7.32477010524175E-05 -7.55018758266960E-05 -7.78165443518692E-05 
-8.01926637561561E-05 -8.26311489756583E-05 -8.51328662626222E-05 -8.76986261339292E-05 
-9.03291757198521E-05 -9.30251904644122E-05 -9.57872651354191E-05 -9.86159040889113E-05 
-1.01511510735994E-04 -1.04474376154276E-04 -1.07504666783465E-04 -1.10602411135067E-04 
-1.13767485450949E-04 -1.16999598232859E-04 -1.20298273563130E-04 -1.23662833133468E-04 
-1.27092376885829E-04 -1.30585762175540E-04 -1.34141581345588E-04 -1.37758137608427E-04 
-1.41433419113837E-04 -1.45165071079041E-04 -1.48950365847839E-04 -1.52786170737566E-04 
-1.56668913522256E-04 -1.60594545391058E-04 -1.64558501212689E-04 -1.68555656923533E-04 
-1.72580283844021E-04 -1.76625999723420E-04 -1.80685716289166E-04 -1.84751583073497E-04 
-1.88814927267685E-04 -1.92866189347952E-04 -1.96894854190499E-04 -2.00889377384649E-04 
-2.04837106434386E-04 -2.08724196513527E-04 -2.12535520429646E-04 -2.16254572421869E-04 
-2.19863365404690E-04 -2.23342321237998E-04 -2.26670153588861E-04 -2.29823742919663E-04 
-2.32778003108742E-04 -2.35505739195266E-04 -2.37977495688251E-04 -2.40161394873610E-04 
-2.42022964513838E-04 -2.43524954287845E-04 -2.44627140306502E-04 -2.45286116994111E-04 
-2.45455075587279E-04 -2.45083568467593E-04 -2.44117258508758E-04 -2.42497652575221E-04 
-2.40161818262031E-04 -2.37042082945628E-04 -2.33065714132604E-04 -2.28154580092014E-04 
-2.22224789689352E-04 -2.15186310287377E-04 -2.06942562552470E-04 -1.97389990941939E-04 
-1.86417608629757E-04 -1.73906515515287E-04 -1.59729388025083E-04 -1.43749939246283E-04 
-1.25822347991813E-04 -1.05790655287107E-04 -8.34881268111748E-05 -5.87365795951599E-05 
-3.13456716133743E-05 -1.11215244829296E-06 3.21809265902877E-05 6.87650443005240E-05 
1.08887085454950E-04 1.52810262026399E-04 2.00815081503429E-04 2.53200364039902E-04 
3.10284309984813E-04 3.72405619203466E-04 4.39924663948555E-04 5.13224716481087E-04 
5.92713232784004E-04 6.78823193563358E-04 7.72014503707081E-04 8.72775450805539E-04 
9.81624223570928E-04 1.09911049027602E-03 1.22581703800079E-03 1.36236147148567E-03 
1.50939797170387E-03 1.66761911336560E-03 1.83775773869728E-03 2.02058888701492E-03 
2.21693177615576E-03 2.42765183334538E-03 2.65366277083348E-03 2.89592870162818E-03 
3.15546628966068E-03 3.43334692681811E-03 3.73069892965100E-03 4.04870974592464E-03 
4.38862815976847E-03 4.75176648438477E-03 5.13950272715115E-03 5.55328271206726E-03 
5.99462214113152E-03 6.46510857456779E-03 6.96640330856168E-03 7.50024312322448E-03 
8.06844187496038E-03 8.67289190096928E-03 9.31556520173668E-03 9.99851436374402E-03 
1.07238731801652E-02 1.14938569245528E-02 1.23107622246207E-02 1.31769664843048E-02 
1.40949267905199E-02 1.50671782409084E-02 1.60963316201500E-02 1.71850703489294E-02 
1.83361466194471E-02 1.95523766290893E-02 2.08366348168482E-02 2.21918469955101E-02 
2.36209822731992E-02 2.51270436443966E-02 2.67130571302176E-02 2.83820593374965E-02 
3.01370833018979E-02 3.19811424809172E-02 3.39172127497403E-02 3.59482122671214E-02 
3.80769790644764E-02 4.03062462278702E-02 4.26386145458637E-02 4.50765225119971E-02 
4.76222135865395E-02 5.02777006509516E-02 5.30447276230001E-02 5.59247282380073E-02 
5.89187820586562E-02 6.20275678399921E-02 6.52513144511116E-02 6.85897496381726E-02 
7.20420470307621E-02 7.56067718829908E-02 7.92818261846153E-02 8.30643938899162E-02 
8.69508871479752E-02 9.09368945281501E-02 9.50171323370216E-02 9.91854001706301E-02 
1.03434541853308E-01 1.07756412810414E-01 1.12141854715800E-01 1.16580677879371E-01 
1.21061651267578E-01 1.25572499229215E-01 1.30099902906735E-01 1.34629502930418E-01 
1.39145898340803E-01 1.43632634862472E-01 1.48072173883747E-01 1.52445832144561E-01 
1.56733681955015E-01 1.60914403827408E-01 1.64965089575908E-01 1.68861006973133E-01 
1.72575361222683E-01 1.76079130103956E-01 1.79341118028168E-01 1.82328482952052E-01 
1.85008152918000E-01 1.87348696175000E-01 1.89319673107000E-01 1.90891115594000E-01 
1.92033868869000E-01 1.92719987104000E-01 1.92923153118000E-01 1.92619125954000E-01 
1.91786201720000E-01 1.90405692667000E-01 1.88462404600000E-01 1.85945119877000E-01 
1.82847061106000E-01 1.79166346630000E-01 1.74906408761000E-01 1.70076391306000E-01 
1.64691493670000E-01 1.58773283664000E-01 1.52349940176000E-01 1.45456448558000E-01 
1.38134694444000E-01 1.30433466368000E-01 1.22408281697000E-01 1.14121021009000E-01 
1.05639255162000E-01 9.70352537739000E-02 8.83846015144000E-02 7.97645325298000E-02 
7.12520943067000E-02 6.29224797319000E-02 5.48478136382000E-02 4.70967606764000E-02 
3.97350267807000E-02 3.28266637055000E-02 2.64356268236000E-02 2.06268575640000E-02 
1.54658338778000E-02 1.10155805855000E-02 7.33011280452000E-03 4.44374919877000E-03 
2.35641971384000E-03 1.01676843747000E-03 3.07668704588000E-04 4.39183245520000E-05 
2.88843091060000E-07 0.00000000000000E+00 0.00000000000000E+00 0.00000000000000E+00 
0.00000000000000E+00 0.00000000000000E+00 0.00000000000000E+00 0.00000000000000E+00 
0.00000000000000E+00 0.00000000000000E+00 0.00000000000000E+00 0.00000000000000E+00 
0.00000000000000E+00 0.00000000000000E+00 0.00000000000000E+00 0.00000000000000E+00 
0.00000000000000E+00 0.00000000000000E+00 0.00000000000000E+00 0.00000000000000E+00 
0.00000000000000E+00 0.00000000000000E+00 0.00000000000000E+00 0.00000000000000E+00 
0.00000000000000E+00 0.00000000000000E+00 0.00000000000000E+00 0.00000000000000E+00 
0.00000000000000E+00 0.00000000000000E+00 0.00000000000000E+00 0.00000000000000E+00 
0.00000000000000E+00 0.00000000000000E+00 0.00000000000000E+00 0.00000000000000E+00 
0.00000000000000E+00 0.00000000000000E+00 0.00000000000000E+00 0.00000000000000E+00 
0.00000000000000E+00 0.00000000000000E+00 0.00000000000000E+00 0.00000000000000E+00 
0.00000000000000E+00 0.00000000000000E+00 0.00000000000000E+00 0.00000000000000E+00 
0.00000000000000E+00 0.00000000000000E+00 0.00000000000000E+00 0.00000000000000E+00 
0.00000000000000E+00 0.00000000000000E+00 0.00000000000000E+00 0.00000000000000E+00 
0.00000000000000E+00 0.00000000000000E+00 0.00000000000000E+00 0.00000000000000E+00 
0.00000000000000E+00 0.00000000000000E+00 0.00000000000000E+00 0.00000000000000E+00 
0.00000000000000E+00 0.00000000000000E+00 0.00000000000000E+00 0.00000000000000E+00 
0.00000000000000E+00 0.00000000000000E+00 0.00000000000000E+00 0.00000000000000E+00 
0.00000000000000E+00 0.00000000000000E+00 0.00000000000000E+00 0.00000000000000E+00 
0.00000000000000E+00 0.00000000000000E+00 0.00000000000000E+00 0.00000000000000E+00 
0.00000000000000E+00 0.00000000000000E+00 0.00000000000000E+00 0.00000000000000E+00 
0.00000000000000E+00 0.00000000000000E+00 0.00000000000000E+00 0.00000000000000E+00 
0.00000000000000E+00 0.00000000000000E+00 0.00000000000000E+00 0.00000000000000E+00 
0.00000000000000E+00 0.00000000000000E+00 0.00000000000000E+00 0.00000000000000E+00 
0.00000000000000E+00 0.00000000000000E+00 0.00000000000000E+00 0.00000000000000E+00 
0.00000000000000E+00 0.00000000000000E+00 0.00000000000000E+00 0.00000000000000E+00 
0.00000000000000E+00 0.00000000000000E+00 0.00000000000000E+00 0.00000000000000E+00 
0.00000000000000E+00 0.00000000000000E+00 0.00000000000000E+00 0.00000000000000E+00 
0.00000000000000E+00 0.00000000000000E+00 0.00000000000000E+00 0.00000000000000E+00 
0.00000000000000E+00 0.00000000000000E+00 0.00000000000000E+00 0.00000000000000E+00 
0.00000000000000E+00 0.00000000000000E+00 0.00000000000000E+00 0.00000000000000E+00 
0.00000000000000E+00 0.00000000000000E+00 0.00000000000000E+00 0.00000000000000E+00 
0.00000000000000E+00 0.00000000000000E+00 0.00000000000000E+00 0.00000000000000E+00 
0.00000000000000E+00 0.00000000000000E+00 0.00000000000000E+00 0.00000000000000E+00 
0.00000000000000E+00 0.00000000000000E+00 0.00000000000000E+00 0.00000000000000E+00 
0.00000000000000E+00 0.00000000000000E+00 0.00000000000000E+00 0.00000000000000E+00 
0.00000000000000E+00 0.00000000000000E+00 0.00000000000000E+00 0.00000000000000E+00 
0.00000000000000E+00 0.00000000000000E+00 0.00000000000000E+00 0.00000000000000E+00 
0.00000000000000E+00 0.00000000000000E+00 0.00000000000000E+00 0.00000000000000E+00 
0.00000000000000E+00 0.00000000000000E+00 0.00000000000000E+00 0.00000000000000E+00 
0.00000000000000E+00 0.00000000000000E+00 0.00000000000000E+00 0.00000000000000E+00 
0.00000000000000E+00 0.00000000000000E+00 0.00000000000000E+00 0.00000000000000E+00 
0.00000000000000E+00 0.00000000000000E+00 0.00000000000000E+00 0.00000000000000E+00 
0.00000000000000E+00 0.00000000000000E+00 0.00000000000000E+00 0.00000000000000E+00 
0.00000000000000E+00 0.00000000000000E+00 0.00000000000000E+00 0.00000000000000E+00 
0.00000000000000E+00 0.00000000000000E+00 0.00000000000000E+00 0.00000000000000E+00 
0.00000000000000E+00 0.00000000000000E+00 0.00000000000000E+00 0.00000000000000E+00 
0.00000000000000E+00 0.00000000000000E+00 0.00000000000000E+00 0.00000000000000E+00 
0.00000000000000E+00 0.00000000000000E+00 0.00000000000000E+00 0.00000000000000E+00 
0.00000000000000E+00 0.00000000000000E+00 0.00000000000000E+00 0.00000000000000E+00 
0.00000000000000E+00 0.00000000000000E+00 0.00000000000000E+00 0.00000000000000E+00 
0.00000000000000E+00 0.00000000000000E+00 0.00000000000000E+00 0.00000000000000E+00 
0.00000000000000E+00 0.00000000000000E+00 0.00000000000000E+00 0.00000000000000E+00 
0.00000000000000E+00 0.00000000000000E+00 0.00000000000000E+00 0.00000000000000E+00 
0.00000000000000E+00 0.00000000000000E+00 0.00000000000000E+00 0.00000000000000E+00 
0.00000000000000E+00 0.00000000000000E+00 0.00000000000000E+00 0.00000000000000E+00 
0.00000000000000E+00 0.00000000000000E+00 0.00000000000000E+00 0.00000000000000E+00 
0.00000000000000E+00 0.00000000000000E+00 0.00000000000000E+00 0.00000000000000E+00 
0.00000000000000E+00 0.00000000000000E+00 0.00000000000000E+00 0.00000000000000E+00 
0.00000000000000E+00 0.00000000000000E+00 0.00000000000000E+00 0.00000000000000E+00 
0.00000000000000E+00 0.00000000000000E+00 0.00000000000000E+00 0.00000000000000E+00 
0.00000000000000E+00 0.00000000000000E+00 0.00000000000000E+00 0.00000000000000E+00 
0.00000000000000E+00 0.00000000000000E+00 0.00000000000000E+00 0.00000000000000E+00 
0.00000000000000E+00 0.00000000000000E+00 0.00000000000000E+00 0.00000000000000E+00 
0.00000000000000E+00 0.00000000000000E+00 0.00000000000000E+00 0.00000000000000E+00 
0.00000000000000E+00 0.00000000000000E+00 0.00000000000000E+00 0.00000000000000E+00 
0.00000000000000E+00 0.00000000000000E+00 0.00000000000000E+00 0.00000000000000E+00 
0.00000000000000E+00 0.00000000000000E+00 0.00000000000000E+00 0.00000000000000E+00 
0.00000000000000E+00 0.00000000000000E+00 0.00000000000000E+00 0.00000000000000E+00 
0.00000000000000E+00 0.00000000000000E+00 0.00000000000000E+00 0.00000000000000E+00 
0.00000000000000E+00 
</PP_QIJL.3.3.0>
      <PP_QIJL.3.3.2 angular_momentum="2" first_index="3" second_index="3" composite_index="6" is_null="F">
0.00000000000000E+00 2.38578643133625E-24 3.94719286996584E-23 2.06647613771824E-22 
6.75464547134872E-22 1.70568972349236E-21 3.65866492647584E-21 7.01209203788962E-21 
1.23763730939649E-20 2.05126446516992E-20 3.23526574842779E-20 4.90206649644156E-20 
7.18574967924521E-20 1.02447009065721E-19 1.42645117101710E-19 1.94611634036682E-19 
2.60845156153046E-19 3.44221255120147E-19 4.48034258070432E-19 5.76042918714138E-19 
7.32520306876689E-19 9.22308269312481E-19 1.15087684298980E-18 1.42438903129840E-18 
1.74977138634365E-18 2.13479087476099E-18 2.58813854163204E-18 3.11952052734114E-18 
3.73975703471913E-18 4.46088989046857E-18 5.29629939423327E-18 6.26083120188957E-18 
7.37093404729461E-18 8.64480916789749E-18 1.01025723661096E-17 1.17664297089104E-17 
1.36608679451841E-17 1.58128608011420E-17 1.82520924033454E-17 2.10111991725405E-17 
2.41260316329293E-17 2.76359376911626E-17 3.15840690555300E-17 3.60177125902370E-17 
4.09886485380554E-17 4.65535376844135E-17 5.27743396934914E-17 5.97187650151867E-17 
6.74607629348921E-17 7.60810485365124E-17 8.56676715481069E-17 9.63166302658658E-17 
1.08132533981683E-16 1.21229317603999E-16 1.35731012417320E-16 1.51772577245470E-16 
1.69500794531038E-16 1.89075236329192E-16 2.10669305314773E-16 2.34471356595494E-16 
2.60685906316996E-16 2.89534933494477E-16 3.21259282225315E-16 3.56120171541871E-16 
3.94400821073675E-16 4.36408201157111E-16 4.82474916500473E-16 5.32961233401539E-16 
5.88257261207138E-16 6.48785299319016E-16 7.15002361951691E-16 7.87402893963954E-16 
8.66521691570776E-16 9.52937043288579E-16 1.04727410697554E-15 1.15020854068342E-15 
1.26247040563087E-15 1.38484836135502E-15 1.51819417439301E-15 1.66342756343609E-15 
1.82154140556367E-15 1.99360732967336E-15 2.18078172562481E-15 2.38431219923697E-15 
2.60554450522071E-15 2.84592999345985E-15 3.10703360523256E-15 3.39054245965011E-15 
3.69827507274178E-15 4.03219125549339E-15 4.39440273906008E-15 4.78718458075884E-15 
5.21298740644258E-15 5.67445054955456E-15 6.17441615202834E-15 6.71594429592072E-15 
7.30232924000116E-15 7.93711684049895E-15 8.62412324144969E-15 9.36745492621184E-15 
1.01715302258340E-14 1.10411023917248E-14 1.19812843418116E-14 1.29975752018866E-14 
1.40958887699535E-14 1.52825840401107E-14 1.65644979356723E-14 1.79489804053283E-14 
1.94439320559757E-14 2.10578444976191E-14 2.27998435979594E-14 2.46797358529473E-14 
2.67080580919274E-14 2.88961307606963E-14 3.12561150300233E-14 3.38010740064746E-14 
3.65450383368169E-14 3.95030765123935E-14 4.26913702157023E-14 4.61272950579852E-14 
4.98295070968049E-14 5.38180355393867E-14 5.81143820692995E-14 6.27416272705204E-14 
6.77245446433337E-14 7.30897227556701E-14 7.88656961002281E-14 8.50830852743072E-14 
9.17747471455578E-14 9.89759356974331E-14 1.06724474318023E-13 1.15060940338123E-13 
1.24028862674810E-13 1.33674933515174E-13 1.44049235018422E-13 1.55205482109631E-13 
1.67201282470434E-13 1.80098414977144E-13 1.93963127841316E-13 2.08866457872522E-13 
2.24884572326801E-13 2.42099134938100E-13 2.60597697835272E-13 2.80474121147959E-13 
3.01829022258961E-13 3.24770256783383E-13 3.49413433484206E-13 3.75882465542478E-13 
4.04310160677386E-13 4.34838852892193E-13 4.67621078727861E-13 5.02820301165322E-13 
5.40611684495289E-13 5.81182923737610E-13 6.24735132432539E-13 6.71483792868857E-13 
7.21659773148362E-13 7.75510415732063E-13 8.33300702479900E-13 8.95314501550521E-13 
9.61855901842701E-13 1.03325064114747E-12 1.10984763450239E-12 1.19202060979380E-12 
1.28016985807603E-12 1.37472410669460E-12 1.47614252343415E-12 1.58491686165453E-12 
1.70157375501504E-12 1.82667717353764E-12 1.96083105140638E-12 2.10468209853780E-12 
2.25892280929701E-12 2.42429468124152E-12 2.60159165966469E-12 2.79166382233531E-12 
2.99542132247134E-12 3.21383860651654E-12 3.44795892762034E-12 3.69889917414933E-12 
3.96785503457032E-12 4.25610652458029E-12 4.56502389877722E-12 4.89607397567106E-12 
5.25082690428794E-12 5.63096340204908E-12 6.03828249852973E-12 6.47470981904858E-12 
6.94230644479361E-12 7.44327839301649E-12 7.97998675553900E-12 8.55495854534250E-12 
9.17089829871905E-12 9.83070048538543E-12 1.05374627833142E-11 1.12945002776519E-11 
1.21053606488601E-11 1.29738404177840E-11 1.39040023220906E-11 1.49001939011981E-11 
1.59670673746489E-11 1.71096009051905E-11 1.83331213375658E-11 1.96433285213885E-11 
2.10463213259473E-11 2.25486254609243E-11 2.41572232351633E-11 2.58795853804390E-11 
2.77237050888801E-11 2.96981344154678E-11 3.18120232100472E-11 3.40751607536553E-11 
3.64980202877253E-11 3.90918066342309E-11 4.18685071259500E-11 4.48409460691596E-11 
4.80228429945385E-11 5.14288749422666E-11 5.50747430773326E-11 5.89772439273761E-11 
6.31543455647894E-11 6.76252690686884E-11 7.24105756471921E-11 7.75322597992332E-11 
8.30138489395636E-11 8.88805099322975E-11 9.51591630147202E-11 1.01878603620879E-10 
1.09069632648826E-10 1.16765195763912E-10 1.25000532353905E-10 1.33813334815518E-10 
1.43243918875271E-10 1.53335405719154E-10 1.64133916732275E-10 1.75688781752050E-10 
1.88052761731030E-10 2.01282286829249E-10 2.15437711016603E-10 2.30583584284817E-10 
2.46788943723313E-10 2.64127624775313E-10 2.82678593997646E-10 3.02526304920824E-10 
3.23761078506006E-10 3.46479509950157E-10 3.70784903678090E-10 3.96787738406179E-10 
4.24606164418986E-10 4.54366535280306E-10 4.86203976284916E-10 5.20262992328710E-10 
5.56698117753201E-10 5.95674611230419E-10 6.37369198674952E-10 6.81970867581255E-10 
7.29681716283344E-10 7.80717861984915E-10 8.35310411588495E-10 8.93706499659099E-10 
9.56170398192508E-10 1.02298470310830E-09 1.09445160279238E-09 1.17089423439079E-09 
1.25265813381941E-09 1.34011278606371E-09 1.43365328263824E-09 1.53370209364087E-09 
1.64071096227559E-09 1.75516293038353E-09 1.87757450383954E-09 2.00849796778376E-09 
2.14852386172821E-09 2.29828362574306E-09 2.45845242947054E-09 2.62975219668616E-09 
2.81295483876227E-09 3.00888571154772E-09 3.21842731107032E-09 3.44252322456238E-09 
3.68218235435358E-09 3.93848343367105E-09 4.21257985411276E-09 4.50570482668910E-09 
4.81917689932365E-09 5.15440585530723E-09 5.51289901909388E-09 5.89626799748785E-09 
6.30623588633193E-09 6.74464497481607E-09 7.21346498147327E-09 7.71480185912316E-09 
8.25090720730683E-09 8.82418833453416E-09 9.43721901525872E-09 1.00927509889401E-08 
1.07937262531787E-08 1.15432902048634E-08 1.23448056883119E-08 1.32018680131733E-08 
1.41183210069687E-08 1.50982741792892E-08 1.61461210637275E-08 1.72665588311805E-08 
1.84646092544623E-08 1.97456411161827E-08 2.11153941665868E-08 2.25800047301663E-08 
2.41460330816422E-08 2.58204927073565E-08 2.76108815856417E-08 2.95252156236775E-08 
3.15720644001980E-08 3.37605893708408E-08 3.61005847129344E-08 3.86025209791739E-08 
4.12775917611860E-08 4.41377635782042E-08 4.71958291911607E-08 5.04654645994529E-08 
5.39612899675566E-08 5.76989347367375E-08 6.16951072437819E-08 6.59676691128716E-08 
7.05357147946332E-08 7.54196565672794E-08 8.06413153963912E-08 8.62240180639430E-08 
9.21927009698379E-08 9.85740210900469E-08 1.05396474578744E-07 1.12690523520223E-07 
1.20488731424071E-07 1.28825908044085E-07 1.37739264148319E-07 1.47268576956992E-07 
1.57456366966252E-07 1.68348086926022E-07 1.79992323821089E-07 1.92441014760594E-07 
2.05749677698301E-07 2.19977658021419E-07 2.35188392120055E-07 2.51449689033818E-07 
2.68834031516347E-07 2.87418897741146E-07 3.07287105146557E-07 3.28527177900712E-07 
3.51233739608858E-07 3.75507933023316E-07 4.01457868532905E-07 4.29199103487093E-07 
4.58855154440486E-07 4.90558044518950E-07 5.24448888396208E-07 5.60678517389386E-07 
5.99408147464375E-07 6.40810093053621E-07 6.85068529804417E-07 7.32380309678450E-07 
7.82955831906000E-07 8.37019973624821E-07 8.94813084287967E-07 9.56592048257062E-07 
1.02263142006164E-06 1.09322463748819E-06 1.16868531767018E-06 1.24934864194785E-06 
1.33557283531730E-06 1.42774074727809E-06 1.52626154058752E-06 1.63157249566513E-06 
1.74414093803065E-06 1.86446629771251E-06 1.99308230908188E-06 2.13055936093188E-06 
2.27750700702020E-06 2.43457664772511E-06 2.60246439464019E-06 2.78191413058225E-06 
2.97372077780504E-06 3.17873378908090E-06 3.39786087634095E-06 3.63207199306564E-06 
3.88240358756839E-06 4.14996314541992E-06 4.43593404058665E-06 4.74158071605697E-06 
5.06825421600781E-06 5.41739809364259E-06 5.79055471911435E-06 6.18937201555302E-06 
6.61561065069308E-06 7.07115171583877E-06 7.55800492389411E-06 8.07831736158520E-06 
8.63438283326540E-06 9.22865183492833E-06 9.86374220162968E-06 1.05424504722091E-05 
1.12677640194975E-05 1.20428739969097E-05 1.28711891559970E-05 1.37563505915915E-05 
1.47022474773311E-05 1.57130338563011E-05 1.67931465565161E-05 1.79473243061748E-05 
1.91806281260302E-05 2.04984630852988E-05 2.19066015079270E-05 2.34112077266419E-05 
2.50188644845593E-05 2.67366010923858E-05 2.85719234556130E-05 3.05328460936519E-05 
3.26279262799121E-05 3.48663004399843E-05 3.72577229547692E-05 3.98126075233840E-05 
4.25420712490550E-05 4.54579816263009E-05 4.85730066114574E-05 5.19006679765068E-05 
5.54553981525417E-05 5.92526007888381E-05 6.33087152583759E-05 6.76412853612254E-05 
7.22690324924526E-05 7.72119335499826E-05 8.24913038846395E-05 8.81298856016003E-05 
9.41519415517866E-05 1.00583355358579E-04 1.07451737858876E-04 1.14786540351686E-04 
1.22619175062128E-04 1.30983143283792E-04 1.39914171631744E-04 1.49450356917366E-04 
1.59632320183375E-04 1.70503370400161E-04 1.82109678426494E-04 1.94500461850433E-04 
2.07728181354567E-04 2.21848749209274E-04 2.36921750755830E-04 2.53010679421077E-04 
2.70183186275695E-04 2.88511344721525E-04 3.08071931414100E-04 3.28946724141704E-04 
3.51222817680417E-04 3.74992958655500E-04 4.00355900406319E-04 4.27416778976498E-04 
4.56287511310808E-04 4.87087216980396E-04 5.19942664498223E-04 5.54988743689030E-04 
5.92368965348795E-04 6.32235989659361E-04 6.74752184701617E-04 7.20090216846855E-04 
7.68433674147952E-04 8.19977724739951E-04 8.74929811845218E-04 9.33510386688423E-04 
9.95953681775979E-04 1.06250852576635E-03 1.13343920191722E-03 1.20902635214840E-03 
1.28956792852734E-03 1.37538019390325E-03 1.46679877401034E-03 1.56417976267536E-03 
1.66790088211757E-03 1.77836270026591E-03 1.89598990713148E-03 2.02123265171412E-03 
2.15456794141674E-03 2.29650110523548E-03 2.44756732301758E-03 2.60833322087232E-03 
2.77939853467494E-03 2.96139784271178E-03 3.15500236660970E-03 3.36092184247345E-03 
3.57990646040128E-03 3.81274887255369E-03 4.06028626763883E-03 4.32340250991737E-03 
4.60303033991025E-03 4.90015363210439E-03 5.21580970548408E-03 5.55109167994103E-03 
5.90715087015868E-03 6.28519920872105E-03 6.68651168569946E-03 7.11242879187422E-03 
7.56435894888120E-03 8.04378090737822E-03 8.55224609237383E-03 9.09138086799336E-03 
9.66288869448145E-03 1.02685521425198E-02 1.09102347267069E-02 1.15898825148517E-02 
1.23095254635174E-02 1.30712784255809E-02 1.38773417656708E-02 1.47300015182568E-02 
1.56316290093340E-02 1.65846798604100E-02 1.75916922829521E-02 1.86552845664056E-02 
1.97781516517812E-02 2.09630606802212E-02 2.22128453997336E-02 2.35303993040104E-02 
2.49186673815340E-02 2.63806363459581E-02 2.79193232269211E-02 2.95377622021301E-02 
3.12389895625712E-02 3.30260267226471E-02 3.49018611983545E-02 3.68694255189709E-02 
3.89315740576538E-02 4.10910578204286E-02 4.33504972782836E-02 4.57123533871730E-02 
4.81788970014876E-02 5.07521769574442E-02 5.34339871724894E-02 5.62258331668098E-02 
5.91288984715879E-02 6.21440114243381E-02 6.52716128558883E-02 6.85117251299916E-02 
7.18639229142932E-02 7.53273058624524E-02 7.89004731340151E-02 8.25814992712626E-02 
8.63679104322087E-02 9.02566592950221E-02 9.42440961303292E-02 9.83259325720558E-02 
1.02497193586446E-01 1.06752152086619E-01 1.11084239751075E-01 1.15485927069453E-01 
1.19948565782197E-01 1.24462188114759E-01 1.29015260081248E-01 1.33594391291113E-01 
1.38184011842662E-01 1.42766038694095E-01 1.47319569769238E-01 1.51820663659306E-01 
1.56242284536816E-01 1.60554511560969E-01 1.64725121148629E-01 1.68720633125513E-01 
1.72507840297566E-01 1.76055668836676E-01 1.79336868172007E-01 1.82328382567799E-01 
1.85008152918000E-01 1.87348696175000E-01 1.89319673107000E-01 1.90891115594000E-01 
1.92033868869000E-01 1.92719987104000E-01 1.92923153118000E-01 1.92619125954000E-01 
1.91786201720000E-01 1.90405692667000E-01 1.88462404600000E-01 1.85945119877000E-01 
1.82847061106000E-01 1.79166346630000E-01 1.74906408761000E-01 1.70076391306000E-01 
1.64691493670000E-01 1.58773283664000E-01 1.52349940176000E-01 1.45456448558000E-01 
1.38134694444000E-01 1.30433466368000E-01 1.22408281697000E-01 1.14121021009000E-01 
1.05639255162000E-01 9.70352537739000E-02 8.83846015144000E-02 7.97645325298000E-02 
7.12520943067000E-02 6.29224797319000E-02 5.48478136382000E-02 4.70967606764000E-02 
3.97350267807000E-02 3.28266637055000E-02 2.64356268236000E-02 2.06268575640000E-02 
1.54658338778000E-02 1.10155805855000E-02 7.33011280452000E-03 4.44374919877000E-03 
2.35641971384000E-03 1.01676843747000E-03 3.07668704588000E-04 4.39183245520000E-05 
2.88843091060000E-07 0.00000000000000E+00 0.00000000000000E+00 0.00000000000000E+00 
0.00000000000000E+00 0.00000000000000E+00 0.00000000000000E+00 0.00000000000000E+00 
0.00000000000000E+00 0.00000000000000E+00 0.00000000000000E+00 0.00000000000000E+00 
0.00000000000000E+00 0.00000000000000E+00 0.00000000000000E+00 0.00000000000000E+00 
0.00000000000000E+00 0.00000000000000E+00 0.00000000000000E+00 0.00000000000000E+00 
0.00000000000000E+00 0.00000000000000E+00 0.00000000000000E+00 0.00000000000000E+00 
0.00000000000000E+00 0.00000000000000E+00 0.00000000000000E+00 0.00000000000000E+00 
0.00000000000000E+00 0.00000000000000E+00 0.00000000000000E+00 0.00000000000000E+00 
0.00000000000000E+00 0.00000000000000E+00 0.00000000000000E+00 0.00000000000000E+00 
0.00000000000000E+00 0.00000000000000E+00 0.00000000000000E+00 0.00000000000000E+00 
0.00000000000000E+00 0.00000000000000E+00 0.00000000000000E+00 0.00000000000000E+00 
0.00000000000000E+00 0.00000000000000E+00 0.00000000000000E+00 0.00000000000000E+00 
0.00000000000000E+00 0.00000000000000E+00 0.00000000000000E+00 0.00000000000000E+00 
0.00000000000000E+00 0.00000000000000E+00 0.00000000000000E+00 0.00000000000000E+00 
0.00000000000000E+00 0.00000000000000E+00 0.00000000000000E+00 0.00000000000000E+00 
0.00000000000000E+00 0.00000000000000E+00 0.00000000000000E+00 0.00000000000000E+00 
0.00000000000000E+00 0.00000000000000E+00 0.00000000000000E+00 0.00000000000000E+00 
0.00000000000000E+00 0.00000000000000E+00 0.00000000000000E+00 0.00000000000000E+00 
0.00000000000000E+00 0.00000000000000E+00 0.00000000000000E+00 0.00000000000000E+00 
0.00000000000000E+00 0.00000000000000E+00 0.00000000000000E+00 0.00000000000000E+00 
0.00000000000000E+00 0.00000000000000E+00 0.00000000000000E+00 0.00000000000000E+00 
0.00000000000000E+00 0.00000000000000E+00 0.00000000000000E+00 0.00000000000000E+00 
0.00000000000000E+00 0.00000000000000E+00 0.00000000000000E+00 0.00000000000000E+00 
0.00000000000000E+00 0.00000000000000E+00 0.00000000000000E+00 0.00000000000000E+00 
0.00000000000000E+00 0.00000000000000E+00 0.00000000000000E+00 0.00000000000000E+00 
0.00000000000000E+00 0.00000000000000E+00 0.00000000000000E+00 0.00000000000000E+00 
0.00000000000000E+00 0.00000000000000E+00 0.00000000000000E+00 0.00000000000000E+00 
0.00000000000000E+00 0.00000000000000E+00 0.00000000000000E+00 0.00000000000000E+00 
0.00000000000000E+00 0.00000000000000E+00 0.00000000000000E+00 0.00000000000000E+00 
0.00000000000000E+00 0.00000000000000E+00 0.00000000000000E+00 0.00000000000000E+00 
0.00000000000000E+00 0.00000000000000E+00 0.00000000000000E+00 0.00000000000000E+00 
0.00000000000000E+00 0.00000000000000E+00 0.00000000000000E+00 0.00000000000000E+00 
0.00000000000000E+00 0.00000000000000E+00 0.00000000000000E+00 0.00000000000000E+00 
0.00000000000000E+00 0.00000000000000E+00 0.00000000000000E+00 0.00000000000000E+00 
0.00000000000000E+00 0.00000000000000E+00 0.00000000000000E+00 0.00000000000000E+00 
0.00000000000000E+00 0.00000000000000E+00 0.00000000000000E+00 0.00000000000000E+00 
0.00000000000000E+00 0.00000000000000E+00 0.00000000000000E+00 0.00000000000000E+00 
0.00000000000000E+00 0.00000000000000E+00 0.00000000000000E+00 0.00000000000000E+00 
0.00000000000000E+00 0.00000000000000E+00 0.00000000000000E+00 0.00000000000000E+00 
0.00000000000000E+00 0.00000000000000E+00 0.00000000000000E+00 0.00000000000000E+00 
0.00000000000000E+00 0.00000000000000E+00 0.00000000000000E+00 0.00000000000000E+00 
0.00000000000000E+00 0.00000000000000E+00 0.00000000000000E+00 0.00000000000000E+00 
0.00000000000000E+00 0.00000000000000E+00 0.00000000000000E+00 0.00000000000000E+00 
0.00000000000000E+00 0.00000000000000E+00 0.00000000000000E+00 0.00000000000000E+00 
0.00000000000000E+00 0.00000000000000E+00 0.00000000000000E+00 0.00000000000000E+00 
0.00000000000000E+00 0.00000000000000E+00 0.00000000000000E+00 0.00000000000000E+00 
0.00000000000000E+00 0.00000000000000E+00 0.00000000000000E+00 0.00000000000000E+00 
0.00000000000000E+00 0.00000000000000E+00 0.00000000000000E+00 0.00000000000000E+00 
0.00000000000000E+00 0.00000000000000E+00 0.00000000000000E+00 0.00000000000000E+00 
0.00000000000000E+00 0.00000000000000E+00 0.00000000000000E+00 0.00000000000000E+00 
0.00000000000000E+00 0.00000000000000E+00 0.00000000000000E+00 0.00000000000000E+00 
0.00000000000000E+00 0.00000000000000E+00 0.00000000000000E+00 0.00000000000000E+00 
0.00000000000000E+00 0.00000000000000E+00 0.00000000000000E+00 0.00000000000000E+00 
0.00000000000000E+00 0.00000000000000E+00 0.00000000000000E+00 0.00000000000000E+00 
0.00000000000000E+00 0.00000000000000E+00 0.00000000000000E+00 0.00000000000000E+00 
0.00000000000000E+00 0.00000000000000E+00 0.00000000000000E+00 0.00000000000000E+00 
0.00000000000000E+00 0.00000000000000E+00 0.00000000000000E+00 0.00000000000000E+00 
0.00000000000000E+00 0.00000000000000E+00 0.00000000000000E+00 0.00000000000000E+00 
0.00000000000000E+00 0.00000000000000E+00 0.00000000000000E+00 0.00000000000000E+00 
0.00000000000000E+00 0.00000000000000E+00 0.00000000000000E+00 0.00000000000000E+00 
0.00000000000000E+00 0.00000000000000E+00 0.00000000000000E+00 0.00000000000000E+00 
0.00000000000000E+00 0.00000000000000E+00 0.00000000000000E+00 0.00000000000000E+00 
0.00000000000000E+00 0.00000000000000E+00 0.00000000000000E+00 0.00000000000000E+00 
0.00000000000000E+00 0.00000000000000E+00 0.00000000000000E+00 0.00000000000000E+00 
0.00000000000000E+00 0.00000000000000E+00 0.00000000000000E+00 0.00000000000000E+00 
0.00000000000000E+00 0.00000000000000E+00 0.00000000000000E+00 0.00000000000000E+00 
0.00000000000000E+00 0.00000000000000E+00 0.00000000000000E+00 0.00000000000000E+00 
0.00000000000000E+00 0.00000000000000E+00 0.00000000000000E+00 0.00000000000000E+00 
0.00000000000000E+00 0.00000000000000E+00 0.00000000000000E+00 0.00000000000000E+00 
0.00000000000000E+00 0.00000000000000E+00 0.00000000000000E+00 0.00000000000000E+00 
0.00000000000000E+00 
</PP_QIJL.3.3.2>
      <PP_QIJL.3.3.4 angular_momentum="4" first_index="3" second_index="3" composite_index="6" is_null="F">
-0.00000000000000E+00 -9.70848790559616E-36 -6.53336270250665E-34 -7.82618012701930E-33 
-4.62496111957344E-32 -1.85589882308841E-31 -5.83026375695553E-31 -1.54694779662202E-30 
-3.62739070334976E-30 -7.73992461371585E-30 -1.53309541626521E-29 -2.85938768247365E-29 
-5.07472333744871E-29 -8.63879501799391E-29 -1.41935034503336E-28 -2.26181687974182E-28 
-3.50976796577031E-28 -5.32060191012455E-28 -7.90080009389900E-28 -1.15182500262715E-27 
-1.65170977883999E-27 -2.33355687061253E-27 -3.25272622943829E-27 -4.47865040805825E-27 
-6.09784241408881E-27 -8.21745313922107E-27 -1.09694665459716E-26 -1.45156336047298E-26 
-1.90532605078669E-26 -2.48219831745159E-26 -3.21116787376667E-26 -4.12716858556677E-26 
-5.27215296285177E-26 -6.69633739641365E-26 -8.45964548346860E-26 -1.06333782411475E-25 
-1.33021439081144E-25 -1.65660844340202E-25 -2.05434407203832E-25 -2.53735042685156E-25 
-3.12200091903206E-25 -3.82750256331727E-25 -4.67634236530257E-25 -5.69479855486943E-25 
-6.91352547774003E-25 -8.36822209134072E-25 -1.01003952869360E-24 -1.21582306929374E-24 
-1.45975852208821E-24 -1.74831174221124E-24 -2.08895737459113E-24 -2.49032510621390E-24 
-2.96236583545165E-24 -3.51654033474226E-24 -4.16603330190467E-24 -4.92599605452897E-24 
-5.81382151974028E-24 -6.84945562744596E-24 -8.05574970480663E-24 -9.45885904639395E-24 
-1.10886934524070E-23 -1.29794262286258E-23 -1.51700689426702E-23 -1.77051200838793E-23 
-2.06352967770058E-23 -2.40183597900516E-23 -2.79200432875188E-23 -3.24151021620520E-23 
-3.75884913027753E-23 -4.35366928474273E-23 -5.03692093692512E-23 -5.82102430932041E-23 
-6.72005835546065E-23 -7.74997288034500E-23 -8.92882681349729E-23 -1.02770557682230E-22 
-1.18177723785165E-22 -1.35771033168155E-22 -1.55845673478997E-22 -1.78734992804150E-22 
-2.04815252409989E-22 -2.34510953188359E-22 -2.68300803348892E-22 -3.06724402616697E-22 
-3.50389726797727E-22 -3.99981506397499E-22 -4.56270603461297E-22 -5.20124502924859E-22 
-5.92519047901010E-22 -6.74551563278534E-22 -7.67455528125388E-22 -8.72616976101279E-22 
-9.91592822996389E-22 -1.12613134324573E-21 -1.27819504255955E-21 -1.44998620150499E-21 
-1.64397539601946E-21 -1.86293333523949E-21 -2.10996639556007E-21 -2.38855627251855E-21 
-2.70260421855385E-21 -3.05648038904960E-21 -3.45507887541827E-21 -3.90387907057303E-21 
-4.40901408334226E-21 -4.97734699817434E-21 -5.61655586696345E-21 -6.33522841558296E-21 
-7.14296756145097E-21 -8.05050895510379E-21 -9.06985189851248E-21 -1.02144051404085E-20 
-1.14991492136531E-20 -1.29408171697739E-20 -1.45580957631555E-20 -1.63718493716210E-20 
-1.84053691898559E-20 -2.06846505078288E-20 -2.32387012069352E-20 -2.60998849387738E-20 
-2.93043028447267E-20 -3.28922180907876E-20 -3.69085279641088E-20 -4.14032888045076E-20 
-4.64322996109501E-20 -5.20577508167620E-20 -5.83489454280100E-20 -6.53831005134406E-20 
-7.32462379124924E-20 -8.20341739790653E-20 -9.18536192752557E-20 -1.02823400309016E-19 
-1.15075816720546E-19 -1.28758148807844E-19 -1.44034331875702E-19 -1.61086815724893E-19 
-1.80118629528451E-19 -2.01355674646660E-19 -2.25049270256704E-19 -2.51478979495952E-19 
-2.80955746736767E-19 -3.13825379984855E-19 -3.50472416072061E-19 -3.91324410362080E-19 
-4.36856697261546E-19 -4.87597672817538E-19 -5.44134656196004E-19 -6.07120393101429E-19 
-6.77280270809413E-19 -7.55420322257745E-19 -8.42436104804034E-19 -9.39322548641089E-19 
-1.04718488000943E-18 -1.16725073577075E-18 -1.30088359845555E-18 -1.44959769474049E-18 
-1.61507451586834E-18 -1.79918113540876E-18 -2.00399051876830E-18 -2.23180403980964E-18 
-2.48517644289464E-18 -2.76694351461995E-18 -3.08025275752239E-18 -3.42859738981883E-18 
-3.81585402979757E-18 -4.24632446241278E-18 -4.72478192633240E-18 -5.25652241211024E-18 
-5.84742150517687E-18 -6.50399737664721E-18 -7.23348057924448E-18 -8.04389138019369E-18 
-8.94412544436493E-18 -9.94404876009193E-18 -1.10546028070501E-17 -1.22879210579488E-17 
-1.36574580385284E-17 -1.51781322841457E-17 -1.68664846952291E-17 -1.87408539345726E-17 
-2.08215706880299E-17 -2.31311728284242E-17 -2.56946436997594E-17 -2.85396760130329E-17 
-3.16969640919878E-17 -3.52005274933558E-17 -3.90880693742340E-17 -4.34013733124269E-17 
-4.81867426820570E-17 -5.34954871679774E-17 -5.93844614072357E-17 -6.59166613670773E-17 
-7.31618846086258E-17 -8.11974612557731E-17 -9.01090632238089E-17 -9.99916000509040E-17 
-1.10950210583998E-16 -1.23101360730531E-16 -1.36574058600585E-16 -1.51511199534421E-16 
-1.68071054873212E-16 -1.86428919814924E-16 -2.06778937222740E-16 -2.29336116219401E-16 
-2.54338566280549E-16 -2.82049969707631E-16 -3.12762317974950E-16 -3.46798939896070E-16 
-3.84517852755584E-16 -4.26315470722549E-16 -4.72630708550613E-16 -5.23949522581681E-16 
-5.80809935564557E-16 -6.43807596652351E-16 -7.13601933565410E-16 -7.90922959661010E-16 
-8.76578805754669E-16 -9.71464053234431E-16 -1.07656895398062E-15 -1.19298963104433E-15 
-1.32193936422944E-15 -1.46476107549579E-15 -1.62294114194687E-15 -1.79812467685526E-15 
-1.99213243460693E-15 -2.20697951171010E-15 -2.44489603443520E-15 -2.70835004363392E-15 
-3.00007280951392E-15 -3.32308683421352E-15 -3.68073682660444E-15 -4.07672396471082E-15 
-4.51514379349798E-15 -5.00052814355383E-15 -5.53789149571703E-15 -6.13278226391882E-15 
-6.79133951502238E-15 -7.52035570226346E-15 -8.32734604954747E-15 -9.22062528805368E-15 
-1.02093925250031E-14 -1.13038251057583E-14 -1.25151824160183E-14 -1.38559206822125E-14 
-1.53398199267364E-14 -1.69821243662755E-14 -1.87996976757432E-14 -2.08111946844710E-14 
-2.30372512457415E-14 -2.55006941999453E-14 -2.82267735482138E-14 -3.12434191942928E-14 
-3.45815248354406E-14 -3.82752618838659E-14 -4.23624265787138E-14 -4.68848238001089E-14 
-5.18886914543499E-14 -5.74251697178879E-14 -6.35508198712498E-14 -7.03281979552149E-14 
-7.78264890370546E-14 -8.61222084761652E-14 -9.52999772587552E-14 -1.05453379217808E-13 
-1.16685908760472E-13 -1.29112018658298E-13 -1.42858278441303E-13 -1.58064655058536E-13 
-1.74885928684515E-13 -1.93493257924799E-13 -2.14075910130271E-13 -2.36843174263118E-13 
-2.62026475491757E-13 -2.89881712785074E-13 -3.20691842974569E-13 -3.54769737249658E-13 
-3.92461338734187E-13 -4.34149152846873E-13 -4.80256105459094E-13 -5.31249807547654E-13 
-5.87647269082136E-13 -6.50020109440242E-13 -7.19000316470682E-13 -7.95286611973228E-13 
-8.79651487309716E-13 -9.72948979543013E-13 -1.07612326593761E-12 -1.19021816277529E-12 
-1.31638762348593E-12 -1.45590734103324E-12 -1.61018757040227E-12 -1.78078729944248E-12 
-1.96942990933830E-12 -2.17802048112719E-12 -2.40866492096812E-12 -2.66369109468673E-12 
-2.94567218255956E-12 -3.25745248674890E-12 -3.60217594859629E-12 -3.98331765978876E-12 
-4.40471868007169E-12 -4.87062451033214E-12 -5.38572759880795E-12 -5.95521430828335E-12 
-6.58481680746013E-12 -7.28087040068683E-12 -8.05037686845323E-12 -8.90107444265516E-12 
-9.84151511370932E-12 -1.08811500320174E-11 -1.20304238510192E-11 -1.33008789441895E-11 
-1.47052705266971E-11 -1.62576938176217E-11 -1.79737245031267E-11 -1.98705738780325E-11 
-2.19672601998302E-11 -2.42847979498785E-11 -2.68464068484214E-11 -2.96777426950902E-11 
-3.28071522999263E-11 -3.62659549946645E-11 -4.00887535157730E-11 -4.43137772683084E-11 
-4.89832613733067E-11 -5.41438651720113E-11 -5.98471342959680E-11 -6.61500108250922E-11 
-7.31153964811339E-11 -8.08127743701959E-11 -8.93188953232438E-11 -9.87185354833938E-11 
-1.09105332536123E-10 -1.20582708671083E-10 -1.33264889195808E-10 -1.47278026697806E-10 
-1.62761441599078E-10 -1.79868991049543E-10 -1.98770579364152E-10 -2.19653824553103E-10 
-2.42725896898725E-10 -2.68215547233316E-10 -2.96375344374593E-10 -3.27484142975777E-10 
-3.61849805503950E-10 -3.99812204063500E-10 -4.41746530729365E-10 -4.88066947710468E-10 
-5.39230611880631E-10 -5.95742111738336E-10 -6.58158358424308E-10 -7.27093976934338E-10 
-8.03227248017659E-10 -8.87306656180259E-10 -9.80158105053905E-10 -1.08269286706900E-09 
-1.19591634125945E-09 -1.32093770007899E-09 -1.45898051407565E-09 -1.61139445224501E-09 
-1.77966816497014E-09 -1.96544346710109E-09 -2.17053095010326E-09 -2.39692716486150E-09 
-2.64683352949500E-09 -2.92267713268287E-09 -3.22713361805154E-09 -3.56315235373203E-09 
-3.93398410912691E-09 -4.34321148429562E-09 -4.79478235718825E-09 -5.29304664209239E-09 
-5.84279667590334E-09 -6.44931158286856E-09 -7.11840599549889E-09 -7.85648354743386E-09 
-8.67059559047587E-09 -9.56850562710840E-09 -1.05587599959696E-08 -1.16507653945662E-08 
-1.28548738714069E-08 -1.41824759804868E-08 -1.56461028448037E-08 -1.72595379419109E-08 
-1.90379394918332E-08 -2.09979744001431E-08 -2.31579647873918E-08 -2.55380482181531E-08 
-2.81603528298836E-08 -3.10491886596894E-08 -3.42312565551697E-08 -3.77358761745135E-08 
-4.15952346705798E-08 -4.58446577864728E-08 -5.05229051902620E-08 -5.56724920082525E-08 
-6.13400386408726E-08 -6.75766510593709E-08 -7.44383339279294E-08 -8.19864390010856E-08 
-9.02881513827100E-08 -9.94170163465217E-08 -1.09453509531733E-07 -1.20485653407105E-07 
-1.32609683005775E-07 -1.45930763969093E-07 -1.60563765977667E-07 -1.76634094654563E-07 
-1.94278584946556E-07 -2.13646458943092E-07 -2.34900350857103E-07 -2.58217401713794E-07 
-2.83790425898407E-07 -3.11829151281732E-07 -3.42561534040625E-07 -3.76235148538266E-07 
-4.13118651668558E-07 -4.53503319891500E-07 -4.97704655762301E-07 -5.46064058983654E-07 
-5.98950554866272E-07 -6.56762570633393E-07 -7.19929746838601E-07 -7.88914767685211E-07 
-8.64215189659785E-07 -9.46365243007611E-07 -1.03593757449787E-06 -1.13354489314254E-06 
-1.23984147247402E-06 -1.35552445342808E-06 -1.48133488118402E-06 -1.61805839641699E-06 
-1.76652548702812E-06 -1.92761118922203E-06 -2.10223410765312E-06 -2.29135460181305E-06 
-2.49597195993868E-06 -2.71712035311004E-06 -2.95586332712463E-06 -3.21328655267643E-06 
-3.49048851062959E-06 -3.78856873757372E-06 -4.10861320216596E-06 -4.45167631810739E-06 
-4.81875902679584E-06 -5.21078229845041E-06 -5.62855531395594E-06 -6.07273747530263E-06 
-6.54379328697401E-06 -7.04193900581316E-06 -7.56707982231474E-06 -8.11873615914579E-06 
-8.69595749517573E-06 -9.29722191662635E-06 -9.92031936623551E-06 -1.05622163097936E-05 
-1.12188992566543E-05 -1.18851942656146E-05 -1.25545592192698E-05 -1.32188452838241E-05 
-1.38680235551789E-05 -1.44898724491455E-05 -1.50696209047447E-05 -1.55895419493399E-05 
-1.60284905966628E-05 -1.63613794527242E-05 -1.65585847459195E-05 -1.65852748090499E-05 
-1.64006523194545E-05 -1.59571008347181E-05 -1.51992253793619E-05 -1.40627760246024E-05 
-1.24734425831460E-05 -1.03455077289307E-05 -7.58034504184456E-06 -4.06474772691383E-06 
3.30926943519011E-07 5.75481302136822E-06 1.23758071519251E-05 2.03860720483862E-05 
3.00037886122883E-05 4.14761729175707E-05 5.50827738323099E-05 7.11390659559269E-05 
9.00003512488846E-05 1.12065980678599E-04 1.37783904270805E-04 1.67655554753140E-04 
2.02241065120346E-04 2.42164815199249E-04 2.88121295321111E-04 3.40881267247258E-04 
4.01298192949760E-04 4.70314890502850E-04 5.48970363815511E-04 6.38406738006442E-04 
7.39876215678615E-04 8.54747951545023E-04 9.84514722153495E-04 1.13079924639034E-03 
1.29535998915949E-03 1.48009625704886E-03 1.68705237134885E-03 1.91842067920816E-03 
2.17654314380044E-03 2.46391123468953E-03 2.78316382661687E-03 3.13708280852155E-03 
3.52858610751335E-03 3.96071784913932E-03 4.43663540551087E-03 4.95959313832754E-03 
5.53292271709330E-03 6.16001000206581E-03 6.84426862052986E-03 7.58911054675356E-03 
8.39791421770464E-03 9.27399099170850E-03 1.02205510803491E-02 1.12406704548736E-02 
1.23372606569530E-02 1.35130439043923E-02 1.47705363825836E-02 1.61120431156175E-02 
1.75396682997951E-02 1.90553454165753E-02 2.06608917528986E-02 2.23580921080101E-02 
2.41488163256210E-02 2.60351748005986E-02 2.80197151100317E-02 3.01056612883412E-02 
3.22971948390460E-02 3.45997732013485E-02 3.70204769071972E-02 3.95683709428517E-02 
4.22548588069778E-02 4.50939994399123E-02 4.81027477439741E-02 5.13010691771486E-02 
5.47118685415542E-02 5.83606635457251E-02 6.22749265323934E-02 6.64830148624594E-02 
7.10126145220316E-02 7.58886358205278E-02 8.11305284944625E-02 8.67490303863398E-02 
9.27424334685768E-02 9.90925468356255E-02 1.05760660096240E-01 1.12683960299746E-01 
1.19773022932547E-01 1.26911164875911E-01 1.33956583121238E-01 1.40748257710944E-01 
1.47116498279355E-01 1.52898663136217E-01 1.57959858674961E-01 1.62217208730894E-01 
1.65664473214345E-01 1.68391407533052E-01 1.70589564550523E-01 1.72534057317842E-01 
1.74530937192992E-01 1.76825915257271E-01 1.79488904746829E-01 1.82332293740502E-01 
1.85008152918000E-01 1.87348696175000E-01 1.89319673107000E-01 1.90891115594000E-01 
1.92033868869000E-01 1.92719987104000E-01 1.92923153118000E-01 1.92619125954000E-01 
1.91786201720000E-01 1.90405692667000E-01 1.88462404600000E-01 1.85945119877000E-01 
1.82847061106000E-01 1.79166346630000E-01 1.74906408761000E-01 1.70076391306000E-01 
1.64691493670000E-01 1.58773283664000E-01 1.52349940176000E-01 1.45456448558000E-01 
1.38134694444000E-01 1.30433466368000E-01 1.22408281697000E-01 1.14121021009000E-01 
1.05639255162000E-01 9.70352537739000E-02 8.83846015144000E-02 7.97645325298000E-02 
7.12520943067000E-02 6.29224797319000E-02 5.48478136382000E-02 4.70967606764000E-02 
3.97350267807000E-02 3.28266637055000E-02 2.64356268236000E-02 2.06268575640000E-02 
1.54658338778000E-02 1.10155805855000E-02 7.33011280452000E-03 4.44374919877000E-03 
2.35641971384000E-03 1.01676843747000E-03 3.07668704588000E-04 4.39183245520000E-05 
2.88843091060000E-07 0.00000000000000E+00 0.00000000000000E+00 0.00000000000000E+00 
0.00000000000000E+00 0.00000000000000E+00 0.00000000000000E+00 0.00000000000000E+00 
0.00000000000000E+00 0.00000000000000E+00 0.00000000000000E+00 0.00000000000000E+00 
0.00000000000000E+00 0.00000000000000E+00 0.00000000000000E+00 0.00000000000000E+00 
0.00000000000000E+00 0.00000000000000E+00 0.00000000000000E+00 0.00000000000000E+00 
0.00000000000000E+00 0.00000000000000E+00 0.00000000000000E+00 0.00000000000000E+00 
0.00000000000000E+00 0.00000000000000E+00 0.00000000000000E+00 0.00000000000000E+00 
0.00000000000000E+00 0.00000000000000E+00 0.00000000000000E+00 0.00000000000000E+00 
0.00000000000000E+00 0.00000000000000E+00 0.00000000000000E+00 0.00000000000000E+00 
0.00000000000000E+00 0.00000000000000E+00 0.00000000000000E+00 0.00000000000000E+00 
0.00000000000000E+00 0.00000000000000E+00 0.00000000000000E+00 0.00000000000000E+00 
0.00000000000000E+00 0.00000000000000E+00 0.00000000000000E+00 0.00000000000000E+00 
0.00000000000000E+00 0.00000000000000E+00 0.00000000000000E+00 0.00000000000000E+00 
0.00000000000000E+00 0.00000000000000E+00 0.00000000000000E+00 0.00000000000000E+00 
0.00000000000000E+00 0.00000000000000E+00 0.00000000000000E+00 0.00000000000000E+00 
0.00000000000000E+00 0.00000000000000E+00 0.00000000000000E+00 0.00000000000000E+00 
0.00000000000000E+00 0.00000000000000E+00 0.00000000000000E+00 0.00000000000000E+00 
0.00000000000000E+00 0.00000000000000E+00 0.00000000000000E+00 0.00000000000000E+00 
0.00000000000000E+00 0.00000000000000E+00 0.00000000000000E+00 0.00000000000000E+00 
0.00000000000000E+00 0.00000000000000E+00 0.00000000000000E+00 0.00000000000000E+00 
0.00000000000000E+00 0.00000000000000E+00 0.00000000000000E+00 0.00000000000000E+00 
0.00000000000000E+00 0.00000000000000E+00 0.00000000000000E+00 0.00000000000000E+00 
0.00000000000000E+00 0.00000000000000E+00 0.00000000000000E+00 0.00000000000000E+00 
0.00000000000000E+00 0.00000000000000E+00 0.00000000000000E+00 0.00000000000000E+00 
0.00000000000000E+00 0.00000000000000E+00 0.00000000000000E+00 0.00000000000000E+00 
0.00000000000000E+00 0.00000000000000E+00 0.00000000000000E+00 0.00000000000000E+00 
0.00000000000000E+00 0.00000000000000E+00 0.00000000000000E+00 0.00000000000000E+00 
0.00000000000000E+00 0.00000000000000E+00 0.00000000000000E+00 0.00000000000000E+00 
0.00000000000000E+00 0.00000000000000E+00 0.00000000000000E+00 0.00000000000000E+00 
0.00000000000000E+00 0.00000000000000E+00 0.00000000000000E+00 0.00000000000000E+00 
0.00000000000000E+00 0.00000000000000E+00 0.00000000000000E+00 0.00000000000000E+00 
0.00000000000000E+00 0.00000000000000E+00 0.00000000000000E+00 0.00000000000000E+00 
0.00000000000000E+00 0.00000000000000E+00 0.00000000000000E+00 0.00000000000000E+00 
0.00000000000000E+00 0.00000000000000E+00 0.00000000000000E+00 0.00000000000000E+00 
0.00000000000000E+00 0.00000000000000E+00 0.00000000000000E+00 0.00000000000000E+00 
0.00000000000000E+00 0.00000000000000E+00 0.00000000000000E+00 0.00000000000000E+00 
0.00000000000000E+00 0.00000000000000E+00 0.00000000000000E+00 0.00000000000000E+00 
0.00000000000000E+00 0.00000000000000E+00 0.00000000000000E+00 0.00000000000000E+00 
0.00000000000000E+00 0.00000000000000E+00 0.00000000000000E+00 0.00000000000000E+00 
0.00000000000000E+00 0.00000000000000E+00 0.00000000000000E+00 0.00000000000000E+00 
0.00000000000000E+00 0.00000000000000E+00 0.00000000000000E+00 0.00000000000000E+00 
0.00000000000000E+00 0.00000000000000E+00 0.00000000000000E+00 0.00000000000000E+00 
0.00000000000000E+00 0.00000000000000E+00 0.00000000000000E+00 0.00000000000000E+00 
0.00000000000000E+00 0.00000000000000E+00 0.00000000000000E+00 0.00000000000000E+00 
0.00000000000000E+00 0.00000000000000E+00 0.00000000000000E+00 0.00000000000000E+00 
0.00000000000000E+00 0.00000000000000E+00 0.00000000000000E+00 0.00000000000000E+00 
0.00000000000000E+00 0.00000000000000E+00 0.00000000000000E+00 0.00000000000000E+00 
0.00000000000000E+00 0.00000000000000E+00 0.00000000000000E+00 0.00000000000000E+00 
0.00000000000000E+00 0.00000000000000E+00 0.00000000000000E+00 0.00000000000000E+00 
0.00000000000000E+00 0.00000000000000E+00 0.00000000000000E+00 0.00000000000000E+00 
0.00000000000000E+00 0.00000000000000E+00 0.00000000000000E+00 0.00000000000000E+00 
0.00000000000000E+00 0.00000000000000E+00 0.00000000000000E+00 0.00000000000000E+00 
0.00000000000000E+00 0.00000000000000E+00 0.00000000000000E+00 0.00000000000000E+00 
0.00000000000000E+00 0.00000000000000E+00 0.00000000000000E+00 0.00000000000000E+00 
0.00000000000000E+00 0.00000000000000E+00 0.00000000000000E+00 0.00000000000000E+00 
0.00000000000000E+00 0.00000000000000E+00 0.00000000000000E+00 0.00000000000000E+00 
0.00000000000000E+00 0.00000000000000E+00 0.00000000000000E+00 0.00000000000000E+00 
0.00000000000000E+00 0.00000000000000E+00 0.00000000000000E+00 0.00000000000000E+00 
0.00000000000000E+00 0.00000000000000E+00 0.00000000000000E+00 0.00000000000000E+00 
0.00000000000000E+00 0.00000000000000E+00 0.00000000000000E+00 0.00000000000000E+00 
0.00000000000000E+00 0.00000000000000E+00 0.00000000000000E+00 0.00000000000000E+00 
0.00000000000000E+00 0.00000000000000E+00 0.00000000000000E+00 0.00000000000000E+00 
0.00000000000000E+00 0.00000000000000E+00 0.00000000000000E+00 0.00000000000000E+00 
0.00000000000000E+00 0.00000000000000E+00 0.00000000000000E+00 0.00000000000000E+00 
0.00000000000000E+00 0.00000000000000E+00 0.00000000000000E+00 0.00000000000000E+00 
0.00000000000000E+00 0.00000000000000E+00 0.00000000000000E+00 0.00000000000000E+00 
0.00000000000000E+00 0.00000000000000E+00 0.00000000000000E+00 0.00000000000000E+00 
0.00000000000000E+00 0.00000000000000E+00 0.00000000000000E+00 0.00000000000000E+00 
0.00000000000000E+00 0.00000000000000E+00 0.00000000000000E+00 0.00000000000000E+00 
0.00000000000000E+00 0.00000000000000E+00 0.00000000000000E+00 0.00000000000000E+00 
0.00000000000000E+00 
</PP_QIJL.3.3.4>
    </PP_AUGMENTATION>
  </PP_NONLOCAL>
  <PP_PSWFC>
    <PP_CHI.1 l="0" occupation="2.0" index="1" label="3S">
0.00000000000000E+00 3.48150998606000E-08 7.02153137915000E-08 1.06210475403000E-07 
1.42810583575000E-07 1.80025805234000E-07 2.17866478172000E-07 2.56343113924000E-07 
2.95466400681000E-07 3.35247206266000E-07 3.75696581146000E-07 4.16825761509000E-07 
4.58646172378000E-07 5.01169430791000E-07 5.44407349021000E-07 5.88371937864000E-07 
6.33075409973000E-07 6.78530183247000E-07 7.24748884285000E-07 7.71744351891000E-07 
8.19529640643000E-07 8.68118024513000E-07 9.17523000563000E-07 9.67758292686000E-07 
1.01883785542000E-06 1.07077587784000E-06 1.12358678747000E-06 1.17728525430000E-06 
1.23188619489000E-06 1.28740477647000E-06 1.34385642119000E-06 1.40125681037000E-06 
1.45962188888000E-06 1.51896786957000E-06 1.57931123777000E-06 1.64066875583000E-06 
1.70305746785000E-06 1.76649470436000E-06 1.83099808715000E-06 1.89658553415000E-06 
1.96327526446000E-06 2.03108580333000E-06 2.10003598736000E-06 2.17014496973000E-06 
2.24143222551000E-06 2.31391755705000E-06 2.38762109953000E-06 2.46256332648000E-06 
2.53876505556000E-06 2.61624745425000E-06 2.69503204579000E-06 2.77514071514000E-06 
2.85659571505000E-06 2.93941967227000E-06 3.02363559378000E-06 3.10926687325000E-06 
3.19633729748000E-06 3.28487105303000E-06 3.37489273295000E-06 3.46642734358000E-06 
3.55950031154000E-06 3.65413749074000E-06 3.75036516959000E-06 3.84821007833000E-06 
3.94769939637000E-06 4.04886075995000E-06 4.15172226970000E-06 4.25631249855000E-06 
4.36266049958000E-06 4.47079581417000E-06 4.58074848013000E-06 4.69254904008000E-06 
4.80622854993000E-06 4.92181858752000E-06 5.03935126134000E-06 5.15885921952000E-06 
5.28037565883000E-06 5.40393433394000E-06 5.52956956678000E-06 5.65731625607000E-06 
5.78720988703000E-06 5.91928654121000E-06 6.05358290653000E-06 6.19013628745000E-06 
6.32898461535000E-06 6.47016645906000E-06 6.61372103555000E-06 6.75968822086000E-06 
6.90810856113000E-06 7.05902328388000E-06 7.21247430947000E-06 7.36850426272000E-06 
7.52715648477000E-06 7.68847504509000E-06 7.85250475372000E-06 8.01929117374000E-06 
8.18888063390000E-06 8.36132024147000E-06 8.53665789536000E-06 8.71494229939000E-06 
8.89622297580000E-06 9.08055027907000E-06 9.26797540979000E-06 9.45855042898000E-06 
9.65232827250000E-06 9.84936276572000E-06 1.00497086385000E-05 1.02534215404000E-05 
1.04605580562000E-05 1.06711757212000E-05 1.08853330378000E-05 1.11030894914000E-05 
1.13245055669000E-05 1.15496427656000E-05 1.17785636221000E-05 1.20113317220000E-05 
1.22480117190000E-05 1.24886693536000E-05 1.27333714707000E-05 1.29821860381000E-05 
1.32351821662000E-05 1.34924301262000E-05 1.37540013702000E-05 1.40199685507000E-05 
1.42904055410000E-05 1.45653874557000E-05 1.48449906713000E-05 1.51292928477000E-05 
1.54183729493000E-05 1.57123112676000E-05 1.60111894427000E-05 1.63150904866000E-05 
1.66240988058000E-05 1.69383002248000E-05 1.72577820103000E-05 1.75826328947000E-05 
1.79129431013000E-05 1.82488043690000E-05 1.85903099779000E-05 1.89375547753000E-05 
1.92906352014000E-05 1.96496493169000E-05 2.00146968296000E-05 2.03858791220000E-05 
2.07632992798000E-05 2.11470621203000E-05 2.15372742213000E-05 2.19340439508000E-05 
2.23374814972000E-05 2.27476988993000E-05 2.31648100779000E-05 2.35889308671000E-05 
2.40201790465000E-05 2.44586743737000E-05 2.49045386175000E-05 2.53578955917000E-05 
2.58188711895000E-05 2.62875934179000E-05 2.67641924339000E-05 2.72488005796000E-05 
2.77415524198000E-05 2.82425847784000E-05 2.87520367769000E-05 2.92700498725000E-05 
2.97967678974000E-05 3.03323370987000E-05 3.08769061785000E-05 3.14306263355000E-05 
3.19936513064000E-05 3.25661374085000E-05 3.31482435831000E-05 3.37401314394000E-05 
3.43419652989000E-05 3.49539122410000E-05 3.55761421491000E-05 3.62088277576000E-05 
3.68521446996000E-05 3.75062715552000E-05 3.81713899010000E-05 3.88476843600000E-05 
3.95353426529000E-05 4.02345556494000E-05 4.09455174213000E-05 4.16684252956000E-05 
4.24034799092000E-05 4.31508852639000E-05 4.39108487829000E-05 4.46835813679000E-05 
4.54692974567000E-05 4.62682150828000E-05 4.70805559351000E-05 4.79065454190000E-05 
4.87464127182000E-05 4.96003908578000E-05 5.04687167684000E-05 5.13516313511000E-05 
5.22493795436000E-05 5.31622103874000E-05 5.40903770964000E-05 5.50341371259000E-05 
5.59937522435000E-05 5.69694886005000E-05 5.79616168054000E-05 5.89704119970000E-05 
5.99961539207000E-05 6.10391270041000E-05 6.20996204354000E-05 6.31779282419000E-05 
6.42743493705000E-05 6.53891877693000E-05 6.65227524703000E-05 6.76753576735000E-05 
6.88473228328000E-05 7.00389727425000E-05 7.12506376261000E-05 7.24826532253000E-05 
7.37353608919000E-05 7.50091076799000E-05 7.63042464396000E-05 7.76211359135000E-05 
7.89601408328000E-05 8.03216320165000E-05 8.17059864713000E-05 8.31135874932000E-05 
8.45448247710000E-05 8.60000944912000E-05 8.74797994445000E-05 8.89843491339000E-05 
9.05141598847000E-05 9.20696549561000E-05 9.36512646543000E-05 9.52594264479000E-05 
9.68945850841000E-05 9.85571927078000E-05 1.00247708982000E-04 1.01966601209000E-04 
1.03714344456000E-04 1.05491421679000E-04 1.07298323854000E-04 1.09135550102000E-04 
1.11003607823000E-04 1.12903012831000E-04 1.14834289487000E-04 1.16797970837000E-04 
1.18794598753000E-04 1.20824724071000E-04 1.22888906739000E-04 1.24987715959000E-04 
1.27121730335000E-04 1.29291538025000E-04 1.31497736891000E-04 1.33740934650000E-04 
1.36021749036000E-04 1.38340807953000E-04 1.40698749637000E-04 1.43096222820000E-04 
1.45533886890000E-04 1.48012412062000E-04 1.50532479544000E-04 1.53094781710000E-04 
1.55700022271000E-04 1.58348916452000E-04 1.61042191167000E-04 1.63780585202000E-04 
1.66564849393000E-04 1.69395746813000E-04 1.72274052957000E-04 1.75200555927000E-04 
1.78176056627000E-04 1.81201368953000E-04 1.84277319987000E-04 1.87404750193000E-04 
1.90584513617000E-04 1.93817478085000E-04 1.97104525408000E-04 2.00446551584000E-04 
2.03844467006000E-04 2.07299196665000E-04 2.10811680366000E-04 2.14382872936000E-04 
2.18013744435000E-04 2.21705280375000E-04 2.25458481931000E-04 2.29274366161000E-04 
2.33153966223000E-04 2.37098331598000E-04 2.41108528304000E-04 2.45185639126000E-04 
2.49330763833000E-04 2.53545019401000E-04 2.57829540240000E-04 2.62185478418000E-04 
2.66614003881000E-04 2.71116304683000E-04 2.75693587208000E-04 2.80347076393000E-04 
2.85078015954000E-04 2.89887668606000E-04 2.94777316286000E-04 2.99748260377000E-04 
3.04801821919000E-04 3.09939341833000E-04 3.15162181133000E-04 3.20471721140000E-04 
3.25869363688000E-04 3.31356531336000E-04 3.36934667563000E-04 3.42605236975000E-04 
3.48369725493000E-04 3.54229640545000E-04 3.60186511248000E-04 3.66241888588000E-04 
3.72397345587000E-04 3.78654477471000E-04 3.85014901823000E-04 3.91480258734000E-04 
3.98052210936000E-04 4.04732443934000E-04 4.11522666123000E-04 4.18424608894000E-04 
4.25440026725000E-04 4.32570697263000E-04 4.39818421392000E-04 4.47185023275000E-04 
4.54672350398000E-04 4.62282273575000E-04 4.70016686954000E-04 4.77877507984000E-04 
4.85866677380000E-04 4.93986159043000E-04 5.02237939977000E-04 5.10624030161000E-04 
5.19146462409000E-04 5.27807292186000E-04 5.36608597403000E-04 5.45552478170000E-04 
5.54641056524000E-04 5.63876476105000E-04 5.73260901804000E-04 5.82796519360000E-04 
5.92485534915000E-04 6.02330174523000E-04 6.12332683599000E-04 6.22495326329000E-04 
6.32820385004000E-04 6.43310159310000E-04 6.53966965544000E-04 6.64793135763000E-04 
6.75791016866000E-04 6.86962969592000E-04 6.98311367447000E-04 7.09838595537000E-04 
7.21547049314000E-04 7.33439133232000E-04 7.45517259294000E-04 7.57783845498000E-04 
7.70241314170000E-04 7.82892090180000E-04 7.95738599031000E-04 8.08783264815000E-04 
8.22028508032000E-04 8.35476743264000E-04 8.49130376690000E-04 8.62991803441000E-04 
8.77063404777000E-04 8.91347545092000E-04 9.05846568716000E-04 9.20562796525000E-04 
9.35498522331000E-04 9.50656009052000E-04 9.66037484640000E-04 9.81645137768000E-04 
9.97481113245000E-04 1.01354750716000E-03 1.02984636174000E-03 1.04637965988000E-03 
1.06314931938000E-03 1.08015718680000E-03 1.09740503103000E-03 1.11489453636000E-03 
1.13262729530000E-03 1.15060480087000E-03 1.16882843849000E-03 1.18729947740000E-03 
1.20601906163000E-03 1.22498820035000E-03 1.24420775783000E-03 1.26367844271000E-03 
1.28340079672000E-03 1.30337518277000E-03 1.32360177238000E-03 1.34408053237000E-03 
1.36481121092000E-03 1.38579332273000E-03 1.40702613347000E-03 1.42850864331000E-03 
1.45023956962000E-03 1.47221732868000E-03 1.49444001641000E-03 1.51690538804000E-03 
1.53961083674000E-03 1.56255337108000E-03 1.58572959119000E-03 1.60913566382000E-03 
1.63276729590000E-03 1.65661970680000E-03 1.68068759908000E-03 1.70496512767000E-03 
1.72944586750000E-03 1.75412277926000E-03 1.77898817360000E-03 1.80403367318000E-03 
1.82925017296000E-03 1.85462779829000E-03 1.88015586080000E-03 1.90582281211000E-03 
1.93161619497000E-03 1.95752259203000E-03 1.98352757181000E-03 2.00961563201000E-03 
2.03577013980000E-03 2.06197326904000E-03 2.08820593440000E-03 2.11444772189000E-03 
2.14067681603000E-03 2.16686992323000E-03 2.19300219119000E-03 2.21904712432000E-03 
2.24497649483000E-03 2.27076024923000E-03 2.29636641023000E-03 2.32176097363000E-03 
2.34690779997000E-03 2.37176850085000E-03 2.39630231940000E-03 2.42046600495000E-03 
2.44421368125000E-03 2.46749670829000E-03 2.49026353712000E-03 2.51245955758000E-03 
2.53402693842000E-03 2.55490445954000E-03 2.57502733603000E-03 2.59432703345000E-03 
2.61273107422000E-03 2.63016283438000E-03 2.64654133057000E-03 2.66178099663000E-03 
2.67579144934000E-03 2.68847724284000E-03 2.69973761131000E-03 2.70946619920000E-03 
2.71755077856000E-03 2.72387295293000E-03 2.72830784714000E-03 2.73072378237000E-03 
2.73098193596000E-03 2.72893598511000E-03 2.72443173401000E-03 2.71730672350000E-03 
2.70738982266000E-03 2.69450080142000E-03 2.67844988361000E-03 2.65903727948000E-03 
2.63605269686000E-03 2.60927483025000E-03 2.57847082680000E-03 2.54339572833000E-03 
2.50379188846000E-03 2.45938836394000E-03 2.40990027916000E-03 2.35502816276000E-03 
2.29445725554000E-03 2.22785678843000E-03 2.15487922954000E-03 2.07515949926000E-03 
1.98831415228000E-03 1.89394052543000E-03 1.79161585028000E-03 1.68089632937000E-03 
1.56131617499000E-03 1.43238660936000E-03 1.29359482517000E-03 1.14440290536000E-03 
9.84246701109000E-04 8.12534666974000E-04 6.28646652196000E-04 4.31932647201000E-04 
2.21711484378000E-04 -2.73050769766000E-06 -2.42140897407000E-04 -4.97302591269000E-04 
-7.69035323793000E-04 -1.05819719649000E-03 -1.36568626641000E-03 -1.69244218448000E-03 
-2.03944788370000E-03 -2.40773131704000E-03 -2.79836724494000E-03 -3.21247907159000E-03 
-3.65124072964000E-03 -4.11587861184000E-03 -4.60767354876000E-03 -5.12796283060000E-03 
-5.67814227119000E-03 -6.25966831184000E-03 -6.87406016204000E-03 -7.52290197392000E-03 
-8.20784504635000E-03 -8.93061005458000E-03 -9.69298930020000E-03 -1.04968489759000E-02 
-1.13441314387000E-02 -1.22368574839000E-02 -1.31771286134000E-02 -1.41671292871000E-02 
-1.52091291497000E-02 -1.63054852211000E-02 -1.74586440383000E-02 -1.86711437362000E-02 
-1.99456160524000E-02 -2.12847882406000E-02 -2.26914848752000E-02 -2.41686295284000E-02 
-2.57192463002000E-02 -2.73464611775000E-02 -2.90535032011000E-02 -3.08437054124000E-02 
-3.27205055537000E-02 -3.46874464917000E-02 -3.67481763319000E-02 -3.89064481909000E-02 
-4.11661195873000E-02 -4.35311514157000E-02 -4.60056064578000E-02 -4.85936473900000E-02 
-5.12995342368000E-02 -5.41276212228000E-02 -5.70823529681000E-02 -6.01682599720000E-02 
-6.33899533255000E-02 -6.67521185915000E-02 -7.02595087855000E-02 -7.39169363905000E-02 
-7.77292643340000E-02 -8.17013958525000E-02 -8.58382631673000E-02 -9.01448148917000E-02 
-9.46260020872000E-02 -9.92867628858000E-02 -1.04132005591000E-01 -1.09166590173000E-01 
-1.14395308067000E-01 -1.19822860192000E-01 -1.25453833099000E-01 -1.31292673171000E-01 
-1.37343658787000E-01 -1.43610870382000E-01 -1.50098158328000E-01 -1.56809108587000E-01 
-1.63747006082000E-01 -1.70914795753000E-01 -1.78315041299000E-01 -1.85949881602000E-01 
-1.93820984883000E-01 -2.01929500657000E-01 -2.10276009607000E-01 -2.18860471532000E-01 
-2.27682171591000E-01 -2.36739665118000E-01 -2.46030721372000E-01 -2.55552266644000E-01 
-2.65300327277000E-01 -2.75269973203000E-01 -2.85455262781000E-01 -2.95849189771000E-01 
-3.06443633468000E-01 -3.17229313098000E-01 -3.28195747735000E-01 -3.39331223087000E-01 
-3.50622766601000E-01 -3.62056132375000E-01 -3.73615797371000E-01 -3.85284970329000E-01 
-3.97045614621000E-01 -4.08878485920000E-01 -4.20763185111000E-01 -4.32678226137000E-01 
-4.44601117523000E-01 -4.56508455094000E-01 -4.68376021847000E-01 -4.80178889088000E-01 
-4.91891510861000E-01 -5.03487801448000E-01 -5.14941183613000E-01 -5.26224593674000E-01 
-5.37310429116000E-01 -5.48170426359000E-01 -5.58775462182000E-01 -5.69095284546000E-01 
-5.79098200826000E-01 -5.88750788992000E-01 -5.98017757560000E-01 -6.06862173804000E-01 
-6.15246421874000E-01 -6.23134463957000E-01 -6.30496314187000E-01 -6.37313220060000E-01 
-6.43573101872000E-01 -6.49265336273000E-01 -6.54380499964000E-01 -6.58910381089000E-01 
-6.62847965058000E-01 -6.66187422806000E-01 -6.68924103641000E-01 -6.71054533152000E-01 
-6.72576415681000E-01 -6.73488639985000E-01 -6.73791287021000E-01 -6.73485638037000E-01 
-6.72574182166000E-01 -6.71060621817000E-01 -6.68949875592000E-01 -6.66248077234000E-01 
-6.62962570900000E-01 -6.59101901462000E-01 -6.54675800609000E-01 -6.49695167581000E-01 
-6.44172045677000E-01 -6.38119593468000E-01 -6.31552052074000E-01 -6.24484707511000E-01 
-6.16933849617000E-01 -6.08916726570000E-01 -6.00451496600000E-01 -5.91557175942000E-01 
-5.82253584605000E-01 -5.72561289059000E-01 -5.62501543372000E-01 -5.52096227918000E-01 
-5.41367787103000E-01 -5.30339165279000E-01 -5.19033742140000E-01 -5.07475266847000E-01 
-4.95687791953000E-01 -4.83695606481000E-01 -4.71523168962000E-01 -4.59195039896000E-01 
-4.46735814171000E-01 -4.34170052986000E-01 -4.21522215604000E-01 -4.08816590578000E-01 
-3.96077226587000E-01 -3.83327862697000E-01 -3.70591858092000E-01 -3.57892121334000E-01 
-3.45251039195000E-01 -3.32690405490000E-01 -3.20231350044000E-01 -3.07894268631000E-01 
-2.95698754201000E-01 -2.83663530581000E-01 -2.71806389143000E-01 -2.60144129864000E-01 
-2.48692507281000E-01 -2.37466182832000E-01 -2.26478683925000E-01 -2.15742371041000E-01 
-2.05268412894000E-01 -1.95066770592000E-01 -1.85146190420000E-01 -1.75514205747000E-01 
-1.66177147269000E-01 -1.57140161687000E-01 -1.48407237727000E-01 -1.39981239296000E-01 
-1.31863944500000E-01 -1.24056090159000E-01 -1.16557420517000E-01 -1.09366739717000E-01 
-1.02481966840000E-01 -9.59001931060000E-02 -8.96177401930000E-02 -8.36302193505000E-02 
-7.79325904616000E-02 -7.25192208203000E-02 -6.73839429668000E-02 -6.25201114424000E-02 
-5.79206579736000E-02 -5.35781450262000E-02 -4.94848173793000E-02 -4.56326517219000E-02 
-4.20134040339000E-02 -3.86186548007000E-02 -3.54398519121000E-02 -3.24683513232000E-02 
-2.96954553986000E-02 -2.71124490322000E-02 -2.47106335126000E-02 -2.24813582320000E-02 
-2.04160502349000E-02 -1.85062416992000E-02 -1.67435953576000E-02 -1.51199279342000E-02 
-1.36272316043000E-02 -1.22576935331000E-02 -1.10037134928000E-02 -9.85791959612000E-03 
-8.81318214271000E-03 -7.86262560321000E-03 -6.99963874245000E-03 -6.21788290597000E-03 
-5.51129848407000E-03 -4.87410958933000E-03 -4.30082698275000E-03 -3.78624930468000E-03 
-3.32546267153000E-03 -2.91383871831000E-03 -2.54703117427000E-03 -2.22097107472000E-03 
-1.93186071837000E-03 -1.67616649139000E-03 -1.45061068303000E-03 -1.25216242430000E-03 
-1.07802788186000E-03 -9.25639840702000E-04 -7.92646806523000E-04 -6.76901755651000E-04 
-5.76450654699000E-04 -4.89520865655000E-04 -4.14509543989000E-04 -3.49972128652000E-04 
-2.94611013140000E-04 -2.47264476884000E-04 -2.06895945862000E-04 -1.72583641097000E-04 
-1.43510663530000E-04 -1.18955553939000E-04 -9.82833571799000E-05 -8.09372112476000E-05 
-6.64304734576000E-05 -5.43393886428000E-05 -4.42962975727000E-05 -3.59833779293000E-05 
-2.91269050849000E-05 -2.34920156319000E-05 -1.88779530810000E-05 -1.51137723387000E-05 
-1.20544774540000E-05 -9.57756563894000E-06 -7.57994965219000E-06 -5.97523005945000E-06 
-4.69128805531000E-06 -3.66817735188000E-06 -2.85627741914000E-06 -2.21468940752000E-06 
-1.70984857098000E-06 -1.31432961962000E-06 -1.00582319859000E-06 -7.66263292389000E-07 
-5.81086986402000E-07 -4.38609647513000E-07 -3.29500187135000E-07 -2.46342619122000E-07 
-1.83271604918000E-07 -1.35671074892000E-07 -9.99263186081000E-08 -7.32211414221000E-08 
-5.33727873004000E-08 -3.86983273577000E-08 -2.79071121184000E-08 -2.00146861883000E-08 
-1.42742716868000E-08 -1.01225471978000E-08 -7.13698860544000E-09 -5.00250386159000E-09 
-3.48549252828000E-09 -2.41379984817000E-09 -1.66132093706000E-09 -1.13624995555000E-09 
-7.72167882849000E-10 -5.21326396541000E-10 -3.49619454574000E-10 -2.32843055996000E-10 
-1.53931373249000E-10 -1.00927539104000E-10 -6.55028816835000E-11 -4.18819081272000E-11 
-2.60639655171000E-11 -1.52579302485000E-11 -7.46468711768000E-12 -1.15418098329000E-12 
0.00000000000000E+00 0.00000000000000E+00 0.00000000000000E+00 0.00000000000000E+00 
0.00000000000000E+00 0.00000000000000E+00 0.00000000000000E+00 0.00000000000000E+00 
0.00000000000000E+00 0.00000000000000E+00 0.00000000000000E+00 0.00000000000000E+00 
0.00000000000000E+00 0.00000000000000E+00 0.00000000000000E+00 0.00000000000000E+00 
0.00000000000000E+00 0.00000000000000E+00 0.00000000000000E+00 0.00000000000000E+00 
0.00000000000000E+00 0.00000000000000E+00 0.00000000000000E+00 0.00000000000000E+00 
0.00000000000000E+00 0.00000000000000E+00 0.00000000000000E+00 0.00000000000000E+00 
0.00000000000000E+00 0.00000000000000E+00 0.00000000000000E+00 0.00000000000000E+00 
0.00000000000000E+00 0.00000000000000E+00 0.00000000000000E+00 0.00000000000000E+00 
0.00000000000000E+00 0.00000000000000E+00 0.00000000000000E+00 0.00000000000000E+00 
0.00000000000000E+00 0.00000000000000E+00 0.00000000000000E+00 0.00000000000000E+00 
0.00000000000000E+00 0.00000000000000E+00 0.00000000000000E+00 0.00000000000000E+00 
0.00000000000000E+00 0.00000000000000E+00 0.00000000000000E+00 0.00000000000000E+00 
0.00000000000000E+00 0.00000000000000E+00 0.00000000000000E+00 0.00000000000000E+00 
0.00000000000000E+00 0.00000000000000E+00 0.00000000000000E+00 0.00000000000000E+00 
0.00000000000000E+00 0.00000000000000E+00 0.00000000000000E+00 0.00000000000000E+00 
0.00000000000000E+00 0.00000000000000E+00 0.00000000000000E+00 0.00000000000000E+00 
0.00000000000000E+00 0.00000000000000E+00 0.00000000000000E+00 0.00000000000000E+00 
0.00000000000000E+00 0.00000000000000E+00 0.00000000000000E+00 0.00000000000000E+00 
0.00000000000000E+00 0.00000000000000E+00 0.00000000000000E+00 0.00000000000000E+00 
0.00000000000000E+00 0.00000000000000E+00 0.00000000000000E+00 0.00000000000000E+00 
0.00000000000000E+00 0.00000000000000E+00 0.00000000000000E+00 0.00000000000000E+00 
0.00000000000000E+00 0.00000000000000E+00 0.00000000000000E+00 0.00000000000000E+00 
0.00000000000000E+00 0.00000000000000E+00 0.00000000000000E+00 0.00000000000000E+00 
0.00000000000000E+00 0.00000000000000E+00 0.00000000000000E+00 0.00000000000000E+00 
0.00000000000000E+00 
</PP_CHI.1>
    <PP_CHI.2 l="1" occupation="1.0" index="2" label="3P">
0.00000000000000E+00 1.87393125885000E-13 7.62222996381000E-13 1.74402646491000E-12 
3.15311022728000E-12 5.01057872457000E-12 7.33836302225000E-12 1.01592506990000E-11 
1.34969167800000E-11 1.73759557510000E-11 2.18219146896000E-11 2.68613275524000E-11 
3.25217506591000E-11 3.88317994116000E-11 4.58211862943000E-11 5.35207601966000E-11 
6.19625471042000E-11 7.11797922072000E-11 8.12070034711000E-11 9.20799967235000E-11 
1.03835942307000E-10 1.16513413352000E-10 1.30152435727000E-10 1.44794539721000E-10 
1.60482813517000E-10 1.77261958524000E-10 1.95178346625000E-10 2.14280079406000E-10 
2.34617049438000E-10 2.56241003685000E-10 2.79205609101000E-10 3.03566520496000E-10 
3.29381450758000E-10 3.56710243489000E-10 3.85614948164000E-10 4.16159897880000E-10 
4.48411789796000E-10 4.82439768338000E-10 5.18315511295000E-10 5.56113318871000E-10 
5.95910205811000E-10 6.37785996715000E-10 6.81823424620000E-10 7.28108232998000E-10 
7.76729281257000E-10 8.27778653877000E-10 8.81351773314000E-10 9.37547516775000E-10 
9.96468337028000E-10 1.05822038736000E-09 1.12291365084000E-09 1.19066207401000E-09 
1.26158370521000E-09 1.33580083761000E-09 1.41344015721000E-09 1.49463289587000E-09 
1.57951498964000E-09 1.66822724251000E-09 1.76091549580000E-09 1.85773080332000E-09 
1.95882961258000E-09 2.06437395225000E-09 2.17453162596000E-09 2.28947641282000E-09 
2.40938827479000E-09 2.53445357119000E-09 2.66486528050000E-09 2.80082322984000E-09 
2.94253433224000E-09 3.09021283211000E-09 3.24408055905000E-09 3.40436719040000E-09 
3.57131052278000E-09 3.74515675288000E-09 3.92616076792000E-09 4.11458644602000E-09 
4.31070696686000E-09 4.51480513295000E-09 4.72717370191000E-09 4.94811573011000E-09 
5.17794492807000E-09 5.41698602800000E-09 5.66557516389000E-09 5.92406026463000E-09 
6.19280146058000E-09 6.47217150393000E-09 6.76255620356000E-09 7.06435487466000E-09 
7.37798080378000E-09 7.70386172968000E-09 8.04244034067000E-09 8.39417478892000E-09 
8.75953922231000E-09 9.13902433446000E-09 9.53313793352000E-09 9.94240553035000E-09 
1.03673709469000E-08 1.08085969450000E-08 1.12666658772000E-08 1.17421803592000E-08 
1.22357639657000E-08 1.27480619495000E-08 1.32797419856000E-08 1.38314949403000E-08 
1.44040356671000E-08 1.49981038286000E-08 1.56144647480000E-08 1.62539102881000E-08 
1.69172597612000E-08 1.76053608697000E-08 1.83190906790000E-08 1.90593566230000E-08 
1.98270975443000E-08 2.06232847702000E-08 2.14489232242000E-08 2.23050525763000E-08 
2.31927484327000E-08 2.41131235651000E-08 2.50673291821000E-08 2.60565562448000E-08 
2.70820368262000E-08 2.81450455168000E-08 2.92469008792000E-08 3.03889669509000E-08 
3.15726547990000E-08 3.27994241279000E-08 3.40707849409000E-08 3.53882992594000E-08 
3.67535829000000E-08 3.81683073122000E-08 3.96342014783000E-08 4.11530538788000E-08 
4.27267145238000E-08 4.43570970537000E-08 4.60461809120000E-08 4.77960135909000E-08 
4.96087129543000E-08 5.14864696393000E-08 5.34315495395000E-08 5.54462963723000E-08 
5.75331343347000E-08 5.96945708481000E-08 6.19331993968000E-08 6.42517024639000E-08 
6.66528545653000E-08 6.91395253889000E-08 7.17146830386000E-08 7.43813973898000E-08 
7.71428435586000E-08 8.00023054888000E-08 8.29631796609000E-08 8.60289789276000E-08 
8.92033364785000E-08 9.24900099410000E-08 9.58928856194000E-08 9.94159828786000E-08 
1.03063458677000E-07 1.06839612252000E-07 1.10748889967000E-07 1.14795890322000E-07 
1.18985369133000E-07 1.23322244889000E-07 1.27811604292000E-07 1.32458707982000E-07 
1.37268996459000E-07 1.42248096206000E-07 1.47401826020000E-07 1.52736203555000E-07 
1.58257452093000E-07 1.63972007538000E-07 1.69886525655000E-07 1.76007889548000E-07 
1.82343217398000E-07 1.88899870458000E-07 1.95685461325000E-07 2.02707862488000E-07 
2.09975215168000E-07 2.17495938462000E-07 2.25278738791000E-07 2.33332619675000E-07 
2.41666891832000E-07 2.50291183630000E-07 2.59215451885000E-07 2.68449993030000E-07 
2.78005454664000E-07 2.87892847489000E-07 2.98123557658000E-07 3.08709359534000E-07 
3.19662428890000E-07 3.30995356555000E-07 3.42721162519000E-07 3.54853310526000E-07 
3.67405723146000E-07 3.80392797381000E-07 3.93829420780000E-07 4.07730988112000E-07 
4.22113418606000E-07 4.36993173766000E-07 4.52387275804000E-07 4.68313326687000E-07 
4.84789527838000E-07 5.01834700500000E-07 5.19468306799000E-07 5.37710471511000E-07 
5.56582004578000E-07 5.76104424381000E-07 5.96299981805000E-07 6.17191685123000E-07 
6.38803325722000E-07 6.61159504700000E-07 6.84285660371000E-07 7.08208096698000E-07 
7.32954012694000E-07 7.58551532819000E-07 7.85029738408000E-07 8.12418700169000E-07 
8.40749511780000E-07 8.70054324626000E-07 9.00366383715000E-07 9.31720064817000E-07 
9.64150912855000E-07 9.97695681604000E-07 1.03239237474000E-06 1.06828028827000E-06 
1.10540005441000E-06 1.14379368696000E-06 1.18350462821000E-06 1.22457779742000E-06 
1.26705964096000E-06 1.31099818419000E-06 1.35644308501000E-06 1.40344568934000E-06 
1.45205908834000E-06 1.50233817774000E-06 1.55433971904000E-06 1.60812240286000E-06 
1.66374691442000E-06 1.72127600124000E-06 1.78077454315000E-06 1.84230962464000E-06 
1.90595060972000E-06 1.97176921926000E-06 2.03983961101000E-06 2.11023846229000E-06 
2.18304505550000E-06 2.25834136655000E-06 2.33621215627000E-06 2.41674506489000E-06 
2.50003070982000E-06 2.58616278664000E-06 2.67523817360000E-06 2.76735703958000E-06 
2.86262295582000E-06 2.96114301134000E-06 3.06302793234000E-06 3.16839220562000E-06 
3.27735420619000E-06 3.39003632925000E-06 3.50656512657000E-06 3.62707144756000E-06 
3.75169058513000E-06 3.88056242644000E-06 4.01383160882000E-06 4.15164768096000E-06 
4.29416526959000E-06 4.44154425176000E-06 4.59394993303000E-06 4.75155323167000E-06 
4.91453086912000E-06 5.08306556695000E-06 5.25734625037000E-06 5.43756825887000E-06 
5.62393356379000E-06 5.81665099338000E-06 6.01593646552000E-06 6.22201322827000E-06 
6.43511210863000E-06 6.65547176970000E-06 6.88333897665000E-06 7.11896887161000E-06 
7.36262525797000E-06 7.61458089433000E-06 7.87511779834000E-06 8.14452756098000E-06 
8.42311167141000E-06 8.71118185293000E-06 9.00906041023000E-06 9.31708058856000E-06 
9.63558694504000E-06 9.96493573252000E-06 1.03054952966000E-05 1.06576464860000E-05 
1.10217830769000E-05 1.13983122120000E-05 1.17876548536000E-05 1.21902462535000E-05 
1.26065364372000E-05 1.30369907061000E-05 1.34820901555000E-05 1.39423322113000E-05 
1.44182311837000E-05 1.49103188411000E-05 1.54191450022000E-05 1.59452781493000E-05 
1.64893060616000E-05 1.70518364707000E-05 1.76334977377000E-05 1.82349395541000E-05 
1.88568336659000E-05 1.94998746223000E-05 2.01647805506000E-05 2.08522939566000E-05 
2.15631825526000E-05 2.22982401138000E-05 2.30582873631000E-05 2.38441728868000E-05 
2.46567740812000E-05 2.54969981308000E-05 2.63657830211000E-05 2.72640985846000E-05 
2.81929475828000E-05 2.91533668258000E-05 3.01464283284000E-05 3.11732405076000E-05 
3.22349494190000E-05 3.33327400366000E-05 3.44678375758000E-05 3.56415088611000E-05 
3.68550637410000E-05 3.81098565510000E-05 3.94072876264000E-05 4.07488048663000E-05 
4.21359053518000E-05 4.35701370187000E-05 4.50531003876000E-05 4.65864503530000E-05 
4.81718980334000E-05 4.98112126847000E-05 5.15062236788000E-05 5.32588225501000E-05 
5.50709651114000E-05 5.69446736428000E-05 5.88820391551000E-05 6.08852237302000E-05 
6.29564629425000E-05 6.50980683623000E-05 6.73124301457000E-05 6.96020197121000E-05 
7.19693925146000E-05 7.44171909048000E-05 7.69481470954000E-05 7.95650862254000E-05 
8.22709295293000E-05 8.50686976161000E-05 8.79615138600000E-05 9.09526079086000E-05 
9.40453193103000E-05 9.72431012677000E-05 1.00549524519000E-04 1.03968281355000E-04 
1.07503189769000E-04 1.11158197760000E-04 1.14937387772000E-04 1.18844981293000E-04 
1.22885343614000E-04 1.27062988750000E-04 1.31382584529000E-04 1.35848957860000E-04 
1.40467100182000E-04 1.45242173100000E-04 1.50179514224000E-04 1.55284643194000E-04 
1.60563267935000E-04 1.66021291109000E-04 1.71664816806000E-04 1.77500157461000E-04 
1.83533841010000E-04 1.89772618299000E-04 1.96223470749000E-04 2.02893618291000E-04 
2.09790527574000E-04 2.16921920461000E-04 2.24295782824000E-04 2.31920373647000E-04 
2.39804234443000E-04 2.47956199007000E-04 2.56385403510000E-04 2.65101296945000E-04 
2.74113651945000E-04 2.83432575978000E-04 2.93068522939000E-04 3.03032305151000E-04 
3.13335105793000E-04 3.23988491761000E-04 3.35004426993000E-04 3.46395286262000E-04 
3.58173869462000E-04 3.70353416398000E-04 3.82947622113000E-04 3.95970652751000E-04 
4.09437161993000E-04 4.23362308083000E-04 4.37761771464000E-04 4.52651773043000E-04 
4.68049093121000E-04 4.83971091000000E-04 5.00435725304000E-04 5.17461575028000E-04 
5.35067861356000E-04 5.53274470270000E-04 5.72101975984000E-04 5.91571665230000E-04 
6.11705562430000E-04 6.32526455798000E-04 6.54057924390000E-04 6.76324366159000E-04 
6.99351027035000E-04 7.23164031088000E-04 7.47790411803000E-04 7.73258144516000E-04 
7.99596180063000E-04 8.26834479676000E-04 8.55004051191000E-04 8.84136986613000E-04 
9.14266501088000E-04 9.45426973349000E-04 9.77653987690000E-04 1.01098437753000E-03 
1.04545627063000E-03 1.08110913603000E-03 1.11798383281000E-03 1.15612266066000E-03 
1.19556941244000E-03 1.23636942878000E-03 1.27856965473000E-03 1.32221869864000E-03 
1.36736689337000E-03 1.41406635980000E-03 1.46237107291000E-03 1.51233693041000E-03 
1.56402182405000E-03 1.61748571381000E-03 1.67279070497000E-03 1.73000112829000E-03 
1.78918362333000E-03 1.85040722515000E-03 1.91374345446000E-03 1.97926641143000E-03 
2.04705287321000E-03 2.11718239551000E-03 2.18973741821000E-03 2.26480337530000E-03 
2.34246880933000E-03 2.42282549051000E-03 2.50596854076000E-03 2.59199656281000E-03 
2.68101177467000E-03 2.77312014966000E-03 2.86843156228000E-03 2.96705994011000E-03 
3.06912342210000E-03 3.17474452345000E-03 3.28405030744000E-03 3.39717256447000E-03 
3.51424799864000E-03 3.63541842226000E-03 3.76083095846000E-03 3.89063825257000E-03 
4.02499869236000E-03 4.16407663763000E-03 4.30804265968000E-03 4.45707379087000E-03 
4.61135378494000E-03 4.77107338836000E-03 4.93643062331000E-03 5.10763108282000E-03 
5.28488823839000E-03 5.46842376091000E-03 5.65846785522000E-03 5.85525960897000E-03 
6.05904735642000E-03 6.27008905765000E-03 6.48865269406000E-03 6.71501668057000E-03 
6.94947029532000E-03 7.19231412763000E-03 7.44386054478000E-03 7.70443417845000E-03 
7.97437243158000E-03 8.25402600634000E-03 8.54375945406000E-03 8.84395174797000E-03 
9.15499687935000E-03 9.47730447821000E-03 9.81130045907000E-03 1.01574276928000E-02 
1.05161467055000E-02 1.08879364047000E-02 1.12732948347000E-02 1.16727399607000E-02 
1.20868104835000E-02 1.25160666854000E-02 1.29610913071000E-02 1.34224904580000E-02 
1.39008945594000E-02 1.43969593214000E-02 1.49113667546000E-02 1.54448262170000E-02 
1.59980754966000E-02 1.65718819294000E-02 1.71670435547000E-02 1.77843903064000E-02 
1.84247852412000E-02 1.90891258042000E-02 1.97783451302000E-02 2.04934133822000E-02 
2.12353391256000E-02 2.20051707380000E-02 2.28039978532000E-02 2.36329528395000E-02 
2.44932123097000E-02 2.53859986624000E-02 2.63125816524000E-02 2.72742799880000E-02 
2.82724629530000E-02 2.93085520514000E-02 3.03840226698000E-02 3.15004057564000E-02 
3.26592895106000E-02 3.38623210807000E-02 3.51112082627000E-02 3.64077211968000E-02 
3.77536940538000E-02 3.91510267053000E-02 4.06016863709000E-02 4.21077092324000E-02 
4.36712020065000E-02 4.52943434658000E-02 4.69793858960000E-02 4.87286564764000E-02 
5.05445585687000E-02 5.24295728980000E-02 5.43862586083000E-02 5.64172541694000E-02 
5.85252781137000E-02 6.07131295753000E-02 6.29836885999000E-02 6.53399161928000E-02 
6.77848540631000E-02 7.03216240209000E-02 7.29534269746000E-02 7.56835414705000E-02 
7.85153217066000E-02 8.14521949458000E-02 8.44976582409000E-02 8.76552743743000E-02 
9.09286669005000E-02 9.43215141696000E-02 9.78375421907000E-02 1.01480516183000E-01 
1.05254230642000E-01 1.09162497741000E-01 1.13209133858000E-01 1.17397944020000E-01 
1.21732704035000E-01 1.26217140080000E-01 1.30854905501000E-01 1.35649554602000E-01 
1.40604513197000E-01 1.45723045743000E-01 1.51008218903000E-01 1.56462861445000E-01 
1.62089520500000E-01 1.67890414277000E-01 1.73867381498000E-01 1.80021828009000E-01 
1.86354671208000E-01 1.92866283231000E-01 1.99556434104000E-01 2.06424236412000E-01 
2.13468093405000E-01 2.20685652792000E-01 2.28073768849000E-01 2.35628475740000E-01 
2.43344975108000E-01 2.51217641007000E-01 2.59240044936000E-01 2.67405003062000E-01 
2.75704646496000E-01 2.84130513577000E-01 2.92673660342000E-01 3.01324781549000E-01 
3.10074329683000E-01 3.18912613240000E-01 3.27829848504000E-01 3.36816131435000E-01 
3.45861289321000E-01 3.54954567463000E-01 3.64084107683000E-01 3.73236188426000E-01 
3.82394229148000E-01 3.91537627936000E-01 4.00640620755000E-01 4.09671553192000E-01 
4.18593284798000E-01 4.27365965641000E-01 4.35954244204000E-01 4.44337424233000E-01 
4.52503569287000E-01 4.60441439225000E-01 4.68140057638000E-01 4.75588739102000E-01 
4.82777083218000E-01 4.89694971433000E-01 4.96332568383000E-01 5.02680328334000E-01 
5.08729006615000E-01 5.14469675277000E-01 5.19893742383000E-01 5.24992973745000E-01 
5.29759516626000E-01 5.34185924181000E-01 5.38265180475000E-01 5.41990724911000E-01 
5.45356476293000E-01 5.48356855398000E-01 5.50986806633000E-01 5.53241817704000E-01 
5.55117938122000E-01 5.56611795509000E-01 5.57720610723000E-01 5.58442210774000E-01 
5.58775040686000E-01 5.58718173258000E-01 5.58271317980000E-01 5.57434828049000E-01 
5.56209706753000E-01 5.54597612209000E-01 5.52600861672000E-01 5.50222434432000E-01 
5.47465974454000E-01 5.44335791797000E-01 5.40836863844000E-01 5.36974835414000E-01 
5.32756018610000E-01 5.28187391504000E-01 5.23276596267000E-01 5.18031935875000E-01 
5.12462369717000E-01 5.06577507233000E-01 5.00387599614000E-01 4.93903528723000E-01 
4.87136792951000E-01 4.80099489284000E-01 4.72804291046000E-01 4.65264420805000E-01 
4.57493617815000E-01 4.49506099845000E-01 4.41316518852000E-01 4.32939910873000E-01 
4.24391639866000E-01 4.15687336499000E-01 4.06842831963000E-01 3.97874088441000E-01 
3.88797126609000E-01 3.79627952258000E-01 3.70382482560000E-01 3.61076474257000E-01 
3.51725454188000E-01 3.42344654337000E-01 3.32948951497000E-01 3.23552813390000E-01 
3.14170250900000E-01 3.04814777787000E-01 2.95499377101000E-01 2.86236475185000E-01 
2.77037922120000E-01 2.67914979115000E-01 2.58878311471000E-01 2.49937987347000E-01 
2.41103480869000E-01 2.32383679665000E-01 2.23786895399000E-01 2.15320877324000E-01 
2.06992827551000E-01 1.98809418047000E-01 1.90776808219000E-01 1.82900663140000E-01 
1.75186171435000E-01 1.67638062940000E-01 1.60260625323000E-01 1.53057719834000E-01 
1.46032795543000E-01 1.39188902292000E-01 1.32528701899000E-01 1.26054477898000E-01 
1.19768143521000E-01 1.13671248291000E-01 1.07764983104000E-01 1.02050184215000E-01 
9.65273361809000E-02 9.11965742180000E-02 8.60576861309000E-02 8.11101142996000E-02 
7.63529579294000E-02 7.17849760203000E-02 6.74045912571000E-02 6.32098951958000E-02 
5.91986548915000E-02 5.53683212238000E-02 5.17160389764000E-02 4.82386587901000E-02 
4.49327509443000E-02 4.17946209576000E-02 3.88203268670000E-02 3.60056980722000E-02 
3.33463555322000E-02 3.08377331267000E-02 2.84750999297000E-02 2.62535831674000E-02 
2.41681915955000E-02 2.22138390611000E-02 2.03853679946000E-02 1.86775726140000E-02 
1.70852216173000E-02 1.56030801752000E-02 1.42259310436000E-02 1.29485946472000E-02 
1.17659479993000E-02 1.06729423550000E-02 9.66461950734000E-03 8.73612666650000E-03 
7.88272987647000E-03 7.09982594608000E-03 6.38295288783000E-03 5.72779887521000E-03 
5.13020974273000E-03 4.58619506726000E-03 4.09193287948000E-03 3.64377306506000E-03 
3.23823952258000E-03 2.87203115274000E-03 2.54202175789000E-03 2.24525893556000E-03 
1.97896205189000E-03 1.74051938269000E-03 1.52748450994000E-03 1.33757206157000E-03 
1.16865288043000E-03 1.01874870664000E-03 8.86026454289000E-04 7.68792137313000E-04 
6.65484381083000E-04 5.74668395302000E-04 4.95029138312000E-04 4.25364615561000E-04 
3.64579204613000E-04 3.11677028604000E-04 2.65755422292000E-04 2.25998529928000E-04 
1.91671069322000E-04 1.62112291678000E-04 1.36730162152000E-04 1.14995781619000E-04 
9.64380658788000E-05 8.06386945558000E-05 6.72273381671000E-05 5.58771684260000E-05 
4.63006536629000E-05 3.82456384114000E-05 3.14917036654000E-05 2.58468020847000E-05 
2.11441605018000E-05 1.72394404520000E-05 1.40081461106000E-05 1.13432679440000E-05 
9.15314957054000E-06 7.35956474541000E-06 5.89599102519000E-06 4.70606650592000E-06 
3.74221604339000E-06 2.96443353566000E-06 2.33920715375000E-06 1.83857482686000E-06 
1.43929780234000E-06 1.12214069048000E-06 8.71247050507000E-07 6.73600261276000E-07 
5.18560132929000E-07 3.97466439753000E-07 3.03301278762000E-07 2.30402871797000E-07 
1.74224122794000E-07 1.31129909051000E-07 9.82277198403000E-08 7.32268534333000E-08 
5.43219412459000E-08 4.00970835391000E-08 2.94473540188000E-08 2.15148606148000E-08 
1.56369371648000E-08 1.13043933078000E-08 8.12804408696000E-09 5.81203561147000E-09 
4.13269577596000E-09 2.92186654120000E-09 2.05384253831000E-09 1.43519520597000E-09 
9.96892004019000E-10 6.88229821477000E-10 4.72193477023000E-10 3.21926556772000E-10 
2.18064879078000E-10 1.46734551740000E-10 9.80586262995000E-11 6.50502917794000E-11 
4.27977272242000E-11 2.78673034638000E-11 1.78687660639000E-11 1.11391466075000E-11 
6.51206709018000E-12 3.14626196678000E-12 3.91755464359000E-13 0.00000000000000E+00 
0.00000000000000E+00 0.00000000000000E+00 0.00000000000000E+00 0.00000000000000E+00 
0.00000000000000E+00 0.00000000000000E+00 0.00000000000000E+00 0.00000000000000E+00 
0.00000000000000E+00 0.00000000000000E+00 0.00000000000000E+00 0.00000000000000E+00 
0.00000000000000E+00 0.00000000000000E+00 0.00000000000000E+00 0.00000000000000E+00 
0.00000000000000E+00 0.00000000000000E+00 0.00000000000000E+00 0.00000000000000E+00 
0.00000000000000E+00 0.00000000000000E+00 0.00000000000000E+00 0.00000000000000E+00 
0.00000000000000E+00 0.00000000000000E+00 0.00000000000000E+00 0.00000000000000E+00 
0.00000000000000E+00 0.00000000000000E+00 0.00000000000000E+00 0.00000000000000E+00 
0.00000000000000E+00 0.00000000000000E+00 0.00000000000000E+00 0.00000000000000E+00 
0.00000000000000E+00 0.00000000000000E+00 0.00000000000000E+00 0.00000000000000E+00 
0.00000000000000E+00 0.00000000000000E+00 0.00000000000000E+00 0.00000000000000E+00 
0.00000000000000E+00 0.00000000000000E+00 0.00000000000000E+00 0.00000000000000E+00 
0.00000000000000E+00 0.00000000000000E+00 0.00000000000000E+00 0.00000000000000E+00 
0.00000000000000E+00 0.00000000000000E+00 0.00000000000000E+00 0.00000000000000E+00 
0.00000000000000E+00 0.00000000000000E+00 0.00000000000000E+00 0.00000000000000E+00 
0.00000000000000E+00 0.00000000000000E+00 0.00000000000000E+00 0.00000000000000E+00 
0.00000000000000E+00 0.00000000000000E+00 0.00000000000000E+00 0.00000000000000E+00 
0.00000000000000E+00 
</PP_CHI.2>
  </PP_PSWFC>
  <PP_RHOATOM>
0.00000000000000E+00 3.98608684503000E-12 1.62134392308000E-11 3.70976305344000E-11 
6.70706096452000E-11 1.06581294494000E-10 1.56096186348000E-10 2.16100005582000E-10 
2.87096349672000E-10 3.69608374169000E-10 4.64179497445000E-10 5.71374130029000E-10 
6.91778429382000E-10 8.26001080982000E-10 9.74674106613000E-10 1.13845370082000E-09 
1.31802109646000E-09 1.51408346038000E-09 1.72737482026000E-09 1.95865702362000E-09 
2.20872073022000E-09 2.47838643886000E-09 2.76850554990000E-09 3.07996146459000E-09 
3.41367072255000E-09 3.77058417872000E-09 4.15168822108000E-09 4.55800603056000E-09 
4.99059888463000E-09 5.45056750595000E-09 5.93905345774000E-09 6.45724058747000E-09 
7.00635652038000E-09 7.58767420474000E-09 8.20251351045000E-09 8.85224288289000E-09 
9.53828105392000E-09 1.02620988119000E-08 1.10252208329000E-08 1.18292275750000E-08 
1.26757572380000E-08 1.35665077907000E-08 1.45032390681000E-08 1.54877749406000E-08 
1.65220055586000E-08 1.76078896739000E-08 1.87474570409000E-08 1.99428109008000E-08 
2.11961305518000E-08 2.25096740061000E-08 2.38857807404000E-08 2.53268745394000E-08 
2.68354664379000E-08 2.84141577637000E-08 3.00656432849000E-08 3.17927144662000E-08 
3.35982628359000E-08 3.54852834695000E-08 3.74568785922000E-08 3.95162613056000E-08 
4.16667594420000E-08 4.39118195512000E-08 4.62550110236000E-08 4.87000303555000E-08 
5.12507055598000E-08 5.39110007288000E-08 5.66850207525000E-08 5.95770161994000E-08 
6.25913883642000E-08 6.57326944884000E-08 6.90056531598000E-08 7.24151498970000E-08 
7.59662429250000E-08 7.96641691487000E-08 8.35143503306000E-08 8.75223994802000E-08 
9.16941274622000E-08 9.60355498302000E-08 1.00552893895000E-07 1.05252606032000E-07 
1.10141359246000E-07 1.15226060983000E-07 1.20513861220000E-07 1.26012160824000E-07 
1.31728620200000E-07 1.37671168237000E-07 1.43848011553000E-07 1.50267644059000E-07 
1.56938856855000E-07 1.63870748455000E-07 1.71072735365000E-07 1.78554563028000E-07 
1.86326317129000E-07 1.94398435304000E-07 2.02781719229000E-07 2.11487347140000E-07 
2.20526886766000E-07 2.29912308712000E-07 2.39656000295000E-07 2.49770779854000E-07 
2.60269911541000E-07 2.71167120633000E-07 2.82476609345000E-07 2.94213073198000E-07 
3.06391717940000E-07 3.19028277041000E-07 3.32139029792000E-07 3.45740820009000E-07 
3.59851075389000E-07 3.74487827511000E-07 3.89669732533000E-07 4.05416092582000E-07 
4.21746877879000E-07 4.38682749619000E-07 4.56245083622000E-07 4.74455994805000E-07 
4.93338362468000E-07 5.12915856458000E-07 5.33212964214000E-07 5.54255018739000E-07 
5.76068227519000E-07 5.98679702429000E-07 6.22117490659000E-07 6.46410606690000E-07 
6.71589065359000E-07 6.97683916051000E-07 7.24727278051000E-07 7.52752377105000E-07 
7.81793583218000E-07 8.11886449745000E-07 8.43067753805000E-07 8.75375538078000E-07 
9.08849154017000E-07 9.43529306531000E-07 9.79458100194000E-07 1.01667908702000E-06 
1.05523731585000E-06 1.09517938347000E-06 1.13655348738000E-06 1.17940948045000E-06 
1.22379892737000E-06 1.26977516305000E-06 1.31739335297000E-06 1.36671055567000E-06 
1.41778578723000E-06 1.47068008807000E-06 1.52545659194000E-06 1.58218059728000E-06 
1.64091964102000E-06 1.70174357486000E-06 1.76472464417000E-06 1.82993756952000E-06 
1.89745963110000E-06 1.96737075583000E-06 2.03975360759000E-06 2.11469368044000E-06 
2.19227939499000E-06 2.27260219814000E-06 2.35575666606000E-06 2.44184061081000E-06 
2.53095519049000E-06 2.62320502319000E-06 2.71869830477000E-06 2.81754693065000E-06 
2.91986662173000E-06 3.02577705464000E-06 3.13540199634000E-06 3.24886944330000E-06 
3.36631176550000E-06 3.48786585514000E-06 3.61367328063000E-06 3.74388044559000E-06 
3.87863875337000E-06 4.01810477717000E-06 4.16244043583000E-06 4.31181317570000E-06 
4.46639615863000E-06 4.62636845631000E-06 4.79191525132000E-06 4.96322804484000E-06 
5.14050487158000E-06 5.32395052186000E-06 5.51377677133000E-06 5.71020261844000E-06 
5.91345452997000E-06 6.12376669491000E-06 6.34138128691000E-06 6.56654873573000E-06 
6.79952800778000E-06 7.04058689627000E-06 7.29000232119000E-06 7.54806063941000E-06 
7.81505796535000E-06 8.09130050258000E-06 8.37710488651000E-06 8.67279853889000E-06 
8.97872003422000E-06 9.29521947861000E-06 9.62265890151000E-06 9.96141266072000E-06 
1.03118678611000E-05 1.06744247876000E-05 1.10494973528000E-05 1.14375135597000E-05 
1.18389159803000E-05 1.22541622504000E-05 1.26837255808000E-05 1.31280952864000E-05 
1.35877773330000E-05 1.40632949025000E-05 1.45551889774000E-05 1.50640189450000E-05 
1.55903632225000E-05 1.61348199026000E-05 1.66980074215000E-05 1.72805652494000E-05 
1.78831546043000E-05 1.85064591903000E-05 1.91511859605000E-05 1.98180659061000E-05 
2.05078548719000E-05 2.12213343997000E-05 2.19593126006000E-05 2.27226250557000E-05 
2.35121357489000E-05 2.43287380297000E-05 2.51733556101000E-05 2.60469435941000E-05 
2.69504895426000E-05 2.78850145745000E-05 2.88515745047000E-05 2.98512610209000E-05 
3.08852029001000E-05 3.19545672665000E-05 3.30605608917000E-05 3.42044315393000E-05 
3.53874693545000E-05 3.66110083014000E-05 3.78764276480000E-05 3.91851535028000E-05 
4.05386604019000E-05 4.19384729513000E-05 4.33861675232000E-05 4.48833740112000E-05 
4.64317776438000E-05 4.80331208598000E-05 4.96892052467000E-05 5.14018935455000E-05 
5.31731117220000E-05 5.50048511094000E-05 5.68991706225000E-05 5.88581990472000E-05 
6.08841374072000E-05 6.29792614105000E-05 6.51459239793000E-05 6.73865578643000E-05 
6.97036783485000E-05 7.20998860412000E-05 7.45778697672000E-05 7.71404095532000E-05 
7.97903797152000E-05 8.25307520500000E-05 8.53645991344000E-05 8.82950977359000E-05 
9.13255323384000E-05 9.44592987870000E-05 9.76999080553000E-05 1.01050990140000E-04 
1.04516298088000E-04 1.08099712157000E-04 1.11805244117000E-04 1.15637041698000E-04 
1.19599393188000E-04 1.23696732183000E-04 1.27933642498000E-04 1.32314863247000E-04 
1.36845294087000E-04 1.41530000647000E-04 1.46374220129000E-04 1.51383367110000E-04 
1.56563039528000E-04 1.61919024875000E-04 1.67457306599000E-04 1.73184070715000E-04 
1.79105712643000E-04 1.85228844278000E-04 1.91560301290000E-04 1.98107150671000E-04 
2.04876698544000E-04 2.11876498218000E-04 2.19114358526000E-04 2.26598352437000E-04 
2.34336825957000E-04 2.42338407328000E-04 2.50612016533000E-04 2.59166875121000E-04 
2.68012516363000E-04 2.77158795739000E-04 2.86615901781000E-04 2.96394367281000E-04 
3.06505080863000E-04 3.16959298951000E-04 3.27768658127000E-04 3.38945187907000E-04 
3.50501323938000E-04 3.62449921634000E-04 3.74804270271000E-04 3.87578107537000E-04 
4.00785634581000E-04 4.14441531545000E-04 4.28560973625000E-04 4.43159647650000E-04 
4.58253769221000E-04 4.73860100408000E-04 4.89995968035000E-04 5.06679282568000E-04 
5.23928557623000E-04 5.41762930119000E-04 5.60202181090000E-04 5.79266757185000E-04 
5.98977792870000E-04 6.19357133357000E-04 6.40427358289000E-04 6.62211806188000E-04 
6.84734599716000E-04 7.08020671747000E-04 7.32095792292000E-04 7.56986596301000E-04 
7.82720612368000E-04 8.09326292360000E-04 8.36833042012000E-04 8.65271252507000E-04 
8.94672333074000E-04 9.25068744633000E-04 9.56494034528000E-04 9.88982872368000E-04 
1.02257108701000E-03 1.05729570475000E-03 1.09319498866000E-03 1.13030847930000E-03 
1.16867703657000E-03 1.20834288301000E-03 1.24934964841000E-03 1.29174241581000E-03 
1.33556776899000E-03 1.38087384142000E-03 1.42771036671000E-03 1.47612873071000E-03 
1.52618202510000E-03 1.57792510277000E-03 1.63141463481000E-03 1.68670916931000E-03 
1.74386919187000E-03 1.80295718808000E-03 1.86403770774000E-03 1.92717743117000E-03 
1.99244523739000E-03 2.05991227443000E-03 2.12965203161000E-03 2.20174041414000E-03 
2.27625581971000E-03 2.35327921747000E-03 2.43289422925000E-03 2.51518721313000E-03 
2.60024734939000E-03 2.68816672894000E-03 2.77904044427000E-03 2.87296668285000E-03 
2.97004682328000E-03 3.07038553398000E-03 3.17409087461000E-03 3.28127440028000E-03 
3.39205126851000E-03 3.50654034902000E-03 3.62486433647000E-03 3.74714986607000E-03 
3.87352763215000E-03 4.00413250977000E-03 4.13910367932000E-03 4.27858475421000E-03 
4.42272391163000E-03 4.57167402644000E-03 4.72559280814000E-03 4.88464294101000E-03 
5.04899222739000E-03 5.21881373409000E-03 5.39428594190000E-03 5.57559289826000E-03 
5.76292437296000E-03 5.95647601698000E-03 6.15644952420000E-03 6.36305279618000E-03 
6.57650010975000E-03 6.79701228744000E-03 7.02481687056000E-03 7.26014829489000E-03 
7.50324806884000E-03 7.75436495387000E-03 8.01375514714000E-03 8.28168246597000E-03 
8.55841853414000E-03 8.84424296969000E-03 9.13944357383000E-03 9.44431652094000E-03 
9.75916654905000E-03 1.00843071506000E-02 1.04200607633000E-02 1.07667589596000E-02 
1.11247426362000E-02 1.14943622014000E-02 1.18759777599000E-02 1.22699592957000E-02 
1.26766868506000E-02 1.30965506997000E-02 1.35299515202000E-02 1.39773005565000E-02 
1.44390197761000E-02 1.49155420198000E-02 1.54073111419000E-02 1.59147821404000E-02 
1.64384212758000E-02 1.69787061777000E-02 1.75361259366000E-02 1.81111811801000E-02 
1.87043841317000E-02 1.93162586500000E-02 1.99473402471000E-02 2.05981760828000E-02 
2.12693249342000E-02 2.19613571365000E-02 2.26748544931000E-02 2.34104101532000E-02 
2.41686284524000E-02 2.49501247140000E-02 2.57555250078000E-02 2.65854658626000E-02 
2.74405939288000E-02 2.83215655868000E-02 2.92290464974000E-02 3.01637110896000E-02 
3.11262419807000E-02 3.21173293240000E-02 3.31376700792000E-02 3.41879671988000E-02 
3.52689287253000E-02 3.63812667935000E-02 3.75256965298000E-02 3.87029348432000E-02 
3.99136990997000E-02 4.11587056728000E-02 4.24386683626000E-02 4.37542966742000E-02 
4.51062939480000E-02 4.64953553312000E-02 4.79221655832000E-02 4.93873967026000E-02 
5.08917053687000E-02 5.24357301835000E-02 5.40200887067000E-02 5.56453742708000E-02 
5.73121525650000E-02 5.90209579773000E-02 6.07722896814000E-02 6.25666074579000E-02 
6.44043272376000E-02 6.62858163530000E-02 6.82113884885000E-02 7.01812983151000E-02 
7.21957357993000E-02 7.42548201743000E-02 7.63585935618000E-02 7.85070142352000E-02 
8.06999495141000E-02 8.29371682810000E-02 8.52183331138000E-02 8.75429920265000E-02 
8.99105698148000E-02 9.23203590043000E-02 9.47715103992000E-02 9.72630232360000E-02 
9.97937349460000E-02 1.02362310535000E-01 1.04967231596000E-01 1.07606784963000E-01 
1.10279051042000E-01 1.12981891825000E-01 1.15712938650000E-01 1.18469579708000E-01 
1.21248947382000E-01 1.24047905448000E-01 1.26863036210000E-01 1.29690627642000E-01 
1.32526660620000E-01 1.35366796348000E-01 1.38206364063000E-01 1.41040349163000E-01 
1.43863381884000E-01 1.46669726669000E-01 1.49453272398000E-01 1.52207523666000E-01 
1.54925593296000E-01 1.57600196307000E-01 1.60223645576000E-01 1.62787849435000E-01 
1.65284311475000E-01 1.67704132861000E-01 1.70038017429000E-01 1.72276279925000E-01 
1.74408857688000E-01 1.76425326157000E-01 1.78314918533000E-01 1.80066549988000E-01 
1.81668846780000E-01 1.83110180645000E-01 1.84378708840000E-01 1.85462420183000E-01 
1.86349187428000E-01 1.87026826281000E-01 1.87483161335000E-01 1.87706099146000E-01 
1.87683708632000E-01 1.87404308890000E-01 1.86856564483000E-01 1.86029588129000E-01 
1.84913050648000E-01 1.83497297919000E-01 1.81773474474000E-01 1.79733653269000E-01 
1.77370971012000E-01 1.74679768378000E-01 1.71655734289000E-01 1.68296053394000E-01 
1.64599555815000E-01 1.60566868216000E-01 1.56200565296000E-01 1.51505320887000E-01 
1.46488058037000E-01 1.41158097679000E-01 1.35527305878000E-01 1.29610240049000E-01 
1.23424295122000E-01 1.16989851209000E-01 1.10330425045000E-01 1.03472828077000E-01 
9.64473347200000E-02 8.92878646389000E-02 8.20321829408000E-02 7.47221216080000E-02 
6.74038240597000E-02 6.01280120878000E-02 5.29502701296000E-02 4.59313354377000E-02 
3.91373736774000E-02 3.26402073447000E-02 2.65174488025000E-02 2.08524706363000E-02 
1.57341239865000E-02 1.12560920809000E-02 7.51574463106000E-03 4.61234498238000E-03 
2.64446597207000E-03 1.70650864231000E-03 1.88431585636000E-03 3.25006972331000E-03 
5.85701665593000E-03 9.73516458273000E-03 1.48900719140000E-02 2.13083839659000E-02 
2.89760663029000E-02 3.79021625383000E-02 4.81040058279000E-02 5.95940167430000E-02 
7.23792391859000E-02 8.64611942902000E-02 1.01835762869000E-01 1.18493098326000E-01 
1.36417569816000E-01 1.55587738080000E-01 1.75976362861000E-01 1.97550445556000E-01 
2.20271305320000E-01 2.44094694343000E-01 2.68970949925000E-01 2.94845191714000E-01 
3.21657560505000E-01 3.49343508846000E-01 3.77834135829000E-01 4.07056574162000E-01 
4.36934410783000E-01 4.67388137772000E-01 4.98335592361000E-01 5.29692361282000E-01 
5.61372081568000E-01 5.93286601357000E-01 6.25345938360000E-01 6.57458046059000E-01 
6.89528407548000E-01 7.21459582754000E-01 7.53150835383000E-01 7.84498024281000E-01 
8.15393852271000E-01 8.45728533608000E-01 8.75390793985000E-01 9.04269098660000E-01 
9.32252928463000E-01 9.59233997787000E-01 9.85107308471000E-01 1.00977202855000E+00 
1.03313215620000E+00 1.05509727383000E+00 1.07558279215000E+00 1.09451043051000E+00 
1.11180856280000E+00 1.12741253083000E+00 1.14126493249000E+00 1.15331588662000E+00 
1.16352327324000E+00 1.17185294438000E+00 1.17827890153000E+00 1.18278343300000E+00 
1.18535720772000E+00 1.18599931913000E+00 1.18471727785000E+00 1.18152694796000E+00 
1.17645242829000E+00 1.16952587510000E+00 1.16078727010000E+00 1.15028413161000E+00 
1.13807117527000E+00 1.12420992320000E+00 1.10876826974000E+00 1.09182000374000E+00 
1.07344429682000E+00 1.05372515802000E+00 1.03275086509000E+00 1.01061337339000E+00 
9.87407712485000E-01 9.63231371929000E-01 9.38183685888000E-01 9.12365218065000E-01 
8.85877155932000E-01 8.58820715583000E-01 8.31296565119000E-01 8.03404267627000E-01 
7.75241750355000E-01 7.46904800779000E-01 7.18486594684000E-01 6.90077256635000E-01 
6.61763456390000E-01 6.33628041313000E-01 6.05749706973000E-01 5.78202705752000E-01 
5.51056594462000E-01 5.24376020797000E-01 4.98220548719000E-01 4.72644522785000E-01 
4.47696970938000E-01 4.23421546049000E-01 3.99856505329000E-01 3.77034728131000E-01 
3.54983770829000E-01 3.33725959236000E-01 3.13278516604000E-01 2.93653727164000E-01 
2.74859132301000E-01 2.56897758380000E-01 2.39768372181000E-01 2.23465761819000E-01 
2.07981038004000E-01 1.93301952532000E-01 1.79413228144000E-01 1.66296896064000E-01 
1.53932635260000E-01 1.42298109735000E-01 1.31369298423000E-01 1.21120814562000E-01 
1.11526210127000E-01 1.02558263152000E-01 9.41892448031000E-02 8.63911651214000E-02 
7.91359956241000E-02 7.23958687256000E-02 6.61432533357000E-02 6.03511074517000E-02 
5.49930080270000E-02 5.00432595331000E-02 4.54769821411000E-02 4.12701812895000E-02 
3.73997999411000E-02 3.38437554303000E-02 3.05809623630000E-02 2.75913434359000E-02 
2.48558296370000E-02 2.23563515416000E-02 2.00758230551000E-02 1.79981190922000E-02 
1.61080483618000E-02 1.43913224881000E-02 1.28345224139000E-02 1.14250630461000E-02 
1.01511568551000E-02 9.00177712212000E-03 7.96662132150000E-03 7.03607509048000E-03 
6.20117707343000E-03 5.45358488942000E-03 4.78554234879000E-03 4.18984801256000E-03 
3.65982510373000E-03 3.18929276122000E-03 2.77253857534000E-03 2.40429234004000E-03 
2.07970093155000E-03 1.79430423143000E-03 1.54401200514000E-03 1.32508166264000E-03 
1.13409683242000E-03 9.67946697554000E-04 8.23806052469000E-04 6.99116054883000E-04 
5.91565657285000E-04 4.99073714565000E-04 4.19771771420000E-04 3.51987540592000E-04 
2.94229086246000E-04 2.45169729437000E-04 2.03633692190000E-04 1.68582495486000E-04 
1.39102123183000E-04 1.14390959989000E-04 9.37485066433000E-05 7.65648701946000E-05 
6.23110216684000E-05 5.05298079603000E-05 4.08276994756000E-05 3.28672502154000E-05 
2.63602426529000E-05 2.10614860645000E-05 1.67632339442000E-05 1.32901838278000E-05 
1.04950212321000E-05 8.25446848924000E-06 6.46579894827000E-06 5.04377729992000E-06 
3.91798756012000E-06 3.03051147427000E-06 2.33392168476000E-06 1.78955587398000E-06 
1.36604017722000E-06 1.03803238790000E-06 7.85157789791000E-07 5.91112757759000E-07 
4.42913478293000E-07 3.30270675953000E-07 2.45070164674000E-07 1.80944866058000E-07 
1.32923843739000E-07 9.71460251855000E-08 7.06279679116000E-08 5.10765099015000E-08 
3.67384741773000E-08 2.62807798972000E-08 1.86953544024000E-08 1.32241511732000E-08 
9.30036773709000E-09 6.50263587971000E-09 4.51953497227000E-09 3.12226867723000E-09 
2.14375622916000E-09 1.46273185414000E-09 9.91728958393000E-10 6.68057979877000E-10 
4.47075931300000E-10 2.97198512341000E-10 1.96228259534000E-10 1.28669777833000E-10 
8.37801714452000E-11 5.41632049512000E-11 3.47627157253000E-11 2.21470645633000E-11 
1.40041821225000E-11 8.78786674004000E-12 5.47189035831000E-12 3.38035750591000E-12 
2.07157821336000E-12 1.25919975092000E-12 7.59071432389000E-13 4.53737315972000E-13 
2.68904613102000E-13 1.57979571360000E-13 9.19916659061000E-14 5.30854833902000E-14 
3.03540449950000E-14 1.71950530657000E-14 9.64868495506000E-15 5.36217206933000E-15 
2.95087330380000E-15 1.60777611002000E-15 8.67146659610000E-16 4.62889227757000E-16 
2.44513804150000E-16 1.27789308190000E-16 6.60651007484000E-17 3.37797579842000E-17 
1.70791743944000E-17 8.53730409348000E-18 4.21826917655000E-18 2.05978528137000E-18 
9.93793668711000E-19 4.73660287664000E-19 2.22966679975000E-19 1.03636708063000E-19 
4.75522915368000E-20 2.15310286969000E-20 9.61549420176000E-21 4.23154046499000E-21 
1.83164545746000E-21 7.76586603153000E-22 3.19292800979000E-22 1.24080587272000E-22 
4.24070178312000E-23 9.89896437389000E-24 1.53472344015000E-25 0.00000000000000E+00 
0.00000000000000E+00 0.00000000000000E+00 0.00000000000000E+00 0.00000000000000E+00 
0.00000000000000E+00 0.00000000000000E+00 0.00000000000000E+00 0.00000000000000E+00 
0.00000000000000E+00 0.00000000000000E+00 0.00000000000000E+00 0.00000000000000E+00 
0.00000000000000E+00 0.00000000000000E+00 0.00000000000000E+00 0.00000000000000E+00 
0.00000000000000E+00 0.00000000000000E+00 0.00000000000000E+00 0.00000000000000E+00 
0.00000000000000E+00 0.00000000000000E+00 0.00000000000000E+00 0.00000000000000E+00 
0.00000000000000E+00 0.00000000000000E+00 0.00000000000000E+00 0.00000000000000E+00 
0.00000000000000E+00 0.00000000000000E+00 0.00000000000000E+00 0.00000000000000E+00 
0.00000000000000E+00 0.00000000000000E+00 0.00000000000000E+00 0.00000000000000E+00 
0.00000000000000E+00 0.00000000000000E+00 0.00000000000000E+00 0.00000000000000E+00 
0.00000000000000E+00 0.00000000000000E+00 0.00000000000000E+00 0.00000000000000E+00 
0.00000000000000E+00 0.00000000000000E+00 0.00000000000000E+00 0.00000000000000E+00 
0.00000000000000E+00 0.00000000000000E+00 0.00000000000000E+00 0.00000000000000E+00 
0.00000000000000E+00 0.00000000000000E+00 0.00000000000000E+00 0.00000000000000E+00 
0.00000000000000E+00 0.00000000000000E+00 0.00000000000000E+00 0.00000000000000E+00 
0.00000000000000E+00 0.00000000000000E+00 0.00000000000000E+00 0.00000000000000E+00 
0.00000000000000E+00 0.00000000000000E+00 0.00000000000000E+00 0.00000000000000E+00 
0.00000000000000E+00 
</PP_RHOATOM>
</UPF>
