Begin PSP_UPF
<UPF version="2.0.1">
  <PP_INFO>

 This pseudopotential file has been produced using the code
 ONCVPSP  (Optimized Norm-Conservinng Vanderbilt PSeudopotential)
 scalar-relativistic version 4.0.1 06/04/2019 by D. R. Hamann
 The code is available through a link at URL www.mat-simresearch.com.
 Documentation with the package provides a full discription of the
 input data below.


 While it is not required under the terms of the GNU GPL, it is
 suggested that you cite D. R. Hamann, Phys. Rev. B 88, 085117 (2013)
 in any publication using these pseudopotentials.

    <PP_INPUTFILE>
# ATOM AND REFERENCE CONFIGURATION
# atsym  z   nc   nv     iexc    psfile
  He  2.00    0    1 -116133      upf
#
#   n    l    f        energy (Ha)
    1    0    2.00
#
# PSEUDOPOTENTIAL AND OPTIMIZATION
# lmax
    1
#
#   l,   rc,      ep,       ncon, nbas, qcut
    0   1.25000  -0.57931    4    8   9.40000
    1   1.13000   0.05000    4    7   9.40000
#
# LOCAL POTENTIAL
# lloc, lpopt,  rc(5),   dvloc0
    4    5   1.00000      0.00000
#
# VANDERBILT-KLEINMAN-BYLANDER PROJECTORs
# l, nproj, debl
    0    2   1.00000
    1    1   1.00000
#
# MODEL CORE CHARGE
# icmod, fcfact, rcfact
    0   0.00000   0.00000
#
# LOG DERIVATIVE ANALYSIS
# epsh1, epsh2, depsh
  -12.00   12.00    0.02
#
# OUTPUT GRID
# rlmax, drl
    6.00    0.01
#
# TEST CONFIGURATIONS
# ncnf
    0
# nvcnf
#   n    l    f
    </PP_INPUTFILE>
  </PP_INFO>
  <!--                               -->
  <!-- END OF HUMAN READABLE SECTION -->
  <!--                               -->
    <PP_HEADER
       generated="Generated using ONCVPSP code by D. R. Hamann"
       author="anonymous"
       date="251022"
       comment=""
       element="He"
       pseudo_type="NC"
       relativistic="scalar"
       is_ultrasoft="F"
       is_paw="F"
       is_coulomb="F"
       has_so="F"
       has_wfc="F"
       has_gipaw="F"
       core_correction="F"
       functional="PBESOL"
       z_valence="    2.00"
       total_psenergy="  -5.65304072964E+00"
       rho_cutoff="   7.31000000000E+00"
       l_max="1"
       l_local="-1"
       mesh_size="   732"
       number_of_wfc="1"
       number_of_proj="3"/>
 <PP_MESH>
   <PP_R type="real"  size=" 732" columns="8">
    0.0000    0.0100    0.0200    0.0300    0.0400    0.0500    0.0600    0.0700
    0.0800    0.0900    0.1000    0.1100    0.1200    0.1300    0.1400    0.1500
    0.1600    0.1700    0.1800    0.1900    0.2000    0.2100    0.2200    0.2300
    0.2400    0.2500    0.2600    0.2700    0.2800    0.2900    0.3000    0.3100
    0.3200    0.3300    0.3400    0.3500    0.3600    0.3700    0.3800    0.3900
    0.4000    0.4100    0.4200    0.4300    0.4400    0.4500    0.4600    0.4700
    0.4800    0.4900    0.5000    0.5100    0.5200    0.5300    0.5400    0.5500
    0.5600    0.5700    0.5800    0.5900    0.6000    0.6100    0.6200    0.6300
    0.6400    0.6500    0.6600    0.6700    0.6800    0.6900    0.7000    0.7100
    0.7200    0.7300    0.7400    0.7500    0.7600    0.7700    0.7800    0.7900
    0.8000    0.8100    0.8200    0.8300    0.8400    0.8500    0.8600    0.8700
    0.8800    0.8900    0.9000    0.9100    0.9200    0.9300    0.9400    0.9500
    0.9600    0.9700    0.9800    0.9900    1.0000    1.0100    1.0200    1.0300
    1.0400    1.0500    1.0600    1.0700    1.0800    1.0900    1.1000    1.1100
    1.1200    1.1300    1.1400    1.1500    1.1600    1.1700    1.1800    1.1900
    1.2000    1.2100    1.2200    1.2300    1.2400    1.2500    1.2600    1.2700
    1.2800    1.2900    1.3000    1.3100    1.3200    1.3300    1.3400    1.3500
    1.3600    1.3700    1.3800    1.3900    1.4000    1.4100    1.4200    1.4300
    1.4400    1.4500    1.4600    1.4700    1.4800    1.4900    1.5000    1.5100
    1.5200    1.5300    1.5400    1.5500    1.5600    1.5700    1.5800    1.5900
    1.6000    1.6100    1.6200    1.6300    1.6400    1.6500    1.6600    1.6700
    1.6800    1.6900    1.7000    1.7100    1.7200    1.7300    1.7400    1.7500
    1.7600    1.7700    1.7800    1.7900    1.8000    1.8100    1.8200    1.8300
    1.8400    1.8500    1.8600    1.8700    1.8800    1.8900    1.9000    1.9100
    1.9200    1.9300    1.9400    1.9500    1.9600    1.9700    1.9800    1.9900
    2.0000    2.0100    2.0200    2.0300    2.0400    2.0500    2.0600    2.0700
    2.0800    2.0900    2.1000    2.1100    2.1200    2.1300    2.1400    2.1500
    2.1600    2.1700    2.1800    2.1900    2.2000    2.2100    2.2200    2.2300
    2.2400    2.2500    2.2600    2.2700    2.2800    2.2900    2.3000    2.3100
    2.3200    2.3300    2.3400    2.3500    2.3600    2.3700    2.3800    2.3900
    2.4000    2.4100    2.4200    2.4300    2.4400    2.4500    2.4600    2.4700
    2.4800    2.4900    2.5000    2.5100    2.5200    2.5300    2.5400    2.5500
    2.5600    2.5700    2.5800    2.5900    2.6000    2.6100    2.6200    2.6300
    2.6400    2.6500    2.6600    2.6700    2.6800    2.6900    2.7000    2.7100
    2.7200    2.7300    2.7400    2.7500    2.7600    2.7700    2.7800    2.7900
    2.8000    2.8100    2.8200    2.8300    2.8400    2.8500    2.8600    2.8700
    2.8800    2.8900    2.9000    2.9100    2.9200    2.9300    2.9400    2.9500
    2.9600    2.9700    2.9800    2.9900    3.0000    3.0100    3.0200    3.0300
    3.0400    3.0500    3.0600    3.0700    3.0800    3.0900    3.1000    3.1100
    3.1200    3.1300    3.1400    3.1500    3.1600    3.1700    3.1800    3.1900
    3.2000    3.2100    3.2200    3.2300    3.2400    3.2500    3.2600    3.2700
    3.2800    3.2900    3.3000    3.3100    3.3200    3.3300    3.3400    3.3500
    3.3600    3.3700    3.3800    3.3900    3.4000    3.4100    3.4200    3.4300
    3.4400    3.4500    3.4600    3.4700    3.4800    3.4900    3.5000    3.5100
    3.5200    3.5300    3.5400    3.5500    3.5600    3.5700    3.5800    3.5900
    3.6000    3.6100    3.6200    3.6300    3.6400    3.6500    3.6600    3.6700
    3.6800    3.6900    3.7000    3.7100    3.7200    3.7300    3.7400    3.7500
    3.7600    3.7700    3.7800    3.7900    3.8000    3.8100    3.8200    3.8300
    3.8400    3.8500    3.8600    3.8700    3.8800    3.8900    3.9000    3.9100
    3.9200    3.9300    3.9400    3.9500    3.9600    3.9700    3.9800    3.9900
    4.0000    4.0100    4.0200    4.0300    4.0400    4.0500    4.0600    4.0700
    4.0800    4.0900    4.1000    4.1100    4.1200    4.1300    4.1400    4.1500
    4.1600    4.1700    4.1800    4.1900    4.2000    4.2100    4.2200    4.2300
    4.2400    4.2500    4.2600    4.2700    4.2800    4.2900    4.3000    4.3100
    4.3200    4.3300    4.3400    4.3500    4.3600    4.3700    4.3800    4.3900
    4.4000    4.4100    4.4200    4.4300    4.4400    4.4500    4.4600    4.4700
    4.4800    4.4900    4.5000    4.5100    4.5200    4.5300    4.5400    4.5500
    4.5600    4.5700    4.5800    4.5900    4.6000    4.6100    4.6200    4.6300
    4.6400    4.6500    4.6600    4.6700    4.6800    4.6900    4.7000    4.7100
    4.7200    4.7300    4.7400    4.7500    4.7600    4.7700    4.7800    4.7900
    4.8000    4.8100    4.8200    4.8300    4.8400    4.8500    4.8600    4.8700
    4.8800    4.8900    4.9000    4.9100    4.9200    4.9300    4.9400    4.9500
    4.9600    4.9700    4.9800    4.9900    5.0000    5.0100    5.0200    5.0300
    5.0400    5.0500    5.0600    5.0700    5.0800    5.0900    5.1000    5.1100
    5.1200    5.1300    5.1400    5.1500    5.1600    5.1700    5.1800    5.1900
    5.2000    5.2100    5.2200    5.2300    5.2400    5.2500    5.2600    5.2700
    5.2800    5.2900    5.3000    5.3100    5.3200    5.3300    5.3400    5.3500
    5.3600    5.3700    5.3800    5.3900    5.4000    5.4100    5.4200    5.4300
    5.4400    5.4500    5.4600    5.4700    5.4800    5.4900    5.5000    5.5100
    5.5200    5.5300    5.5400    5.5500    5.5600    5.5700    5.5800    5.5900
    5.6000    5.6100    5.6200    5.6300    5.6400    5.6500    5.6600    5.6700
    5.6800    5.6900    5.7000    5.7100    5.7200    5.7300    5.7400    5.7500
    5.7600    5.7700    5.7800    5.7900    5.8000    5.8100    5.8200    5.8300
    5.8400    5.8500    5.8600    5.8700    5.8800    5.8900    5.9000    5.9100
    5.9200    5.9300    5.9400    5.9500    5.9600    5.9700    5.9800    5.9900
    6.0000    6.0100    6.0200    6.0300    6.0400    6.0500    6.0600    6.0700
    6.0800    6.0900    6.1000    6.1100    6.1200    6.1300    6.1400    6.1500
    6.1600    6.1700    6.1800    6.1900    6.2000    6.2100    6.2200    6.2300
    6.2400    6.2500    6.2600    6.2700    6.2800    6.2900    6.3000    6.3100
    6.3200    6.3300    6.3400    6.3500    6.3600    6.3700    6.3800    6.3900
    6.4000    6.4100    6.4200    6.4300    6.4400    6.4500    6.4600    6.4700
    6.4800    6.4900    6.5000    6.5100    6.5200    6.5300    6.5400    6.5500
    6.5600    6.5700    6.5800    6.5900    6.6000    6.6100    6.6200    6.6300
    6.6400    6.6500    6.6600    6.6700    6.6800    6.6900    6.7000    6.7100
    6.7200    6.7300    6.7400    6.7500    6.7600    6.7700    6.7800    6.7900
    6.8000    6.8100    6.8200    6.8300    6.8400    6.8500    6.8600    6.8700
    6.8800    6.8900    6.9000    6.9100    6.9200    6.9300    6.9400    6.9500
    6.9600    6.9700    6.9800    6.9900    7.0000    7.0100    7.0200    7.0300
    7.0400    7.0500    7.0600    7.0700    7.0800    7.0900    7.1000    7.1100
    7.1200    7.1300    7.1400    7.1500    7.1600    7.1700    7.1800    7.1900
    7.2000    7.2100    7.2200    7.2300    7.2400    7.2500    7.2600    7.2700
    7.2800    7.2900    7.3000    7.3100
   </PP_R>
   <PP_RAB type="real"  size=" 732" columns="8">
    0.0100    0.0100    0.0100    0.0100    0.0100    0.0100    0.0100    0.0100
    0.0100    0.0100    0.0100    0.0100    0.0100    0.0100    0.0100    0.0100
    0.0100    0.0100    0.0100    0.0100    0.0100    0.0100    0.0100    0.0100
    0.0100    0.0100    0.0100    0.0100    0.0100    0.0100    0.0100    0.0100
    0.0100    0.0100    0.0100    0.0100    0.0100    0.0100    0.0100    0.0100
    0.0100    0.0100    0.0100    0.0100    0.0100    0.0100    0.0100    0.0100
    0.0100    0.0100    0.0100    0.0100    0.0100    0.0100    0.0100    0.0100
    0.0100    0.0100    0.0100    0.0100    0.0100    0.0100    0.0100    0.0100
    0.0100    0.0100    0.0100    0.0100    0.0100    0.0100    0.0100    0.0100
    0.0100    0.0100    0.0100    0.0100    0.0100    0.0100    0.0100    0.0100
    0.0100    0.0100    0.0100    0.0100    0.0100    0.0100    0.0100    0.0100
    0.0100    0.0100    0.0100    0.0100    0.0100    0.0100    0.0100    0.0100
    0.0100    0.0100    0.0100    0.0100    0.0100    0.0100    0.0100    0.0100
    0.0100    0.0100    0.0100    0.0100    0.0100    0.0100    0.0100    0.0100
    0.0100    0.0100    0.0100    0.0100    0.0100    0.0100    0.0100    0.0100
    0.0100    0.0100    0.0100    0.0100    0.0100    0.0100    0.0100    0.0100
    0.0100    0.0100    0.0100    0.0100    0.0100    0.0100    0.0100    0.0100
    0.0100    0.0100    0.0100    0.0100    0.0100    0.0100    0.0100    0.0100
    0.0100    0.0100    0.0100    0.0100    0.0100    0.0100    0.0100    0.0100
    0.0100    0.0100    0.0100    0.0100    0.0100    0.0100    0.0100    0.0100
    0.0100    0.0100    0.0100    0.0100    0.0100    0.0100    0.0100    0.0100
    0.0100    0.0100    0.0100    0.0100    0.0100    0.0100    0.0100    0.0100
    0.0100    0.0100    0.0100    0.0100    0.0100    0.0100    0.0100    0.0100
    0.0100    0.0100    0.0100    0.0100    0.0100    0.0100    0.0100    0.0100
    0.0100    0.0100    0.0100    0.0100    0.0100    0.0100    0.0100    0.0100
    0.0100    0.0100    0.0100    0.0100    0.0100    0.0100    0.0100    0.0100
    0.0100    0.0100    0.0100    0.0100    0.0100    0.0100    0.0100    0.0100
    0.0100    0.0100    0.0100    0.0100    0.0100    0.0100    0.0100    0.0100
    0.0100    0.0100    0.0100    0.0100    0.0100    0.0100    0.0100    0.0100
    0.0100    0.0100    0.0100    0.0100    0.0100    0.0100    0.0100    0.0100
    0.0100    0.0100    0.0100    0.0100    0.0100    0.0100    0.0100    0.0100
    0.0100    0.0100    0.0100    0.0100    0.0100    0.0100    0.0100    0.0100
    0.0100    0.0100    0.0100    0.0100    0.0100    0.0100    0.0100    0.0100
    0.0100    0.0100    0.0100    0.0100    0.0100    0.0100    0.0100    0.0100
    0.0100    0.0100    0.0100    0.0100    0.0100    0.0100    0.0100    0.0100
    0.0100    0.0100    0.0100    0.0100    0.0100    0.0100    0.0100    0.0100
    0.0100    0.0100    0.0100    0.0100    0.0100    0.0100    0.0100    0.0100
    0.0100    0.0100    0.0100    0.0100    0.0100    0.0100    0.0100    0.0100
    0.0100    0.0100    0.0100    0.0100    0.0100    0.0100    0.0100    0.0100
    0.0100    0.0100    0.0100    0.0100    0.0100    0.0100    0.0100    0.0100
    0.0100    0.0100    0.0100    0.0100    0.0100    0.0100    0.0100    0.0100
    0.0100    0.0100    0.0100    0.0100    0.0100    0.0100    0.0100    0.0100
    0.0100    0.0100    0.0100    0.0100    0.0100    0.0100    0.0100    0.0100
    0.0100    0.0100    0.0100    0.0100    0.0100    0.0100    0.0100    0.0100
    0.0100    0.0100    0.0100    0.0100    0.0100    0.0100    0.0100    0.0100
    0.0100    0.0100    0.0100    0.0100    0.0100    0.0100    0.0100    0.0100
    0.0100    0.0100    0.0100    0.0100    0.0100    0.0100    0.0100    0.0100
    0.0100    0.0100    0.0100    0.0100    0.0100    0.0100    0.0100    0.0100
    0.0100    0.0100    0.0100    0.0100    0.0100    0.0100    0.0100    0.0100
    0.0100    0.0100    0.0100    0.0100    0.0100    0.0100    0.0100    0.0100
    0.0100    0.0100    0.0100    0.0100    0.0100    0.0100    0.0100    0.0100
    0.0100    0.0100    0.0100    0.0100    0.0100    0.0100    0.0100    0.0100
    0.0100    0.0100    0.0100    0.0100    0.0100    0.0100    0.0100    0.0100
    0.0100    0.0100    0.0100    0.0100    0.0100    0.0100    0.0100    0.0100
    0.0100    0.0100    0.0100    0.0100    0.0100    0.0100    0.0100    0.0100
    0.0100    0.0100    0.0100    0.0100    0.0100    0.0100    0.0100    0.0100
    0.0100    0.0100    0.0100    0.0100    0.0100    0.0100    0.0100    0.0100
    0.0100    0.0100    0.0100    0.0100    0.0100    0.0100    0.0100    0.0100
    0.0100    0.0100    0.0100    0.0100    0.0100    0.0100    0.0100    0.0100
    0.0100    0.0100    0.0100    0.0100    0.0100    0.0100    0.0100    0.0100
    0.0100    0.0100    0.0100    0.0100    0.0100    0.0100    0.0100    0.0100
    0.0100    0.0100    0.0100    0.0100    0.0100    0.0100    0.0100    0.0100
    0.0100    0.0100    0.0100    0.0100    0.0100    0.0100    0.0100    0.0100
    0.0100    0.0100    0.0100    0.0100    0.0100    0.0100    0.0100    0.0100
    0.0100    0.0100    0.0100    0.0100    0.0100    0.0100    0.0100    0.0100
    0.0100    0.0100    0.0100    0.0100    0.0100    0.0100    0.0100    0.0100
    0.0100    0.0100    0.0100    0.0100    0.0100    0.0100    0.0100    0.0100
    0.0100    0.0100    0.0100    0.0100    0.0100    0.0100    0.0100    0.0100
    0.0100    0.0100    0.0100    0.0100    0.0100    0.0100    0.0100    0.0100
    0.0100    0.0100    0.0100    0.0100    0.0100    0.0100    0.0100    0.0100
    0.0100    0.0100    0.0100    0.0100    0.0100    0.0100    0.0100    0.0100
    0.0100    0.0100    0.0100    0.0100    0.0100    0.0100    0.0100    0.0100
    0.0100    0.0100    0.0100    0.0100    0.0100    0.0100    0.0100    0.0100
    0.0100    0.0100    0.0100    0.0100    0.0100    0.0100    0.0100    0.0100
    0.0100    0.0100    0.0100    0.0100    0.0100    0.0100    0.0100    0.0100
    0.0100    0.0100    0.0100    0.0100    0.0100    0.0100    0.0100    0.0100
    0.0100    0.0100    0.0100    0.0100    0.0100    0.0100    0.0100    0.0100
    0.0100    0.0100    0.0100    0.0100    0.0100    0.0100    0.0100    0.0100
    0.0100    0.0100    0.0100    0.0100    0.0100    0.0100    0.0100    0.0100
    0.0100    0.0100    0.0100    0.0100    0.0100    0.0100    0.0100    0.0100
    0.0100    0.0100    0.0100    0.0100    0.0100    0.0100    0.0100    0.0100
    0.0100    0.0100    0.0100    0.0100    0.0100    0.0100    0.0100    0.0100
    0.0100    0.0100    0.0100    0.0100    0.0100    0.0100    0.0100    0.0100
    0.0100    0.0100    0.0100    0.0100    0.0100    0.0100    0.0100    0.0100
    0.0100    0.0100    0.0100    0.0100    0.0100    0.0100    0.0100    0.0100
    0.0100    0.0100    0.0100    0.0100    0.0100    0.0100    0.0100    0.0100
    0.0100    0.0100    0.0100    0.0100    0.0100    0.0100    0.0100    0.0100
    0.0100    0.0100    0.0100    0.0100    0.0100    0.0100    0.0100    0.0100
    0.0100    0.0100    0.0100    0.0100    0.0100    0.0100    0.0100    0.0100
    0.0100    0.0100    0.0100    0.0100    0.0100    0.0100    0.0100    0.0100
    0.0100    0.0100    0.0100    0.0100    0.0100    0.0100    0.0100    0.0100
    0.0100    0.0100    0.0100    0.0100
   </PP_RAB>
 </PP_MESH>
  <PP_LOCAL type="real"  size=" 732" columns="4">
   -8.8369082762E+00   -8.8858596743E+00   -8.8823595567E+00   -8.8765353782E+00
   -8.8684010557E+00   -8.8579758496E+00   -8.8452841503E+00   -8.8303552116E+00
   -8.8132228402E+00   -8.7939250481E+00   -8.7725036768E+00   -8.7490040013E+00
   -8.7234743232E+00   -8.6959655601E+00   -8.6665308398E+00   -8.6352251066E+00
   -8.6021047428E+00   -8.5672272150E+00   -8.5306507438E+00   -8.4924340037E+00
   -8.4526358526E+00   -8.4113150925E+00   -8.3685302615E+00   -8.3243394548E+00
   -8.2788001761E+00   -8.2319692141E+00   -8.1839025450E+00   -8.1346552567E+00
   -8.0842814922E+00   -8.0328344112E+00   -7.9803661657E+00   -7.9269278879E+00
   -7.8725696887E+00   -7.8173406639E+00   -7.7612889065E+00   -7.7044615247E+00
   -7.6469046625E+00   -7.5886635224E+00   -7.5297823905E+00   -7.4703046616E+00
   -7.4102728639E+00   -7.3497286845E+00   -7.2887129934E+00   -7.2272658673E+00
   -7.1654266119E+00   -7.1032337841E+00   -7.0407252128E+00   -6.9779380191E+00
   -6.9149086360E+00   -6.8516728273E+00   -6.7882657060E+00   -6.7247217530E+00
   -6.6610748340E+00   -6.5973582180E+00   -6.5336045938E+00   -6.4698460872E+00
   -6.4061142770E+00   -6.3424402116E+00   -6.2788544229E+00   -6.2153869414E+00
   -6.1520673082E+00   -6.0889245867E+00   -6.0259873717E+00   -5.9632837968E+00
   -5.9008415393E+00   -5.8386878214E+00   -5.7768494098E+00   -5.7153526101E+00
   -5.6542232589E+00   -5.5934867109E+00   -5.5331678227E+00   -5.4732909314E+00
   -5.4138798299E+00   -5.3549577370E+00   -5.2965472641E+00   -5.2386703764E+00
   -5.1813483519E+00   -5.1246017356E+00   -5.0684502902E+00   -5.0129129451E+00
   -4.9580077409E+00   -4.9037517735E+00   -4.8501611352E+00   -4.7972508548E+00
   -4.7450348373E+00   -4.6935258019E+00   -4.6427352208E+00   -4.5926732576E+00
   -4.5433487052E+00   -4.4947689255E+00   -4.4469397880E+00   -4.3998656092E+00
   -4.3535490921E+00   -4.3079912649E+00   -4.2631914198E+00   -4.2191470493E+00
   -4.1758537823E+00   -4.1333053157E+00   -4.0914933446E+00   -4.0504074869E+00
   -4.0100352051E+00   -3.9703617560E+00   -3.9313712829E+00   -3.8930488906E+00
   -3.8553809957E+00   -3.8183552442E+00   -3.7819604225E+00   -3.7461863623E+00
   -3.7110238386E+00   -3.6764644613E+00   -3.6425005606E+00   -3.6091250662E+00
   -3.5763313816E+00   -3.5441132547E+00   -3.5124646453E+00   -3.4813795919E+00
   -3.4508520808E+00   -3.4208759155E+00   -3.3914445972E+00   -3.3625511976E+00
   -3.3341882167E+00   -3.3063475863E+00   -3.2790206364E+00   -3.2521978876E+00
   -3.2258695350E+00   -3.2000236026E+00   -3.1746247407E+00   -3.1496284971E+00
   -3.1250215990E+00   -3.1007964310E+00   -3.0769439360E+00   -3.0534556056E+00
   -3.0303231638E+00   -3.0075385828E+00   -2.9850940746E+00   -2.9629820817E+00
   -2.9411952691E+00   -2.9197265160E+00   -2.8985689079E+00   -2.8777157292E+00
   -2.8571604563E+00   -2.8368967507E+00   -2.8169184524E+00   -2.7972195737E+00
   -2.7777942931E+00   -2.7586369499E+00   -2.7397420385E+00   -2.7211042029E+00
   -2.7027182321E+00   -2.6845790547E+00   -2.6666817349E+00   -2.6490214674E+00
   -2.6315935734E+00   -2.6143934965E+00   -2.5974167986E+00   -2.5806591561E+00
   -2.5641163563E+00   -2.5477842939E+00   -2.5316589674E+00   -2.5157364760E+00
   -2.5000130166E+00   -2.4844848803E+00   -2.4691484500E+00   -2.4540001973E+00
   -2.4390366799E+00   -2.4242545388E+00   -2.4096504962E+00   -2.3952213526E+00
   -2.3809639847E+00   -2.3668753432E+00   -2.3529524506E+00   -2.3391923989E+00
   -2.3255923479E+00   -2.3121495229E+00   -2.2988612131E+00   -2.2857247697E+00
   -2.2727376040E+00   -2.2598971859E+00   -2.2472010420E+00   -2.2346467544E+00
   -2.2222319587E+00   -2.2099543430E+00   -2.1978116460E+00   -2.1858016560E+00
   -2.1739222092E+00   -2.1621711888E+00   -2.1505465233E+00   -2.1390461857E+00
   -2.1276681920E+00   -2.1164106003E+00   -2.1052715095E+00   -2.0942490584E+00
   -2.0833414245E+00   -2.0725468231E+00   -2.0618635063E+00   -2.0512897621E+00
   -2.0408239133E+00   -2.0304643169E+00   -2.0202093630E+00   -2.0100574742E+00
   -2.0000071045E+00   -1.9900567388E+00   -1.9802048918E+00   -1.9704501077E+00
   -1.9607909590E+00   -1.9512260464E+00   -1.9417539974E+00   -1.9323734663E+00
   -1.9230831330E+00   -1.9138817030E+00   -1.9047679063E+00   -1.8957404968E+00
   -1.8867982522E+00   -1.8779399730E+00   -1.8691644821E+00   -1.8604706245E+00
   -1.8518572662E+00   -1.8433232946E+00   -1.8348676171E+00   -1.8264891612E+00
   -1.8181868739E+00   -1.8099597214E+00   -1.8018066882E+00   -1.7937267774E+00
   -1.7857190096E+00   -1.7777824229E+00   -1.7699160725E+00   -1.7621190302E+00
   -1.7543903840E+00   -1.7467292379E+00   -1.7391347116E+00   -1.7316059398E+00
   -1.7241420723E+00   -1.7167422734E+00   -1.7094057218E+00   -1.7021316100E+00
   -1.6949191444E+00   -1.6877675446E+00   -1.6806760433E+00   -1.6736438864E+00
   -1.6666703318E+00   -1.6597546502E+00   -1.6528961242E+00   -1.6460940480E+00
   -1.6393477277E+00   -1.6326564806E+00   -1.6260196349E+00   -1.6194365300E+00
   -1.6129065157E+00   -1.6064289525E+00   -1.6000032108E+00   -1.5936286714E+00
   -1.5873047246E+00   -1.5810307705E+00   -1.5748062187E+00   -1.5686304880E+00
   -1.5625030061E+00   -1.5564232100E+00   -1.5503905450E+00   -1.5444044653E+00
   -1.5384644333E+00   -1.5325699198E+00   -1.5267204034E+00   -1.5209153710E+00
   -1.5151543170E+00   -1.5094367435E+00   -1.5037621601E+00   -1.4981300838E+00
   -1.4925400388E+00   -1.4869915562E+00   -1.4814841742E+00   -1.4760174379E+00
   -1.4705908989E+00   -1.4652041155E+00   -1.4598566523E+00   -1.4545480805E+00
   -1.4492779772E+00   -1.4440459259E+00   -1.4388515158E+00   -1.4336943422E+00
   -1.4285740062E+00   -1.4234901143E+00   -1.4184422790E+00   -1.4134301179E+00
   -1.4084532542E+00   -1.4035113164E+00   -1.3986039380E+00   -1.3937307578E+00
   -1.3888914195E+00   -1.3840855719E+00   -1.3793128684E+00   -1.3745729674E+00
   -1.3698655317E+00   -1.3651902291E+00   -1.3605467315E+00   -1.3559347156E+00
   -1.3513538622E+00   -1.3468038566E+00   -1.3422843881E+00   -1.3377951504E+00
   -1.3333358412E+00   -1.3289061621E+00   -1.3245058189E+00   -1.3201345209E+00
   -1.3157919817E+00   -1.3114779182E+00   -1.3071920514E+00   -1.3029341056E+00
   -1.2987038089E+00   -1.2945008929E+00   -1.2903250925E+00   -1.2861761462E+00
   -1.2820537958E+00   -1.2779577862E+00   -1.2738878660E+00   -1.2698437865E+00
   -1.2658253025E+00   -1.2618321717E+00   -1.2578641548E+00   -1.2539210159E+00
   -1.2500025215E+00   -1.2461084413E+00   -1.2422385480E+00   -1.2383926168E+00
   -1.2345704258E+00   -1.2307717560E+00   -1.2269963908E+00   -1.2232441164E+00
   -1.2195147217E+00   -1.2158079979E+00   -1.2121237391E+00   -1.2084617415E+00
   -1.2048218041E+00   -1.2012037280E+00   -1.1976073170E+00   -1.1940323769E+00
   -1.1904787161E+00   -1.1869461452E+00   -1.1834344769E+00   -1.1799435263E+00
   -1.1764731106E+00   -1.1730230490E+00   -1.1695931631E+00   -1.1661832764E+00
   -1.1627932145E+00   -1.1594228050E+00   -1.1560718774E+00   -1.1527402634E+00
   -1.1494277965E+00   -1.1461343120E+00   -1.1428596473E+00   -1.1396036414E+00
   -1.1363661355E+00   -1.1331469722E+00   -1.1299459961E+00   -1.1267630535E+00
   -1.1235979924E+00   -1.1204506627E+00   -1.1173209156E+00   -1.1142086042E+00
   -1.1111135834E+00   -1.1080357093E+00   -1.1049748398E+00   -1.1019308345E+00
   -1.0989035544E+00   -1.0958928619E+00   -1.0928986212E+00   -1.0899206976E+00
   -1.0869589583E+00   -1.0840132716E+00   -1.0810835074E+00   -1.0781695370E+00
   -1.0752712328E+00   -1.0723884691E+00   -1.0695211210E+00   -1.0666690653E+00
   -1.0638321800E+00   -1.0610103443E+00   -1.0582034389E+00   -1.0554113454E+00
   -1.0526339471E+00   -1.0498711281E+00   -1.0471227740E+00   -1.0443887715E+00
   -1.0416690085E+00   -1.0389633739E+00   -1.0362717581E+00   -1.0335940523E+00
   -1.0309301490E+00   -1.0282799417E+00   -1.0256433251E+00   -1.0230201949E+00
   -1.0204104479E+00   -1.0178139820E+00   -1.0152306959E+00   -1.0126604897E+00
   -1.0101032642E+00   -1.0075589214E+00   -1.0050273640E+00   -1.0025084961E+00
   -1.0000022224E+00   -9.9750844877E-01   -9.9502708184E-01   -9.9255802928E-01
   -9.9010119965E-01   -9.8765650243E-01   -9.8522384795E-01   -9.8280314745E-01
   -9.8039431305E-01   -9.7799725769E-01   -9.7561189520E-01   -9.7323814023E-01
   -9.7087590826E-01   -9.6852511559E-01   -9.6618567932E-01   -9.6385751736E-01
   -9.6154054841E-01   -9.5923469195E-01   -9.5693986822E-01   -9.5465599824E-01
   -9.5238300375E-01   -9.5012080726E-01   -9.4786933202E-01   -9.4562850199E-01
   -9.4339824184E-01   -9.4117847697E-01   -9.3896913348E-01   -9.3677013813E-01
   -9.3458141841E-01   -9.3240290244E-01   -9.3023451906E-01   -9.2807619772E-01
   -9.2592786856E-01   -9.2378946235E-01   -9.2166091049E-01   -9.1954214503E-01
   -9.1743309863E-01   -9.1533370457E-01   -9.1324389673E-01   -9.1116360962E-01
   -9.0909277831E-01   -9.0703133849E-01   -9.0497922641E-01   -9.0293637890E-01
   -9.0090273337E-01   -8.9887822778E-01   -8.9686280066E-01   -8.9485639107E-01
   -8.9285893864E-01   -8.9087038351E-01   -8.8889066637E-01   -8.8691972843E-01
   -8.8495751143E-01   -8.8300395761E-01   -8.8105900972E-01   -8.7912261103E-01
   -8.7719470529E-01   -8.7527523674E-01   -8.7336415014E-01   -8.7146139068E-01
   -8.6956690407E-01   -8.6768063647E-01   -8.6580253450E-01   -8.6393254527E-01
   -8.6207061632E-01   -8.6021669564E-01   -8.5837073169E-01   -8.5653267335E-01
   -8.5470246995E-01   -8.5288007123E-01   -8.5106542739E-01   -8.4925848902E-01
   -8.4745920716E-01   -8.4566753325E-01   -8.4388341913E-01   -8.4210681706E-01
   -8.4033767969E-01   -8.3857596007E-01   -8.3682161166E-01   -8.3507458829E-01
   -8.3333484417E-01   -8.3160233391E-01   -8.2987701248E-01   -8.2815883523E-01
   -8.2644775788E-01   -8.2474373651E-01   -8.2304672758E-01   -8.2135668787E-01
   -8.1967357455E-01   -8.1799734513E-01   -8.1632795746E-01   -8.1466536973E-01
   -8.1300954049E-01   -8.1136042860E-01   -8.0971799329E-01   -8.0808219407E-01
   -8.0645299081E-01   -8.0483034371E-01   -8.0321421326E-01   -8.0160456029E-01
   -8.0000134593E-01   -7.9840453163E-01   -7.9681407914E-01   -7.9522995052E-01
   -7.9365210813E-01   -7.9208051462E-01   -7.9051513295E-01   -7.8895592635E-01
   -7.8740285837E-01   -7.8585589282E-01   -7.8431499381E-01   -7.8278012571E-01
   -7.8125125320E-01   -7.7972834121E-01   -7.7821135495E-01   -7.7670025991E-01
   -7.7519502183E-01   -7.7369560673E-01   -7.7220198088E-01   -7.7071411082E-01
   -7.6923196335E-01   -7.6775550551E-01   -7.6628470460E-01   -7.6481952818E-01
   -7.6335994404E-01   -7.6190592023E-01   -7.6045742504E-01   -7.5901442699E-01
   -7.5757689484E-01   -7.5614479762E-01   -7.5471810454E-01   -7.5329678508E-01
   -7.5188080893E-01   -7.5047014602E-01   -7.4906476651E-01   -7.4766464076E-01
   -7.4626973937E-01   -7.4488003315E-01   -7.4349549313E-01   -7.4211609057E-01
   -7.4074179692E-01   -7.3937258384E-01   -7.3800842322E-01   -7.3664928714E-01
   -7.3529514790E-01   -7.3394597798E-01   -7.3260175010E-01   -7.3126243713E-01
   -7.2992801218E-01   -7.2859844853E-01   -7.2727371967E-01   -7.2595379927E-01
   -7.2463866120E-01   -7.2332827953E-01   -7.2202262848E-01   -7.2072168250E-01
   -7.1942541618E-01   -7.1813380434E-01   -7.1684682194E-01   -7.1556444414E-01
   -7.1428664628E-01   -7.1301340385E-01   -7.1174469255E-01   -7.1048048823E-01
   -7.0922076691E-01   -7.0796550480E-01   -7.0671467825E-01   -7.0546826381E-01
   -7.0422623816E-01   -7.0298857816E-01   -7.0175526084E-01   -7.0052626339E-01
   -6.9930156314E-01   -6.9808113760E-01   -6.9686496443E-01   -6.9565302144E-01
   -6.9444528659E-01   -6.9324173801E-01   -6.9204235398E-01   -6.9084711290E-01
   -6.8965599336E-01   -6.8846897407E-01   -6.8728603390E-01   -6.8610715185E-01
   -6.8493230709E-01   -6.8376147890E-01   -6.8259464672E-01   -6.8143179013E-01
   -6.8027288885E-01   -6.7911792274E-01   -6.7796687177E-01   -6.7681971608E-01
   -6.7567643593E-01   -6.7453701172E-01   -6.7340142396E-01   -6.7226965331E-01
   -6.7114168057E-01   -6.7001748664E-01   -6.6889705257E-01   -6.6778035952E-01
   -6.6666738880E-01   -6.6555812183E-01   -6.6445254013E-01   -6.6335062539E-01
   -6.6225235938E-01   -6.6115772402E-01   -6.6006670133E-01   -6.5897927345E-01
   -6.5789542265E-01   -6.5681513131E-01   -6.5573838192E-01   -6.5466515709E-01
   -6.5359543954E-01   -6.5252921211E-01   -6.5146645775E-01   -6.5040715951E-01
   -6.4935130056E-01   -6.4829886418E-01   -6.4724983376E-01   -6.4620419279E-01
   -6.4516192486E-01   -6.4412301368E-01   -6.4308744307E-01   -6.4205519694E-01
   -6.4102625929E-01   -6.4000061426E-01   -6.3897824606E-01   -6.3795913902E-01
   -6.3694327755E-01   -6.3593064618E-01   -6.3492122953E-01   -6.3391501230E-01
   -6.3291197932E-01   -6.3191211549E-01   -6.3091540581E-01   -6.2992183539E-01
   -6.2893138942E-01   -6.2794405318E-01   -6.2695981205E-01   -6.2597865149E-01
   -6.2500055708E-01   -6.2402551445E-01   -6.2305350935E-01   -6.2208452761E-01
   -6.2111855514E-01   -6.2015557794E-01   -6.1919558211E-01   -6.1823855381E-01
   -6.1728447932E-01   -6.1633334498E-01   -6.1538513722E-01   -6.1443984254E-01
   -6.1349744756E-01   -6.1255793894E-01   -6.1162130345E-01   -6.1068752792E-01
   -6.0975659929E-01   -6.0882850453E-01   -6.0790323075E-01   -6.0698076509E-01
   -6.0606109480E-01   -6.0514420717E-01   -6.0423008962E-01   -6.0331872959E-01
   -6.0241011463E-01   -6.0150423236E-01   -6.0060107046E-01   -5.9970061671E-01
   -5.9880285894E-01   -5.9790778506E-01   -5.9701538305E-01   -5.9612564096E-01
   -5.9523854693E-01   -5.9435408915E-01   -5.9347225588E-01   -5.9259303546E-01
   -5.9171641630E-01   -5.9084238686E-01   -5.8997093569E-01   -5.8910205139E-01
   -5.8823572265E-01   -5.8737193820E-01   -5.8651068685E-01   -5.8565195748E-01
   -5.8479573902E-01   -5.8394202048E-01   -5.8309079093E-01   -5.8224203949E-01
   -5.8139575536E-01   -5.8055192780E-01   -5.7971054612E-01   -5.7887159971E-01
   -5.7803507801E-01   -5.7720097053E-01   -5.7636926682E-01   -5.7553995651E-01
   -5.7471302929E-01   -5.7388847490E-01   -5.7306628313E-01   -5.7224644386E-01
   -5.7142894699E-01   -5.7061378250E-01   -5.6980094043E-01   -5.6899041086E-01
   -5.6818218394E-01   -5.6737624987E-01   -5.6657259891E-01   -5.6577122137E-01
   -5.6497210762E-01   -5.6417524808E-01   -5.6338063321E-01   -5.6258825357E-01
   -5.6179809971E-01   -5.6101016228E-01   -5.6022443197E-01   -5.5944089952E-01
   -5.5865955571E-01   -5.5788039139E-01   -5.5710339745E-01   -5.5632856484E-01
   -5.5555588455E-01   -5.5478534763E-01   -5.5401694516E-01   -5.5325066830E-01
   -5.5248650823E-01   -5.5172445620E-01   -5.5096450349E-01   -5.5020664145E-01
   -5.4945086145E-01   -5.4869715493E-01   -5.4794551337E-01   -5.4719592828E-01
  </PP_LOCAL>
 <PP_NONLOCAL>
   <PP_BETA.1
       type="real"
       size=" 732"
       columns="4"
       index="1"
       angular_momentum="0"
       cutoff_radius_index=" 132"
       cutoff_radius="    1.3100000000E+00" >
    4.4423150714E-09    1.0526313174E-01    2.1018282200E-01    3.1441609887E-01
    4.1762096143E-01    5.1945694388E-01    6.1958577071E-01    7.1767212764E-01
    8.1338456913E-01    9.0639657723E-01    9.9638778134E-01    1.0830453412E+00
    1.1660654895E+00    1.2451552223E+00    1.3200341204E+00    1.3904362769E+00
    1.4561123012E+00    1.5168313628E+00    1.5723832380E+00    1.6225803134E+00
    1.6672595044E+00    1.7062840401E+00    1.7395450723E+00    1.7669630625E+00
    1.7884889088E+00    1.8041047750E+00    1.8138245928E+00    1.8176942124E+00
    1.8157911840E+00    1.8082241637E+00    1.7951319403E+00    1.7766820936E+00
    1.7530693003E+00    1.7245133114E+00    1.6912566358E+00    1.6535619692E+00
    1.6117094133E+00    1.5659935398E+00    1.5167203505E+00    1.4642041940E+00
    1.4087646966E+00    1.3507237648E+00    1.2904027174E+00    1.2281195986E+00
    1.1641867193E+00    1.0989084711E+00    1.0325794443E+00    9.6548287828E-01
    8.9788946147E-01    8.3005648811E-01    7.6222737138E-01    6.9463150118E-01
    6.2748442634E-01    5.6098833237E-01    4.9533277754E-01    4.3069564348E-01
    3.6724425083E-01    3.0513658596E-01    2.4452258227E-01    1.8554539841E-01
    1.2834263610E-01    7.3047442883E-02    1.9789448451E-02   -3.1304510892E-02
   -8.0109918665E-02   -1.2650438630E-01   -1.7036776468E-01   -2.1158257093E-01
   -2.5003473215E-01   -2.8561463680E-01   -3.1821847412E-01   -3.4774983173E-01
   -3.7412151189E-01   -3.9725751832E-01   -4.1709515800E-01   -4.3358719631E-01
   -4.4670399939E-01   -4.5643559506E-01   -4.6279358258E-01   -4.6581282293E-01
   -4.6555284416E-01   -4.6209890142E-01   -4.5556263810E-01   -4.4608230283E-01
   -4.3382248736E-01   -4.1897336095E-01   -4.0174938979E-01   -3.8238754220E-01
   -3.6114499389E-01   -3.3829636086E-01   -3.1413050010E-01   -2.8894693089E-01
   -2.6305194052E-01   -2.3675444836E-01   -2.1036171048E-01   -1.8417495389E-01
   -1.5848503352E-01   -1.3356820814E-01   -1.0968213091E-01   -8.7062148472E-02
   -6.5917996891E-02   -4.6430954779E-02   -2.8750740210E-02   -1.2992173895E-02
    7.6647548843E-04    1.2484175815E-02    2.2157099338E-02    2.9817867652E-02
    3.5534083421E-02    3.9406174323E-02    4.1564590331E-02    4.2166410183E-02
    4.1391426618E-02    3.9437792152E-02    3.6517317598E-02    3.2850523976E-02
    2.8661555070E-02    2.4173058929E-02    1.9601159576E-02    1.5150686623E-02
    1.1012880707E-02    7.3569357003E-03    4.3261764814E-03    2.0376994728E-03
    5.7528148230E-04    1.6415844925E-05    2.2392466329E-06   -6.7057393015E-07
    5.8881871457E-12    0.0000000000E+00    0.0000000000E+00    0.0000000000E+00
 0. 0. 0. 0.
 0. 0. 0. 0.
 0. 0. 0. 0.
 0. 0. 0. 0.
 0. 0. 0. 0.
 0. 0. 0. 0.
 0. 0. 0. 0.
 0. 0. 0. 0.
 0. 0. 0. 0.
 0. 0. 0. 0.
 0. 0. 0. 0.
 0. 0. 0. 0.
 0. 0. 0. 0.
 0. 0. 0. 0.
 0. 0. 0. 0.
 0. 0. 0. 0.
 0. 0. 0. 0.
 0. 0. 0. 0.
 0. 0. 0. 0.
 0. 0. 0. 0.
 0. 0. 0. 0.
 0. 0. 0. 0.
 0. 0. 0. 0.
 0. 0. 0. 0.
 0. 0. 0. 0.
 0. 0. 0. 0.
 0. 0. 0. 0.
 0. 0. 0. 0.
 0. 0. 0. 0.
 0. 0. 0. 0.
 0. 0. 0. 0.
 0. 0. 0. 0.
 0. 0. 0. 0.
 0. 0. 0. 0.
 0. 0. 0. 0.
 0. 0. 0. 0.
 0. 0. 0. 0.
 0. 0. 0. 0.
 0. 0. 0. 0.
 0. 0. 0. 0.
 0. 0. 0. 0.
 0. 0. 0. 0.
 0. 0. 0. 0.
 0. 0. 0. 0.
 0. 0. 0. 0.
 0. 0. 0. 0.
 0. 0. 0. 0.
 0. 0. 0. 0.
 0. 0. 0. 0.
 0. 0. 0. 0.
 0. 0. 0. 0.
 0. 0. 0. 0.
 0. 0. 0. 0.
 0. 0. 0. 0.
 0. 0. 0. 0.
 0. 0. 0. 0.
 0. 0. 0. 0.
 0. 0. 0. 0.
 0. 0. 0. 0.
 0. 0. 0. 0.
 0. 0. 0. 0.
 0. 0. 0. 0.
 0. 0. 0. 0.
 0. 0. 0. 0.
 0. 0. 0. 0.
 0. 0. 0. 0.
 0. 0. 0. 0.
 0. 0. 0. 0.
 0. 0. 0. 0.
 0. 0. 0. 0.
 0. 0. 0. 0.
 0. 0. 0. 0.
 0. 0. 0. 0.
 0. 0. 0. 0.
 0. 0. 0. 0.
 0. 0. 0. 0.
 0. 0. 0. 0.
 0. 0. 0. 0.
 0. 0. 0. 0.
 0. 0. 0. 0.
 0. 0. 0. 0.
 0. 0. 0. 0.
 0. 0. 0. 0.
 0. 0. 0. 0.
 0. 0. 0. 0.
 0. 0. 0. 0.
 0. 0. 0. 0.
 0. 0. 0. 0.
 0. 0. 0. 0.
 0. 0. 0. 0.
 0. 0. 0. 0.
 0. 0. 0. 0.
 0. 0. 0. 0.
 0. 0. 0. 0.
 0. 0. 0. 0.
 0. 0. 0. 0.
 0. 0. 0. 0.
 0. 0. 0. 0.
 0. 0. 0. 0.
 0. 0. 0. 0.
 0. 0. 0. 0.
 0. 0. 0. 0.
 0. 0. 0. 0.
 0. 0. 0. 0.
 0. 0. 0. 0.
 0. 0. 0. 0.
 0. 0. 0. 0.
 0. 0. 0. 0.
 0. 0. 0. 0.
 0. 0. 0. 0.
 0. 0. 0. 0.
 0. 0. 0. 0.
 0. 0. 0. 0.
 0. 0. 0. 0.
 0. 0. 0. 0.
 0. 0. 0. 0.
 0. 0. 0. 0.
 0. 0. 0. 0.
 0. 0. 0. 0.
 0. 0. 0. 0.
 0. 0. 0. 0.
 0. 0. 0. 0.
 0. 0. 0. 0.
 0. 0. 0. 0.
 0. 0. 0. 0.
 0. 0. 0. 0.
 0. 0. 0. 0.
 0. 0. 0. 0.
 0. 0. 0. 0.
 0. 0. 0. 0.
 0. 0. 0. 0.
 0. 0. 0. 0.
 0. 0. 0. 0.
 0. 0. 0. 0.
 0. 0. 0. 0.
 0. 0. 0. 0.
 0. 0. 0. 0.
 0. 0. 0. 0.
 0. 0. 0. 0.
 0. 0. 0. 0.
 0. 0. 0. 0.
 0. 0. 0. 0.
 0. 0. 0. 0.
 0. 0. 0. 0.
 0. 0. 0. 0.
 0. 0. 0. 0.
 0. 0. 0. 0.
 0. 0. 0. 0.
 0. 0. 0. 0.
 0. 0. 0. 0.
   </PP_BETA.1>
   <PP_BETA.2
       type="real"
       size=" 732"
       columns="4"
       index="2"
       angular_momentum="0"
       cutoff_radius_index=" 132"
       cutoff_radius="    1.3100000000E+00" >
   -1.2597816235E-08   -4.0852396150E-02   -8.1417973768E-02   -1.2140896102E-01
   -1.6053577616E-01   -1.9850636099E-01   -2.3502579088E-01   -2.6979623822E-01
   -3.0251735352E-01   -3.3288711332E-01   -3.6060316710E-01   -3.8536469717E-01
   -4.0687478599E-01   -4.2484326619E-01   -4.3899000908E-01   -4.4904858958E-01
   -4.5477024855E-01   -4.5592805916E-01   -4.5232119176E-01   -4.4377916291E-01
   -4.3016594818E-01   -4.1138383652E-01   -3.8737690527E-01   -3.5813400013E-01
   -3.2369111328E-01   -2.8413306500E-01   -2.3959440965E-01   -1.9025950475E-01
   -1.3636170252E-01   -7.8181645232E-02   -1.6044668858E-02    4.9682656763E-02
    1.1859679950E-01    1.9026227405E-01    2.6421729332E-01    3.3997994794E-01
    4.1705478357E-01    4.9493963292E-01    5.7313255016E-01    6.5113869006E-01
    7.2847697335E-01    8.0468638305E-01    8.7933174401E-01    9.5200884980E-01
    1.0223488166E+00    1.0900215630E+00    1.1547383365E+00    1.2162532332E+00
    1.2743636817E+00    1.3289098928E+00    1.3797733008E+00    1.4268740545E+00
    1.4701676384E+00    1.5096407304E+00    1.5453064264E+00    1.5771989779E+00
    1.6053682052E+00    1.6298737580E+00    1.6507794047E+00    1.6681475263E+00
    1.6820339940E+00    1.6924835942E+00    1.6995261554E+00    1.7031735110E+00
    1.7034174082E+00    1.7002284515E+00    1.6935561352E+00    1.6833299913E+00
    1.6694618479E+00    1.6518491552E+00    1.6303793099E+00    1.6049348741E+00
    1.5753995551E+00    1.5416647901E+00    1.5036367534E+00    1.4612435897E+00
    1.4144426614E+00    1.3632275923E+00    1.3076348889E+00    1.2477499227E+00
    1.1837120705E+00    1.1157188234E+00    1.0440286973E+00    9.6896280690E-01
    8.9090499148E-01    8.1030042110E-01    7.2765264515E-01    6.4351908750E-01
    5.5850503209E-01    4.7325618351E-01    3.8844992688E-01    3.0478544844E-01
    2.2297291257E-01    1.4372192129E-01    6.7729507383E-02   -4.3320679285E-03
   -7.1827428349E-02   -1.3416981578E-01   -1.9083215251E-01   -2.4135714839E-01
   -2.8536618796E-01   -3.2256684412E-01   -3.5276214251E-01   -3.7586131681E-01
   -3.9188390874E-01   -4.0096054840E-01   -4.0333156534E-01   -3.9934341722E-01
   -3.8944297061E-01   -3.7416971689E-01   -3.5414605394E-01   -3.3006580924E-01
   -3.0268122163E-01   -2.7278863616E-01   -2.4121319787E-01   -2.0879285589E-01
   -1.7636200951E-01   -1.4473512969E-01   -1.1469072528E-01   -8.6956085144E-02
   -6.2197123689E-02   -4.0997715618E-02   -2.3847026320E-02   -1.1135714343E-02
   -3.1234591581E-03   -8.8668791509E-05   -1.2100584816E-05    3.6333573858E-06
   -1.9473505750E-11    0.0000000000E+00    0.0000000000E+00    0.0000000000E+00
 0. 0. 0. 0.
 0. 0. 0. 0.
 0. 0. 0. 0.
 0. 0. 0. 0.
 0. 0. 0. 0.
 0. 0. 0. 0.
 0. 0. 0. 0.
 0. 0. 0. 0.
 0. 0. 0. 0.
 0. 0. 0. 0.
 0. 0. 0. 0.
 0. 0. 0. 0.
 0. 0. 0. 0.
 0. 0. 0. 0.
 0. 0. 0. 0.
 0. 0. 0. 0.
 0. 0. 0. 0.
 0. 0. 0. 0.
 0. 0. 0. 0.
 0. 0. 0. 0.
 0. 0. 0. 0.
 0. 0. 0. 0.
 0. 0. 0. 0.
 0. 0. 0. 0.
 0. 0. 0. 0.
 0. 0. 0. 0.
 0. 0. 0. 0.
 0. 0. 0. 0.
 0. 0. 0. 0.
 0. 0. 0. 0.
 0. 0. 0. 0.
 0. 0. 0. 0.
 0. 0. 0. 0.
 0. 0. 0. 0.
 0. 0. 0. 0.
 0. 0. 0. 0.
 0. 0. 0. 0.
 0. 0. 0. 0.
 0. 0. 0. 0.
 0. 0. 0. 0.
 0. 0. 0. 0.
 0. 0. 0. 0.
 0. 0. 0. 0.
 0. 0. 0. 0.
 0. 0. 0. 0.
 0. 0. 0. 0.
 0. 0. 0. 0.
 0. 0. 0. 0.
 0. 0. 0. 0.
 0. 0. 0. 0.
 0. 0. 0. 0.
 0. 0. 0. 0.
 0. 0. 0. 0.
 0. 0. 0. 0.
 0. 0. 0. 0.
 0. 0. 0. 0.
 0. 0. 0. 0.
 0. 0. 0. 0.
 0. 0. 0. 0.
 0. 0. 0. 0.
 0. 0. 0. 0.
 0. 0. 0. 0.
 0. 0. 0. 0.
 0. 0. 0. 0.
 0. 0. 0. 0.
 0. 0. 0. 0.
 0. 0. 0. 0.
 0. 0. 0. 0.
 0. 0. 0. 0.
 0. 0. 0. 0.
 0. 0. 0. 0.
 0. 0. 0. 0.
 0. 0. 0. 0.
 0. 0. 0. 0.
 0. 0. 0. 0.
 0. 0. 0. 0.
 0. 0. 0. 0.
 0. 0. 0. 0.
 0. 0. 0. 0.
 0. 0. 0. 0.
 0. 0. 0. 0.
 0. 0. 0. 0.
 0. 0. 0. 0.
 0. 0. 0. 0.
 0. 0. 0. 0.
 0. 0. 0. 0.
 0. 0. 0. 0.
 0. 0. 0. 0.
 0. 0. 0. 0.
 0. 0. 0. 0.
 0. 0. 0. 0.
 0. 0. 0. 0.
 0. 0. 0. 0.
 0. 0. 0. 0.
 0. 0. 0. 0.
 0. 0. 0. 0.
 0. 0. 0. 0.
 0. 0. 0. 0.
 0. 0. 0. 0.
 0. 0. 0. 0.
 0. 0. 0. 0.
 0. 0. 0. 0.
 0. 0. 0. 0.
 0. 0. 0. 0.
 0. 0. 0. 0.
 0. 0. 0. 0.
 0. 0. 0. 0.
 0. 0. 0. 0.
 0. 0. 0. 0.
 0. 0. 0. 0.
 0. 0. 0. 0.
 0. 0. 0. 0.
 0. 0. 0. 0.
 0. 0. 0. 0.
 0. 0. 0. 0.
 0. 0. 0. 0.
 0. 0. 0. 0.
 0. 0. 0. 0.
 0. 0. 0. 0.
 0. 0. 0. 0.
 0. 0. 0. 0.
 0. 0. 0. 0.
 0. 0. 0. 0.
 0. 0. 0. 0.
 0. 0. 0. 0.
 0. 0. 0. 0.
 0. 0. 0. 0.
 0. 0. 0. 0.
 0. 0. 0. 0.
 0. 0. 0. 0.
 0. 0. 0. 0.
 0. 0. 0. 0.
 0. 0. 0. 0.
 0. 0. 0. 0.
 0. 0. 0. 0.
 0. 0. 0. 0.
 0. 0. 0. 0.
 0. 0. 0. 0.
 0. 0. 0. 0.
 0. 0. 0. 0.
 0. 0. 0. 0.
 0. 0. 0. 0.
 0. 0. 0. 0.
 0. 0. 0. 0.
 0. 0. 0. 0.
 0. 0. 0. 0.
 0. 0. 0. 0.
 0. 0. 0. 0.
 0. 0. 0. 0.
 0. 0. 0. 0.
   </PP_BETA.2>
   <PP_BETA.3
       type="real"
       size=" 732"
       columns="4"
       index="3"
       angular_momentum="1"
       cutoff_radius_index=" 132"
       cutoff_radius="    1.3100000000E+00" >
   -5.4164212560E-09   -2.4439993750E-03   -9.7584277728E-03   -2.1890772869E-02
   -3.8754167141E-02   -6.0228356375E-02   -8.6161033704E-02   -1.1636951786E-01
   -1.5064274880E-01   -1.8874356910E-01   -2.3041125495E-01   -2.7536425726E-01
   -3.2330310998E-01   -3.7391346123E-01   -4.2686918073E-01   -4.8183549737E-01
   -5.3847212050E-01   -5.9643629995E-01   -6.5538578204E-01   -7.1498162125E-01
   -7.7489081093E-01   -8.3478870061E-01   -8.9436117216E-01   -9.5330655198E-01
   -1.0113372423E+00   -1.0681810603E+00   -1.1235822791E+00   -1.1773023720E+00
   -1.2291204657E+00   -1.2788335137E+00   -1.3262562092E+00   -1.3712206567E+00
   -1.4135758311E+00   -1.4531868525E+00   -1.4899341109E+00   -1.5237122758E+00
   -1.5544292265E+00   -1.5820049418E+00   -1.6063703863E+00   -1.6274664276E+00
   -1.6452428215E+00   -1.6596572950E+00   -1.6706747561E+00   -1.6782666555E+00
   -1.6824105198E+00   -1.6830896709E+00   -1.6802931420E+00   -1.6740157942E+00
   -1.6642586317E+00   -1.6510293084E+00   -1.6343428131E+00   -1.6142223150E+00
   -1.5907001454E+00   -1.5638188885E+00   -1.5336325482E+00   -1.5002077564E+00
   -1.4636249842E+00   -1.4239797167E+00   -1.3813835494E+00   -1.3359651671E+00
   -1.2878711636E+00   -1.2372666655E+00   -1.1843357234E+00   -1.1292814387E+00
   -1.0723257995E+00   -1.0137092007E+00   -9.5368963458E-01   -8.9254153744E-01
   -8.3055429203E-01   -7.6803038615E-01   -7.0528323907E-01   -6.4263471255E-01
   -5.8041233135E-01   -5.1894624439E-01   -4.5856596463E-01   -3.9959693138E-01
   -3.4235694445E-01   -2.8715252370E-01   -2.3427525177E-01   -1.8399816021E-01
   -1.3657222109E-01   -9.2223007090E-02   -5.1147582410E-02   -1.3511685540E-02
    2.0552737755E-02    5.0949596535E-02    7.7620261887E-02    1.0054467495E-01
    1.1974191801E-01    1.3527021833E-01    1.4722636232E-01    1.5574450618E-01
    1.6099437818E-01    1.6317887684E-01    1.6253107844E-01    1.5931067665E-01
    1.5379988575E-01    1.4629884766E-01    1.3712059088E-01    1.2658559656E-01
    1.1501603895E-01    1.0272988424E-01    9.0039003297E-02    7.7251202777E-02
    6.4666462872E-02    5.2571749233E-02    4.1235983135E-02    3.0905144663E-02
    2.1804305458E-02    1.4136780384E-02    8.0401979541E-03    3.6158421556E-03
    9.2245497357E-04    5.0416209429E-06    5.9324355258E-06   -3.2952567579E-07
    0.0000000000E+00    0.0000000000E+00    0.0000000000E+00    0.0000000000E+00
    0.0000000000E+00    0.0000000000E+00    0.0000000000E+00    0.0000000000E+00
    0.0000000000E+00    0.0000000000E+00    0.0000000000E+00    0.0000000000E+00
    0.0000000000E+00    0.0000000000E+00    0.0000000000E+00    0.0000000000E+00
 0. 0. 0. 0.
 0. 0. 0. 0.
 0. 0. 0. 0.
 0. 0. 0. 0.
 0. 0. 0. 0.
 0. 0. 0. 0.
 0. 0. 0. 0.
 0. 0. 0. 0.
 0. 0. 0. 0.
 0. 0. 0. 0.
 0. 0. 0. 0.
 0. 0. 0. 0.
 0. 0. 0. 0.
 0. 0. 0. 0.
 0. 0. 0. 0.
 0. 0. 0. 0.
 0. 0. 0. 0.
 0. 0. 0. 0.
 0. 0. 0. 0.
 0. 0. 0. 0.
 0. 0. 0. 0.
 0. 0. 0. 0.
 0. 0. 0. 0.
 0. 0. 0. 0.
 0. 0. 0. 0.
 0. 0. 0. 0.
 0. 0. 0. 0.
 0. 0. 0. 0.
 0. 0. 0. 0.
 0. 0. 0. 0.
 0. 0. 0. 0.
 0. 0. 0. 0.
 0. 0. 0. 0.
 0. 0. 0. 0.
 0. 0. 0. 0.
 0. 0. 0. 0.
 0. 0. 0. 0.
 0. 0. 0. 0.
 0. 0. 0. 0.
 0. 0. 0. 0.
 0. 0. 0. 0.
 0. 0. 0. 0.
 0. 0. 0. 0.
 0. 0. 0. 0.
 0. 0. 0. 0.
 0. 0. 0. 0.
 0. 0. 0. 0.
 0. 0. 0. 0.
 0. 0. 0. 0.
 0. 0. 0. 0.
 0. 0. 0. 0.
 0. 0. 0. 0.
 0. 0. 0. 0.
 0. 0. 0. 0.
 0. 0. 0. 0.
 0. 0. 0. 0.
 0. 0. 0. 0.
 0. 0. 0. 0.
 0. 0. 0. 0.
 0. 0. 0. 0.
 0. 0. 0. 0.
 0. 0. 0. 0.
 0. 0. 0. 0.
 0. 0. 0. 0.
 0. 0. 0. 0.
 0. 0. 0. 0.
 0. 0. 0. 0.
 0. 0. 0. 0.
 0. 0. 0. 0.
 0. 0. 0. 0.
 0. 0. 0. 0.
 0. 0. 0. 0.
 0. 0. 0. 0.
 0. 0. 0. 0.
 0. 0. 0. 0.
 0. 0. 0. 0.
 0. 0. 0. 0.
 0. 0. 0. 0.
 0. 0. 0. 0.
 0. 0. 0. 0.
 0. 0. 0. 0.
 0. 0. 0. 0.
 0. 0. 0. 0.
 0. 0. 0. 0.
 0. 0. 0. 0.
 0. 0. 0. 0.
 0. 0. 0. 0.
 0. 0. 0. 0.
 0. 0. 0. 0.
 0. 0. 0. 0.
 0. 0. 0. 0.
 0. 0. 0. 0.
 0. 0. 0. 0.
 0. 0. 0. 0.
 0. 0. 0. 0.
 0. 0. 0. 0.
 0. 0. 0. 0.
 0. 0. 0. 0.
 0. 0. 0. 0.
 0. 0. 0. 0.
 0. 0. 0. 0.
 0. 0. 0. 0.
 0. 0. 0. 0.
 0. 0. 0. 0.
 0. 0. 0. 0.
 0. 0. 0. 0.
 0. 0. 0. 0.
 0. 0. 0. 0.
 0. 0. 0. 0.
 0. 0. 0. 0.
 0. 0. 0. 0.
 0. 0. 0. 0.
 0. 0. 0. 0.
 0. 0. 0. 0.
 0. 0. 0. 0.
 0. 0. 0. 0.
 0. 0. 0. 0.
 0. 0. 0. 0.
 0. 0. 0. 0.
 0. 0. 0. 0.
 0. 0. 0. 0.
 0. 0. 0. 0.
 0. 0. 0. 0.
 0. 0. 0. 0.
 0. 0. 0. 0.
 0. 0. 0. 0.
 0. 0. 0. 0.
 0. 0. 0. 0.
 0. 0. 0. 0.
 0. 0. 0. 0.
 0. 0. 0. 0.
 0. 0. 0. 0.
 0. 0. 0. 0.
 0. 0. 0. 0.
 0. 0. 0. 0.
 0. 0. 0. 0.
 0. 0. 0. 0.
 0. 0. 0. 0.
 0. 0. 0. 0.
 0. 0. 0. 0.
 0. 0. 0. 0.
 0. 0. 0. 0.
 0. 0. 0. 0.
 0. 0. 0. 0.
 0. 0. 0. 0.
 0. 0. 0. 0.
 0. 0. 0. 0.
 0. 0. 0. 0.
 0. 0. 0. 0.
 0. 0. 0. 0.
   </PP_BETA.3>
   <PP_DIJ type="real"  size="   9" columns="4">
   -6.9596282368E+00    0.0000000000E+00    0.0000000000E+00    0.0000000000E+00
   -1.5302454970E+00    0.0000000000E+00    0.0000000000E+00    0.0000000000E+00
   -1.3986511443E+00
   </PP_DIJ>
 </PP_NONLOCAL>
 <PP_PSWFC>
   <PP_CHI.1
       type="real"
       size=" 732"
       columns="4"
       index="1"
       occupation=" 2.000"
       pseudo_energy="   -0.1139162571E+01"
       label="1S"
       l="0" >
   -3.7532477126E-12    2.9579435002E-02    5.9124280216E-02    8.8600033763E-02
    1.1797236929E-01    1.4720722299E-01    1.7627087974E-01    2.0513005806E-01
    2.3375199359E-01    2.6210452084E-01    2.9015615287E-01    3.1787615867E-01
    3.4523463797E-01    3.7220259322E-01    3.9875199837E-01    4.2485586445E-01
    4.5048830145E-01    4.7562457645E-01    5.0024116773E-01    5.2431581464E-01
    5.4782756310E-01    5.7075680651E-01    5.9308532203E-01    6.1479630192E-01
    6.3587438000E-01    6.5630565308E-01    6.7607769724E-01    6.9517957908E-01
    7.1360186169E-01    7.3133660557E-01    7.4837736437E-01    7.6471917560E-01
    7.8035854638E-01    7.9529343423E-01    8.0952322323E-01    8.2304869550E-01
    8.3587199832E-01    8.4799660703E-01    8.5942728388E-01    8.7017003327E-01
    8.8023205330E-01    8.8962168431E-01    8.9834835433E-01    9.0642252197E-01
    9.1385561704E-01    9.2065997906E-01    9.2684879423E-01    9.3243603093E-01
    9.3743637433E-01    9.4186516022E-01    9.4573830851E-01    9.4907225673E-01
    9.5188389366E-01    9.5419049369E-01    9.5600965191E-01    9.5735922033E-01
    9.5825724549E-01    9.5872190769E-01    9.5877146199E-01    9.5842418131E-01
    9.5769830165E-01    9.5661196977E-01    9.5518319323E-01    9.5342979320E-01
    9.5136935987E-01    9.4901921069E-01    9.4639635142E-01    9.4351744009E-01
    9.4039875380E-01    9.3705615850E-01    9.3350508152E-01    9.2976048709E-01
    9.2583685451E-01    9.2174815920E-01    9.1750785639E-01    9.1312886736E-01
    9.0862356832E-01    9.0400378162E-01    8.9928076943E-01    8.9446522956E-01
    8.8956729356E-01    8.8459652676E-01    8.7956193043E-01    8.7447194568E-01
    8.6933445923E-01    8.6415681081E-01    8.5894580223E-01    8.5370770787E-01
    8.4844828670E-01    8.4317279556E-01    8.3788600375E-01    8.3259220883E-01
    8.2729525345E-01    8.2199854335E-01    8.1670506616E-01    8.1141741124E-01
    8.0613779024E-01    8.0086805846E-01    7.9560973681E-01    7.9036403440E-01
    7.8513187164E-01    7.7991390367E-01    7.7471054424E-01    7.6952198970E-01
    7.6434824324E-01    7.5918913906E-01    7.5404436656E-01    7.4891349427E-01
    7.4379599362E-01    7.3869126214E-01    7.3359864632E-01    7.2851746373E-01
    7.2344702445E-01    7.1838665161E-01    7.1333570100E-01    7.0829357954E-01
    7.0325976264E-01    6.9823381016E-01    6.9321538110E-01    6.8820424671E-01
    6.8320030206E-01    6.7820357583E-01    6.7321423853E-01    6.6823260921E-01
    6.6325916024E-01    6.5829452030E-01    6.5333946880E-01    6.4839486755E-01
    6.4346155561E-01    6.3854034058E-01    6.3363199905E-01    6.2873727770E-01
    6.2385689413E-01    6.1899153783E-01    6.1414187096E-01    6.0930852924E-01
    6.0449212273E-01    5.9969323659E-01    5.9491243185E-01    5.9015024615E-01
    5.8540719439E-01    5.8068376947E-01    5.7598044291E-01    5.7129766551E-01
    5.6663586796E-01    5.6199546140E-01    5.5737683807E-01    5.5278037182E-01
    5.4820641866E-01    5.4365531729E-01    5.3912738963E-01    5.3462294128E-01
    5.3014226202E-01    5.2568562628E-01    5.2125329356E-01    5.1684550891E-01
    5.1246250334E-01    5.0810449422E-01    5.0377168568E-01    4.9946426902E-01
    4.9518242307E-01    4.9092631458E-01    4.8669609854E-01    4.8249191856E-01
    4.7831390720E-01    4.7416218629E-01    4.7003686725E-01    4.6593805142E-01
    4.6186583034E-01    4.5782028606E-01    4.5380149141E-01    4.4980951031E-01
    4.4584439802E-01    4.4190620140E-01    4.3799495920E-01    4.3411070227E-01
    4.3025345384E-01    4.2642322977E-01    4.2262003872E-01    4.1884388246E-01
    4.1509475605E-01    4.1137264805E-01    4.0767754076E-01    4.0400941040E-01
    4.0036822735E-01    3.9675395630E-01    3.9316655648E-01    3.8960598184E-01
    3.8607218121E-01    3.8256509852E-01    3.7908467295E-01    3.7563083909E-01
    3.7220352716E-01    3.6880266308E-01    3.6542816875E-01    3.6207996208E-01
    3.5875795724E-01    3.5546206477E-01    3.5219219170E-01    3.4894824175E-01
    3.4573011540E-01    3.4253771007E-01    3.3937092026E-01    3.3622963762E-01
    3.3311375113E-01    3.3002314720E-01    3.2695770979E-01    3.2391732052E-01
    3.2090185880E-01    3.1791120190E-01    3.1494522511E-01    3.1200380179E-01
    3.0908680354E-01    3.0619410019E-01    3.0332556002E-01    3.0048104976E-01
    2.9766043472E-01    2.9486357887E-01    2.9209034493E-01    2.8934059444E-01
    2.8661418786E-01    2.8391098462E-01    2.8123084322E-01    2.7857362131E-01
    2.7593917571E-01    2.7332736254E-01    2.7073803727E-01    2.6817105475E-01
    2.6562626932E-01    2.6310353483E-01    2.6060270473E-01    2.5812363212E-01
    2.5566616978E-01    2.5323017026E-01    2.5081548590E-01    2.4842196889E-01
    2.4604947134E-01    2.4369784528E-01    2.4136694274E-01    2.3905661579E-01
    2.3676671655E-01    2.3449709727E-01    2.3224761035E-01    2.3001810836E-01
    2.2780844412E-01    2.2561847067E-01    2.2344804136E-01    2.2129700984E-01
    2.1916523014E-01    2.1705255662E-01    2.1495884408E-01    2.1288394773E-01
    2.1082772323E-01    2.0879002673E-01    2.0677071486E-01    2.0476964479E-01
    2.0278667423E-01    2.0082166143E-01    1.9887446523E-01    1.9694494507E-01
    1.9503296101E-01    1.9313837370E-01    1.9126104449E-01    1.8940083533E-01
    1.8755760889E-01    1.8573122848E-01    1.8392155813E-01    1.8212846256E-01
    1.8035180723E-01    1.7859145830E-01    1.7684728266E-01    1.7511914796E-01
    1.7340692259E-01    1.7171047571E-01    1.7002967722E-01    1.6836439780E-01
    1.6671450892E-01    1.6507988279E-01    1.6346039245E-01    1.6185591171E-01
    1.6026631515E-01    1.5869147817E-01    1.5713127697E-01    1.5558558853E-01
    1.5405429065E-01    1.5253726192E-01    1.5103438175E-01    1.4954553034E-01
    1.4807058871E-01    1.4660943867E-01    1.4516196285E-01    1.4372804470E-01
    1.4230756844E-01    1.4090041912E-01    1.3950648261E-01    1.3812564554E-01
    1.3675779538E-01    1.3540282039E-01    1.3406060962E-01    1.3273105293E-01
    1.3141404096E-01    1.3010946516E-01    1.2881721777E-01    1.2753719179E-01
    1.2626928104E-01    1.2501338011E-01    1.2376938437E-01    1.2253718995E-01
    1.2131669378E-01    1.2010779355E-01    1.1891038771E-01    1.1772437549E-01
    1.1654965685E-01    1.1538613255E-01    1.1423370406E-01    1.1309227363E-01
    1.1196174424E-01    1.1084201962E-01    1.0973300423E-01    1.0863460328E-01
    1.0754672269E-01    1.0646926911E-01    1.0540214994E-01    1.0434527326E-01
    1.0329854789E-01    1.0226188334E-01    1.0123518985E-01    1.0021837835E-01
    9.9211360458E-02    9.8214048510E-02    9.7226355512E-02    9.6248195165E-02
    9.5279481848E-02    9.4320130618E-02    9.3370057208E-02    9.2429178017E-02
    9.1497410110E-02    9.0574671215E-02    8.9660879714E-02    8.8755954642E-02
    8.7859815685E-02    8.6972383171E-02    8.6093578068E-02    8.5223321982E-02
    8.4361537151E-02    8.3508146439E-02    8.2663073336E-02    8.1826241951E-02
    8.0997577008E-02    8.0177003845E-02    7.9364448406E-02    7.8559837238E-02
    7.7763097490E-02    7.6974156906E-02    7.6192943821E-02    7.5419387159E-02
    7.4653416428E-02    7.3894961714E-02    7.3143953681E-02    7.2400323565E-02
    7.1664003172E-02    7.0934924869E-02    7.0213021586E-02    6.9498226811E-02
    6.8790474582E-02    6.8089699489E-02    6.7395836668E-02    6.6708821793E-02
    6.6028591082E-02    6.5355081282E-02    6.4688229674E-02    6.4027974066E-02
    6.3374252787E-02    6.2727004690E-02    6.2086169140E-02    6.1451686017E-02
    6.0823495710E-02    6.0201539112E-02    5.9585757620E-02    5.8976093129E-02
    5.8372488027E-02    5.7774885196E-02    5.7183228005E-02    5.6597460306E-02
    5.6017526434E-02    5.5443371202E-02    5.4874939896E-02    5.4312178273E-02
    5.3755032558E-02    5.3203449440E-02    5.2657376068E-02    5.2116760051E-02
    5.1581549449E-02    5.1051692775E-02    5.0527138988E-02    5.0007837494E-02
    4.9493738138E-02    4.8984791204E-02    4.8480947409E-02    4.7982157903E-02
    4.7488374266E-02    4.6999548500E-02    4.6515633030E-02    4.6036580702E-02
    4.5562344776E-02    4.5092878924E-02    4.4628137229E-02    4.4168074181E-02
    4.3712644674E-02    4.3261803999E-02    4.2815507849E-02    4.2373712308E-02
    4.1936373855E-02    4.1503449355E-02    4.1074896059E-02    4.0650671602E-02
    4.0230733997E-02    3.9815041635E-02    3.9403553281E-02    3.8996228070E-02
    3.8593025508E-02    3.8193905462E-02    3.7798828167E-02    3.7407754212E-02
    3.7020644548E-02    3.6637460477E-02    3.6258163655E-02    3.5882716083E-02
    3.5511080111E-02    3.5143218432E-02    3.4779094078E-02    3.4418670420E-02
    3.4061911163E-02    3.3708780346E-02    3.3359242337E-02    3.3013261831E-02
    3.2670803848E-02    3.2331833730E-02    3.1996317138E-02    3.1664220050E-02
    3.1335508757E-02    3.1010149865E-02    3.0688110286E-02    3.0369357240E-02
    3.0053858251E-02    2.9741581145E-02    2.9432494047E-02    2.9126565378E-02
    2.8823763854E-02    2.8524058484E-02    2.8227418564E-02    2.7933813679E-02
    2.7643213699E-02    2.7355588775E-02    2.7070909338E-02    2.6789146099E-02
    2.6510270041E-02    2.6234252423E-02    2.5961064772E-02    2.5690678886E-02
    2.5423066828E-02    2.5158200924E-02    2.4896053765E-02    2.4636598197E-02
    2.4379807328E-02    2.4125654517E-02    2.3874113378E-02    2.3625157776E-02
    2.3378761824E-02    2.3134899882E-02    2.2893546553E-02    2.2654676685E-02
    2.2418265362E-02    2.2184287911E-02    2.1952719892E-02    2.1723537099E-02
    2.1496715559E-02    2.1272231528E-02    2.1050061492E-02    2.0830182160E-02
    2.0612570468E-02    2.0397203571E-02    2.0184058846E-02    1.9973113888E-02
    1.9764346507E-02    1.9557734729E-02    1.9353256792E-02    1.9150891143E-02
    1.8950616439E-02    1.8752411543E-02    1.8556255525E-02    1.8362127656E-02
    1.8170007408E-02    1.7979874454E-02    1.7791708664E-02    1.7605490105E-02
    1.7421199036E-02    1.7238815911E-02    1.7058321373E-02    1.6879696254E-02
    1.6702921574E-02    1.6527978538E-02    1.6354848535E-02    1.6183513138E-02
    1.6013954098E-02    1.5846153345E-02    1.5680092989E-02    1.5515755313E-02
    1.5353122775E-02    1.5192178006E-02    1.5032903807E-02    1.4875283148E-02
    1.4719299169E-02    1.4564935173E-02    1.4412174631E-02    1.4261001175E-02
    1.4111398599E-02    1.3963350857E-02    1.3816842063E-02    1.3671856488E-02
    1.3528378556E-02    1.3386392849E-02    1.3245884100E-02    1.3106837193E-02
    1.2969237164E-02    1.2833069195E-02    1.2698318618E-02    1.2564970908E-02
    1.2433011687E-02    1.2302426719E-02    1.2173201910E-02    1.2045323306E-02
    1.1918777092E-02    1.1793549592E-02    1.1669627266E-02    1.1546996709E-02
    1.1425644650E-02    1.1305557951E-02    1.1186723604E-02    1.1069128733E-02
    1.0952760590E-02    1.0837606556E-02    1.0723654137E-02    1.0610890964E-02
    1.0499304793E-02    1.0388883503E-02    1.0279615096E-02    1.0171487691E-02
    1.0064489529E-02    9.9586089693E-03    9.8538344878E-03    9.7501546762E-03
    9.6475582416E-03    9.5460340045E-03    9.4455708982E-03    9.3461579679E-03
    9.2477843690E-03    9.1504393665E-03    9.0541123338E-03    8.9587927517E-03
    8.8644702072E-03    8.7711343928E-03    8.6787751052E-03    8.5873822443E-03
    8.4969458123E-03    8.4074559127E-03    8.3189027491E-03    8.2312766248E-03
    8.1445679411E-03    8.0587671967E-03    7.9738649870E-03    7.8898520025E-03
    7.8067190285E-03    7.7244569441E-03    7.6430567207E-03    7.5625094217E-03
    7.4828062016E-03    7.4039383046E-03    7.3258970642E-03    7.2486739021E-03
    7.1722603275E-03    7.0966479361E-03    7.0218284091E-03    6.9477935127E-03
    6.8745350971E-03    6.8020450956E-03    6.7303155239E-03    6.6593384793E-03
    6.5891061397E-03    6.5196107629E-03    6.4508446860E-03    6.3828003244E-03
    6.3154701711E-03    6.2488467959E-03    6.1829228445E-03    6.1176910381E-03
    6.0531441725E-03    5.9892751170E-03    5.9260768143E-03    5.8635422792E-03
    5.8016645984E-03    5.7404369292E-03    5.6798524992E-03    5.6199046058E-03
    5.5605866149E-03    5.5018919604E-03    5.4438141441E-03    5.3863467343E-03
    5.3294833653E-03    5.2732177370E-03    5.2175436142E-03    5.1624548255E-03
    5.1079452634E-03    5.0540088829E-03    5.0006397015E-03    4.9478317980E-03
    4.8955793127E-03    4.8438764456E-03    4.7927174571E-03    4.7420966664E-03
    4.6920084513E-03    4.6424472476E-03    4.5934075487E-03    4.5448839046E-03
    4.4968709216E-03    4.4493632617E-03    4.4023556419E-03    4.3558428340E-03
    4.3098196636E-03    4.2642810099E-03    4.2192218050E-03    4.1746370332E-03
    4.1305217310E-03    4.0868709860E-03    4.0436799367E-03    4.0009437718E-03
    3.9586577298E-03    3.9168170988E-03    3.8754172153E-03    3.8344534641E-03
    3.7939212782E-03    3.7538161375E-03    3.7141335689E-03    3.6748691457E-03
    3.6360184870E-03    3.5975772573E-03    3.5595411663E-03    3.5219059679E-03
    3.4846674603E-03    3.4478214850E-03    3.4113639269E-03    3.3752907137E-03
    3.3395978151E-03    3.3042812428E-03    3.2693370500E-03    3.2347613308E-03
    3.2005502198E-03    3.1666998920E-03    3.1332065620E-03    3.1000664837E-03
    3.0672759502E-03    3.0348312928E-03    3.0027288813E-03    2.9709651230E-03
    2.9395364627E-03    2.9084393823E-03    2.8776704001E-03    2.8472260708E-03
    2.8171029849E-03    2.7872977685E-03    2.7578070827E-03    2.7286276235E-03
    2.6997561213E-03    2.6711893404E-03    2.6429240792E-03    2.6149571690E-03
    2.5872854745E-03    2.5599058930E-03    2.5328153541E-03    2.5060108194E-03
    2.4794892822E-03    2.4532477673E-03    2.4272833305E-03    2.4015930581E-03
    2.3761740671E-03    2.3510235046E-03    2.3261385471E-03    2.3015164011E-03
    2.2771543019E-03    2.2530495138E-03    2.2291993298E-03    2.2056010709E-03
    2.1822520864E-03    2.1591497530E-03    2.1362914751E-03    2.1136746841E-03
    2.0912968382E-03    2.0691554222E-03    2.0472479473E-03    2.0255719507E-03
    2.0041249953E-03    1.9829046695E-03    1.9619085870E-03    1.9411343863E-03
    1.9205797308E-03    1.9002423083E-03    1.8801198308E-03    1.8602100343E-03
    1.8405106782E-03    1.8210195459E-03    1.8017344436E-03    1.7826532005E-03
    1.7637736688E-03    1.7450937229E-03    1.7266112597E-03    1.7083241979E-03
    1.6902304783E-03    1.6723280631E-03    1.6546149358E-03    1.6370891012E-03
    1.6197485850E-03    1.6025914334E-03    1.5856157132E-03    1.5688195117E-03
    1.5522009360E-03    1.5357581130E-03    1.5194891894E-03    1.5033923314E-03
    1.4874657243E-03    1.4717075725E-03    1.4561160992E-03    1.4406895463E-03
   </PP_CHI.1>
 </PP_PSWFC>
 <PP_RHOATOM type="real"  size=" 732" columns="4">
    0.0000000000E+00    1.7498859501E-03    6.9913610222E-03    1.5699931966E-02
    2.7834959831E-02    4.3339933000E-02    6.2142846088E-02    8.4156681439E-02
    1.0927998902E-01    1.3739755969E-01    1.6838118609E-01    2.0209050450E-01
    2.3837391051E-01    2.7706954079E-01    3.1800631240E-01    3.6100501111E-01
    4.0587941948E-01    4.5243747545E-01    5.0048245179E-01    5.4981414697E-01
    6.0023007777E-01    6.5152666436E-01    7.0350039842E-01    7.5594898572E-01
    8.0867245429E-01    8.6147422052E-01    9.1416210540E-01    9.6654929433E-01
    1.0184552340E+00    1.0697064613E+00    1.1201373590E+00    1.1695908351E+00
    1.2179189218E+00    1.2649832931E+00    1.3106556979E+00    1.3548183103E+00
    1.3973639952E+00    1.4381964911E+00    1.4772305126E+00    1.5143917736E+00
    1.5496169353E+00    1.5828534824E+00    1.6140595314E+00    1.6432035767E+00
    1.6702641776E+00    1.6952295941E+00    1.7180973747E+00    1.7388739035E+00
    1.7575739118E+00    1.7742199601E+00    1.7888418964E+00    1.8014762970E+00
    1.8121658940E+00    1.8209589965E+00    1.8279089091E+00    1.8330733535E+00
    1.8365138971E+00    1.8382953926E+00    1.8384854326E+00    1.8371538226E+00
    1.8343720740E+00    1.8302129214E+00    1.8247498652E+00    1.8180567411E+00
    1.8102073178E+00    1.8012749245E+00    1.7913321080E+00    1.7804503195E+00
    1.7686996323E+00    1.7561484884E+00    1.7428634745E+00    1.7289091267E+00
    1.7143477623E+00    1.6992393380E+00    1.6836413331E+00    1.6676086568E+00
    1.6511935778E+00    1.6344456744E+00    1.6174118045E+00    1.6001360938E+00
    1.5826599395E+00    1.5650220303E+00    1.5472583789E+00    1.5294023676E+00
    1.5114848040E+00    1.4935339874E+00    1.4755757823E+00    1.4576337010E+00
    1.4397289904E+00    1.4218807263E+00    1.4041059106E+00    1.3864195724E+00
    1.3688348728E+00    1.3513632105E+00    1.3340143302E+00    1.3167964305E+00
    1.2997162737E+00    1.2827792941E+00    1.2659897066E+00    1.2493506138E+00
    1.2328641117E+00    1.2165313943E+00    1.2003528547E+00    1.1843281853E+00
    1.1684564739E+00    1.1527362977E+00    1.1371658135E+00    1.1217428438E+00
    1.1064649602E+00    1.0913295615E+00    1.0763339478E+00    1.0614753899E+00
    1.0467511944E+00    1.0321587624E+00    1.0176956446E+00    1.0033595896E+00
    9.8914858750E-01    9.7506090731E-01    9.6109512920E-01    9.4725017038E-01
    9.3352530546E-01    9.1992018053E-01    9.0643482193E-01    8.9306964003E-01
    8.7982542727E-01    8.6670335091E-01    8.5370492297E-01    8.4083180853E-01
    8.2808554710E-01    8.1546753309E-01    8.0297902045E-01    7.9062112874E-01
    7.7839484872E-01    7.6630104781E-01    7.5434047533E-01    7.4251376762E-01
    7.3082145289E-01    7.1926395602E-01    7.0784160315E-01    6.9655462605E-01
    6.8540316648E-01    6.7438728025E-01    6.6350694123E-01    6.5276204525E-01
    6.4215241371E-01    6.3167779727E-01    6.2133787924E-01    6.1113227894E-01
    6.0106055492E-01    5.9112220804E-01    5.8131668451E-01    5.7164337869E-01
    5.6210163597E-01    5.5269075535E-01    5.4340999209E-01    5.3425856017E-01
    5.2523563466E-01    5.1634035409E-01    5.0757182258E-01    4.9892911205E-01
    4.9041126424E-01    4.8201729269E-01    4.7374618467E-01    4.6559690296E-01
    4.5756838765E-01    4.4965955781E-01    4.4186931315E-01    4.3419653552E-01
    4.2664009047E-01    4.1919882865E-01    4.1187158721E-01    4.0465719113E-01
    3.9755445449E-01    3.9056218168E-01    3.8367916857E-01    3.7690420365E-01
    3.7023606909E-01    3.6367354177E-01    3.5721539426E-01    3.5086039575E-01
    3.4460731300E-01    3.3845491113E-01    3.3240195448E-01    3.2644720739E-01
    3.2058943494E-01    3.1482740368E-01    3.0915988227E-01    3.0358564216E-01
    2.9810345820E-01    2.9271210921E-01    2.8741037853E-01    2.8219705456E-01
    2.7707093125E-01    2.7203080860E-01    2.6707549303E-01    2.6220379788E-01
    2.5741454377E-01    2.5270655898E-01    2.4807867980E-01    2.4352975084E-01
    2.3905862539E-01    2.3466416564E-01    2.3034524303E-01    2.2610073842E-01
    2.2192954238E-01    2.1783055537E-01    2.1380268798E-01    2.0984486107E-01
    2.0595600596E-01    2.0213506458E-01    1.9838098963E-01    1.9469274467E-01
    1.9106930424E-01    1.8750965398E-01    1.8401279072E-01    1.8057772253E-01
    1.7720346880E-01    1.7388906029E-01    1.7063353920E-01    1.6743595919E-01
    1.6429538537E-01    1.6121089438E-01    1.5818157436E-01    1.5520652498E-01
    1.5228485738E-01    1.4941569423E-01    1.4659816965E-01    1.4383142921E-01
    1.4111462990E-01    1.3844694008E-01    1.3582753943E-01    1.3325561892E-01
    1.3073038074E-01    1.2825103826E-01    1.2581681593E-01    1.2342694926E-01
    1.2108068469E-01    1.1877727959E-01    1.1651600210E-01    1.1429613110E-01
    1.1211695613E-01    1.0997777725E-01    1.0787790502E-01    1.0581666035E-01
    1.0379337442E-01    1.0180738861E-01    9.9858054371E-02    9.7944733131E-02
    9.6066796203E-02    9.4223624673E-02    9.2414609298E-02    9.0639150401E-02
    8.8896657764E-02    8.7186550520E-02    8.5508257048E-02    8.3861214858E-02
    8.2244870490E-02    8.0658679397E-02    7.9102105841E-02    7.7574622780E-02
    7.6075711757E-02    7.4604862794E-02    7.3161574277E-02    7.1745352850E-02
    7.0355713303E-02    6.8992178464E-02    6.7654279088E-02    6.6341553753E-02
    6.5053548744E-02    6.3789817952E-02    6.2549922766E-02    6.1333431964E-02
    6.0139921607E-02    5.8968974937E-02    5.7820182270E-02    5.6693140895E-02
    5.5587454966E-02    5.4502735406E-02    5.3438599803E-02    5.2394672308E-02
    5.1370583542E-02    5.0365970488E-02    4.9380476404E-02    4.8413750717E-02
    4.7465448935E-02    4.6535232550E-02    4.5622768942E-02    4.4727731290E-02
    4.3849798480E-02    4.2988655013E-02    4.2143990919E-02    4.1315501664E-02
    4.0502888069E-02    3.9705856219E-02    3.8924117379E-02    3.8157387912E-02
    3.7405389195E-02    3.6667847538E-02    3.5944494103E-02    3.5235064822E-02
    3.4539300323E-02    3.3856945849E-02    3.3187751185E-02    3.2531470580E-02
    3.1887862671E-02    3.1256690415E-02    3.0637721013E-02    3.0030725842E-02
    2.9435480381E-02    2.8851764144E-02    2.8279360612E-02    2.7718057167E-02
    2.7167645024E-02    2.6627919167E-02    2.6098678285E-02    2.5579724708E-02
    2.5070864345E-02    2.4571906626E-02    2.4082664435E-02    2.3602954059E-02
    2.3132595121E-02    2.2671410532E-02    2.2219226424E-02    2.1775872103E-02
    2.1341179990E-02    2.0914985568E-02    2.0497127327E-02    2.0087446717E-02
    1.9685788088E-02    1.9291998649E-02    1.8905928412E-02    1.8527430145E-02
    1.8156359322E-02    1.7792574080E-02    1.7435935166E-02    1.7086305898E-02
    1.6743552114E-02    1.6407542131E-02    1.6078146702E-02    1.5755238969E-02
    1.5438694424E-02    1.5128390869E-02    1.4824208369E-02    1.4526029219E-02
    1.4233737901E-02    1.3947221043E-02    1.3666367387E-02    1.3391067744E-02
    1.3121214962E-02    1.2856703891E-02    1.2597431341E-02    1.2343296054E-02
    1.2094198663E-02    1.1850041663E-02    1.1610729376E-02    1.1376167919E-02
    1.1146265169E-02    1.0920930733E-02    1.0700075920E-02    1.0483613705E-02
    1.0271458701E-02    1.0063527132E-02    9.8597368006E-03    9.6600070597E-03
    9.4642587865E-03    9.2724143531E-03    9.0843976003E-03    8.9001338101E-03
    8.7195496805E-03    8.5425732988E-03    8.3691341168E-03    8.1991629259E-03
    8.0325918327E-03    7.8693542347E-03    7.7093847969E-03    7.5526194287E-03
    7.3989952607E-03    7.2484506230E-03    7.1009250224E-03    6.9563591215E-03
    6.8146947170E-03    6.6758747189E-03    6.5398431301E-03    6.4065450261E-03
    6.2759265356E-03    6.1479348206E-03    6.0225180572E-03    5.8996254176E-03
    5.7792070506E-03    5.6612140646E-03    5.5455985088E-03    5.4323133564E-03
    5.3213124871E-03    5.2125506703E-03    5.1059835487E-03    5.0015676217E-03
    4.8992602298E-03    4.7990195385E-03    4.7008045233E-03    4.6045749541E-03
    4.5102913809E-03    4.4179151184E-03    4.3274082325E-03    4.2387335255E-03
    4.1518545229E-03    4.0667354593E-03    3.9833412651E-03    3.9016375538E-03
    3.8215906087E-03    3.7431673705E-03    3.6663354247E-03    3.5910629896E-03
    3.5173189043E-03    3.4450726168E-03    3.3742941726E-03    3.3049542034E-03
    3.2370239159E-03    3.1704750808E-03    3.1052800223E-03    3.0414116074E-03
    2.9788432356E-03    2.9175488289E-03    2.8575028215E-03    2.7986801504E-03
    2.7410562455E-03    2.6846070205E-03    2.6293088632E-03    2.5751386270E-03
    2.5220736213E-03    2.4700916035E-03    2.4191707697E-03    2.3692897469E-03
    2.3204275841E-03    2.2725637448E-03    2.2256780986E-03    2.1797509135E-03
    2.1347628482E-03    2.0906949447E-03    2.0475286208E-03    2.0052456627E-03
    1.9638282182E-03    1.9232587893E-03    1.8835202259E-03    1.8445957184E-03
    1.8064687916E-03    1.7691232981E-03    1.7325434116E-03    1.6967136214E-03
    1.6616187254E-03    1.6272438247E-03    1.5935743175E-03    1.5605958933E-03
    1.5282945272E-03    1.4966564744E-03    1.4656682648E-03    1.4353166974E-03
    1.4055888353E-03    1.3764720003E-03    1.3479537682E-03    1.3200219632E-03
    1.2926646538E-03    1.2658701475E-03    1.2396269861E-03    1.2139239415E-03
    1.1887500107E-03    1.1640944117E-03    1.1399465792E-03    1.1162961599E-03
    1.0931330089E-03    1.0704471851E-03    1.0482289476E-03    1.0264687514E-03
    1.0051572437E-03    9.8428526026E-04    9.6384382130E-04    9.4382412816E-04
    9.2421755963E-04    9.0501566839E-04    8.8621017764E-04    8.6779297767E-04
    8.4975612258E-04    8.3209182702E-04    8.1479246299E-04    7.9785055674E-04
    7.8125878571E-04    7.6500997548E-04    7.4909709690E-04    7.3351326312E-04
    7.1825172682E-04    7.0330587739E-04    6.8866923823E-04    6.7433546409E-04
    6.6029833840E-04    6.4655177076E-04    6.3308979439E-04    6.1990656368E-04
    6.0699635173E-04    5.9435354804E-04    5.8197265611E-04    5.6984829123E-04
    5.5797517818E-04    5.4634814909E-04    5.3496214123E-04    5.2381219498E-04
    5.1289345169E-04    5.0220115169E-04    4.9173063230E-04    4.8147732588E-04
    4.7143675791E-04    4.6160454513E-04    4.5197639372E-04    4.4254809747E-04
    4.3331553603E-04    4.2427467320E-04    4.1542155519E-04    4.0675230901E-04
    3.9826314082E-04    3.8995033432E-04    3.8181024921E-04    3.7383931964E-04
    3.6603405272E-04    3.5839102702E-04    3.5090689118E-04    3.4357836242E-04
    3.3640222523E-04    3.2937532994E-04    3.2249459144E-04    3.1575698784E-04
    3.0915955923E-04    3.0269940636E-04    2.9637368947E-04    2.9017962707E-04
    2.8411449474E-04    2.7817562397E-04    2.7236040108E-04    2.6666626601E-04
    2.6109071135E-04    2.5563128115E-04    2.5028556998E-04    2.4505122182E-04
    2.3992592910E-04    2.3490743173E-04    2.2999351608E-04    2.2518201408E-04
    2.2047080227E-04    2.1585780090E-04    2.1134097303E-04    2.0691832368E-04
    2.0258789895E-04    1.9834778521E-04    1.9419610822E-04    1.9013103242E-04
    1.8615076005E-04    1.8225353043E-04    1.7843761919E-04    1.7470133752E-04
    1.7104303147E-04    1.6746108120E-04    1.6395390031E-04    1.6051993513E-04
    1.5715766411E-04    1.5386559707E-04    1.5064227465E-04    1.4748626762E-04
    1.4439617627E-04    1.4137062985E-04    1.3840828590E-04    1.3550782975E-04
    1.3266797389E-04    1.2988745746E-04    1.2716504566E-04    1.2449952924E-04
    1.2188972398E-04    1.1933447016E-04    1.1683263207E-04    1.1438309751E-04
    1.1198477730E-04    1.0963660484E-04    1.0733753559E-04    1.0508654668E-04
    1.0288263641E-04    1.0072482386E-04    9.8612148413E-05    9.6543669390E-05
    9.4518465602E-05    9.2535634965E-05    9.0594294104E-05    8.8693577964E-05
    8.6832639439E-05    8.5010648999E-05    8.3226794326E-05    8.1480279963E-05
    7.9770326965E-05    7.8096172557E-05    7.6457069802E-05    7.4852287276E-05
    7.3281108746E-05    7.1742832854E-05    7.0236772817E-05    6.8762256120E-05
    6.7318624224E-05    6.5905232275E-05    6.4521448826E-05    6.3166655557E-05
    6.1840247002E-05    6.0541630288E-05    5.9270224872E-05    5.8025462284E-05
    5.6806785882E-05    5.5613650604E-05    5.4445522732E-05    5.3301879652E-05
    5.2182209627E-05    5.1086011577E-05    5.0012794847E-05    4.8962079003E-05
    4.7933393613E-05    4.6926278041E-05    4.5940281247E-05    4.4974961586E-05
    4.4029886613E-05    4.3104632894E-05    4.2198785817E-05    4.1311939413E-05
    4.0443696171E-05    3.9593666868E-05    3.8761470395E-05    3.7946733589E-05
    3.7149091066E-05    3.6368185063E-05    3.5603665279E-05    3.4855188718E-05
    3.4122419541E-05    3.3405028913E-05    3.2702694860E-05    3.2015102129E-05
    3.1341942044E-05    3.0682912371E-05    3.0037717184E-05    2.9406066737E-05
    2.8787677330E-05    2.8182271188E-05    2.7589576335E-05    2.7009326476E-05
    2.6441260875E-05    2.5885124245E-05    2.5340666629E-05    2.4807643294E-05
    2.4285814617E-05    2.3774945985E-05    2.3274807684E-05    2.2785174804E-05
    2.2305827133E-05    2.1836549064E-05    2.1377129493E-05    2.0927361734E-05
    2.0487043419E-05    2.0055976412E-05    1.9633966720E-05    1.9220824407E-05
    1.8816363509E-05    1.8420401951E-05    1.8032761468E-05    1.7653267524E-05
    1.7281749231E-05    1.6918039281E-05    1.6561973863E-05    1.6213392597E-05
    1.5872138456E-05    1.5538057701E-05    1.5210999811E-05    1.4890817416E-05
    1.4577366229E-05    1.4270504985E-05    1.3970095376E-05    1.3676001991E-05
    1.3388092253E-05    1.3106236362E-05    1.2830307236E-05    1.2560180453E-05
    1.2295734201E-05    1.2036849216E-05    1.1783408733E-05    1.1535298433E-05
    1.1292406395E-05    1.1054623038E-05    1.0821841081E-05    1.0593955489E-05
    1.0370863429E-05    1.0152464224E-05    9.9386593037E-06    9.7293521678E-06
    9.5244483368E-06    9.3238553117E-06    9.1274825330E-06    8.9352413400E-06
    8.7470449305E-06    8.5628083224E-06    8.3824483157E-06    8.2058834551E-06
    8.0330339937E-06    7.8638218568E-06    7.6981706071E-06    7.5360054111E-06
    7.3772530047E-06    7.2218416607E-06    7.0697011565E-06    6.9207627430E-06
    6.7749591134E-06    6.6322243732E-06    6.4924940103E-06    6.3557048666E-06
    6.2217951094E-06    6.0907042034E-06    5.9623728841E-06    5.8367431305E-06
    5.7137581398E-06    5.5933623013E-06    5.4755011718E-06    5.3601214507E-06
    5.2471709569E-06    5.1365986045E-06    5.0283543801E-06    4.9223893206E-06
    4.8186554911E-06    4.7171059630E-06    4.6176947935E-06    4.5203770043E-06
    4.4251085619E-06    4.3318463578E-06    4.2405481886E-06    4.1511727375E-06
 </PP_RHOATOM>
</UPF>

END_PSP
