Begin PSP_UPF
<UPF version="2.0.1">
  <PP_INFO>

 This pseudopotential file has been produced using the code
 ONCVPSP  (Optimized Norm-Conservinng Vanderbilt PSeudopotential)
 scalar-relativistic version 4.0.1 06/04/2019 by D. R. Hamann
 The code is available through a link at URL www.mat-simresearch.com.
 Documentation with the package provides a full discription of the
 input data below.


 While it is not required under the terms of the GNU GPL, it is
 suggested that you cite D. R. Hamann, Phys. Rev. B 88, 085117 (2013)
 in any publication using these pseudopotentials.

    <PP_INPUTFILE>
# ATOM AND REFERENCE CONFIGURATION
# atsym  z   nc   nv     iexc    psfile
  P 15.00    3    2 -116133      upf
#
#   n    l    f        energy (Ha)
    1    0    2.00
    2    0    2.00
    2    1    6.00
    3    0    2.00
    3    1    3.00
#
# PSEUDOPOTENTIAL AND OPTIMIZATION
# lmax
    2
#
#   l,   rc,      ep,       ncon, nbas, qcut
    0   1.45000  -0.51336    4    9   6.20000
    1   1.55000  -0.20237    4    9   6.60000
    2   1.70000   0.05000    4    9   6.60000
#
# LOCAL POTENTIAL
# lloc, lpopt,  rc(5),   dvloc0
    4    5   1.45000      0.00000
#
# VANDERBILT-KLEINMAN-BYLANDER PROJECTORs
# l, nproj, debl
    0    2   3.00000
    1    2   2.50000
    2    2   2.00000
#
# MODEL CORE CHARGE
# icmod, fcfact, rcfact
    3   5.00000   1.10000
#
# LOG DERIVATIVE ANALYSIS
# epsh1, epsh2, depsh
  -12.00   12.00    0.02
#
# OUTPUT GRID
# rlmax, drl
    6.00    0.01
#
# TEST CONFIGURATIONS
# ncnf
    0
# nvcnf
#   n    l    f
    </PP_INPUTFILE>
  </PP_INFO>
  <!--                               -->
  <!-- END OF HUMAN READABLE SECTION -->
  <!--                               -->
    <PP_HEADER
       generated="Generated using ONCVPSP code by D. R. Hamann"
       author="anonymous"
       date="251022"
       comment=""
       element="P "
       pseudo_type="NC"
       relativistic="scalar"
       is_ultrasoft="F"
       is_paw="F"
       is_coulomb="F"
       has_so="F"
       has_wfc="F"
       has_gipaw="F"
       core_correction="T"
       functional="PBESOL"
       z_valence="    5.00"
       total_psenergy="  -1.28045395512E+01"
       rho_cutoff="   1.29900000000E+01"
       l_max="2"
       l_local="-1"
       mesh_size="  1300"
       number_of_wfc="2"
       number_of_proj="6"/>
 <PP_MESH>
   <PP_R type="real"  size="1300" columns="8">
    0.0000    0.0100    0.0200    0.0300    0.0400    0.0500    0.0600    0.0700
    0.0800    0.0900    0.1000    0.1100    0.1200    0.1300    0.1400    0.1500
    0.1600    0.1700    0.1800    0.1900    0.2000    0.2100    0.2200    0.2300
    0.2400    0.2500    0.2600    0.2700    0.2800    0.2900    0.3000    0.3100
    0.3200    0.3300    0.3400    0.3500    0.3600    0.3700    0.3800    0.3900
    0.4000    0.4100    0.4200    0.4300    0.4400    0.4500    0.4600    0.4700
    0.4800    0.4900    0.5000    0.5100    0.5200    0.5300    0.5400    0.5500
    0.5600    0.5700    0.5800    0.5900    0.6000    0.6100    0.6200    0.6300
    0.6400    0.6500    0.6600    0.6700    0.6800    0.6900    0.7000    0.7100
    0.7200    0.7300    0.7400    0.7500    0.7600    0.7700    0.7800    0.7900
    0.8000    0.8100    0.8200    0.8300    0.8400    0.8500    0.8600    0.8700
    0.8800    0.8900    0.9000    0.9100    0.9200    0.9300    0.9400    0.9500
    0.9600    0.9700    0.9800    0.9900    1.0000    1.0100    1.0200    1.0300
    1.0400    1.0500    1.0600    1.0700    1.0800    1.0900    1.1000    1.1100
    1.1200    1.1300    1.1400    1.1500    1.1600    1.1700    1.1800    1.1900
    1.2000    1.2100    1.2200    1.2300    1.2400    1.2500    1.2600    1.2700
    1.2800    1.2900    1.3000    1.3100    1.3200    1.3300    1.3400    1.3500
    1.3600    1.3700    1.3800    1.3900    1.4000    1.4100    1.4200    1.4300
    1.4400    1.4500    1.4600    1.4700    1.4800    1.4900    1.5000    1.5100
    1.5200    1.5300    1.5400    1.5500    1.5600    1.5700    1.5800    1.5900
    1.6000    1.6100    1.6200    1.6300    1.6400    1.6500    1.6600    1.6700
    1.6800    1.6900    1.7000    1.7100    1.7200    1.7300    1.7400    1.7500
    1.7600    1.7700    1.7800    1.7900    1.8000    1.8100    1.8200    1.8300
    1.8400    1.8500    1.8600    1.8700    1.8800    1.8900    1.9000    1.9100
    1.9200    1.9300    1.9400    1.9500    1.9600    1.9700    1.9800    1.9900
    2.0000    2.0100    2.0200    2.0300    2.0400    2.0500    2.0600    2.0700
    2.0800    2.0900    2.1000    2.1100    2.1200    2.1300    2.1400    2.1500
    2.1600    2.1700    2.1800    2.1900    2.2000    2.2100    2.2200    2.2300
    2.2400    2.2500    2.2600    2.2700    2.2800    2.2900    2.3000    2.3100
    2.3200    2.3300    2.3400    2.3500    2.3600    2.3700    2.3800    2.3900
    2.4000    2.4100    2.4200    2.4300    2.4400    2.4500    2.4600    2.4700
    2.4800    2.4900    2.5000    2.5100    2.5200    2.5300    2.5400    2.5500
    2.5600    2.5700    2.5800    2.5900    2.6000    2.6100    2.6200    2.6300
    2.6400    2.6500    2.6600    2.6700    2.6800    2.6900    2.7000    2.7100
    2.7200    2.7300    2.7400    2.7500    2.7600    2.7700    2.7800    2.7900
    2.8000    2.8100    2.8200    2.8300    2.8400    2.8500    2.8600    2.8700
    2.8800    2.8900    2.9000    2.9100    2.9200    2.9300    2.9400    2.9500
    2.9600    2.9700    2.9800    2.9900    3.0000    3.0100    3.0200    3.0300
    3.0400    3.0500    3.0600    3.0700    3.0800    3.0900    3.1000    3.1100
    3.1200    3.1300    3.1400    3.1500    3.1600    3.1700    3.1800    3.1900
    3.2000    3.2100    3.2200    3.2300    3.2400    3.2500    3.2600    3.2700
    3.2800    3.2900    3.3000    3.3100    3.3200    3.3300    3.3400    3.3500
    3.3600    3.3700    3.3800    3.3900    3.4000    3.4100    3.4200    3.4300
    3.4400    3.4500    3.4600    3.4700    3.4800    3.4900    3.5000    3.5100
    3.5200    3.5300    3.5400    3.5500    3.5600    3.5700    3.5800    3.5900
    3.6000    3.6100    3.6200    3.6300    3.6400    3.6500    3.6600    3.6700
    3.6800    3.6900    3.7000    3.7100    3.7200    3.7300    3.7400    3.7500
    3.7600    3.7700    3.7800    3.7900    3.8000    3.8100    3.8200    3.8300
    3.8400    3.8500    3.8600    3.8700    3.8800    3.8900    3.9000    3.9100
    3.9200    3.9300    3.9400    3.9500    3.9600    3.9700    3.9800    3.9900
    4.0000    4.0100    4.0200    4.0300    4.0400    4.0500    4.0600    4.0700
    4.0800    4.0900    4.1000    4.1100    4.1200    4.1300    4.1400    4.1500
    4.1600    4.1700    4.1800    4.1900    4.2000    4.2100    4.2200    4.2300
    4.2400    4.2500    4.2600    4.2700    4.2800    4.2900    4.3000    4.3100
    4.3200    4.3300    4.3400    4.3500    4.3600    4.3700    4.3800    4.3900
    4.4000    4.4100    4.4200    4.4300    4.4400    4.4500    4.4600    4.4700
    4.4800    4.4900    4.5000    4.5100    4.5200    4.5300    4.5400    4.5500
    4.5600    4.5700    4.5800    4.5900    4.6000    4.6100    4.6200    4.6300
    4.6400    4.6500    4.6600    4.6700    4.6800    4.6900    4.7000    4.7100
    4.7200    4.7300    4.7400    4.7500    4.7600    4.7700    4.7800    4.7900
    4.8000    4.8100    4.8200    4.8300    4.8400    4.8500    4.8600    4.8700
    4.8800    4.8900    4.9000    4.9100    4.9200    4.9300    4.9400    4.9500
    4.9600    4.9700    4.9800    4.9900    5.0000    5.0100    5.0200    5.0300
    5.0400    5.0500    5.0600    5.0700    5.0800    5.0900    5.1000    5.1100
    5.1200    5.1300    5.1400    5.1500    5.1600    5.1700    5.1800    5.1900
    5.2000    5.2100    5.2200    5.2300    5.2400    5.2500    5.2600    5.2700
    5.2800    5.2900    5.3000    5.3100    5.3200    5.3300    5.3400    5.3500
    5.3600    5.3700    5.3800    5.3900    5.4000    5.4100    5.4200    5.4300
    5.4400    5.4500    5.4600    5.4700    5.4800    5.4900    5.5000    5.5100
    5.5200    5.5300    5.5400    5.5500    5.5600    5.5700    5.5800    5.5900
    5.6000    5.6100    5.6200    5.6300    5.6400    5.6500    5.6600    5.6700
    5.6800    5.6900    5.7000    5.7100    5.7200    5.7300    5.7400    5.7500
    5.7600    5.7700    5.7800    5.7900    5.8000    5.8100    5.8200    5.8300
    5.8400    5.8500    5.8600    5.8700    5.8800    5.8900    5.9000    5.9100
    5.9200    5.9300    5.9400    5.9500    5.9600    5.9700    5.9800    5.9900
    6.0000    6.0100    6.0200    6.0300    6.0400    6.0500    6.0600    6.0700
    6.0800    6.0900    6.1000    6.1100    6.1200    6.1300    6.1400    6.1500
    6.1600    6.1700    6.1800    6.1900    6.2000    6.2100    6.2200    6.2300
    6.2400    6.2500    6.2600    6.2700    6.2800    6.2900    6.3000    6.3100
    6.3200    6.3300    6.3400    6.3500    6.3600    6.3700    6.3800    6.3900
    6.4000    6.4100    6.4200    6.4300    6.4400    6.4500    6.4600    6.4700
    6.4800    6.4900    6.5000    6.5100    6.5200    6.5300    6.5400    6.5500
    6.5600    6.5700    6.5800    6.5900    6.6000    6.6100    6.6200    6.6300
    6.6400    6.6500    6.6600    6.6700    6.6800    6.6900    6.7000    6.7100
    6.7200    6.7300    6.7400    6.7500    6.7600    6.7700    6.7800    6.7900
    6.8000    6.8100    6.8200    6.8300    6.8400    6.8500    6.8600    6.8700
    6.8800    6.8900    6.9000    6.9100    6.9200    6.9300    6.9400    6.9500
    6.9600    6.9700    6.9800    6.9900    7.0000    7.0100    7.0200    7.0300
    7.0400    7.0500    7.0600    7.0700    7.0800    7.0900    7.1000    7.1100
    7.1200    7.1300    7.1400    7.1500    7.1600    7.1700    7.1800    7.1900
    7.2000    7.2100    7.2200    7.2300    7.2400    7.2500    7.2600    7.2700
    7.2800    7.2900    7.3000    7.3100    7.3200    7.3300    7.3400    7.3500
    7.3600    7.3700    7.3800    7.3900    7.4000    7.4100    7.4200    7.4300
    7.4400    7.4500    7.4600    7.4700    7.4800    7.4900    7.5000    7.5100
    7.5200    7.5300    7.5400    7.5500    7.5600    7.5700    7.5800    7.5900
    7.6000    7.6100    7.6200    7.6300    7.6400    7.6500    7.6600    7.6700
    7.6800    7.6900    7.7000    7.7100    7.7200    7.7300    7.7400    7.7500
    7.7600    7.7700    7.7800    7.7900    7.8000    7.8100    7.8200    7.8300
    7.8400    7.8500    7.8600    7.8700    7.8800    7.8900    7.9000    7.9100
    7.9200    7.9300    7.9400    7.9500    7.9600    7.9700    7.9800    7.9900
    8.0000    8.0100    8.0200    8.0300    8.0400    8.0500    8.0600    8.0700
    8.0800    8.0900    8.1000    8.1100    8.1200    8.1300    8.1400    8.1500
    8.1600    8.1700    8.1800    8.1900    8.2000    8.2100    8.2200    8.2300
    8.2400    8.2500    8.2600    8.2700    8.2800    8.2900    8.3000    8.3100
    8.3200    8.3300    8.3400    8.3500    8.3600    8.3700    8.3800    8.3900
    8.4000    8.4100    8.4200    8.4300    8.4400    8.4500    8.4600    8.4700
    8.4800    8.4900    8.5000    8.5100    8.5200    8.5300    8.5400    8.5500
    8.5600    8.5700    8.5800    8.5900    8.6000    8.6100    8.6200    8.6300
    8.6400    8.6500    8.6600    8.6700    8.6800    8.6900    8.7000    8.7100
    8.7200    8.7300    8.7400    8.7500    8.7600    8.7700    8.7800    8.7900
    8.8000    8.8100    8.8200    8.8300    8.8400    8.8500    8.8600    8.8700
    8.8800    8.8900    8.9000    8.9100    8.9200    8.9300    8.9400    8.9500
    8.9600    8.9700    8.9800    8.9900    9.0000    9.0100    9.0200    9.0300
    9.0400    9.0500    9.0600    9.0700    9.0800    9.0900    9.1000    9.1100
    9.1200    9.1300    9.1400    9.1500    9.1600    9.1700    9.1800    9.1900
    9.2000    9.2100    9.2200    9.2300    9.2400    9.2500    9.2600    9.2700
    9.2800    9.2900    9.3000    9.3100    9.3200    9.3300    9.3400    9.3500
    9.3600    9.3700    9.3800    9.3900    9.4000    9.4100    9.4200    9.4300
    9.4400    9.4500    9.4600    9.4700    9.4800    9.4900    9.5000    9.5100
    9.5200    9.5300    9.5400    9.5500    9.5600    9.5700    9.5800    9.5900
    9.6000    9.6100    9.6200    9.6300    9.6400    9.6500    9.6600    9.6700
    9.6800    9.6900    9.7000    9.7100    9.7200    9.7300    9.7400    9.7500
    9.7600    9.7700    9.7800    9.7900    9.8000    9.8100    9.8200    9.8300
    9.8400    9.8500    9.8600    9.8700    9.8800    9.8900    9.9000    9.9100
    9.9200    9.9300    9.9400    9.9500    9.9600    9.9700    9.9800    9.9900
   10.0000   10.0100   10.0200   10.0300   10.0400   10.0500   10.0600   10.0700
   10.0800   10.0900   10.1000   10.1100   10.1200   10.1300   10.1400   10.1500
   10.1600   10.1700   10.1800   10.1900   10.2000   10.2100   10.2200   10.2300
   10.2400   10.2500   10.2600   10.2700   10.2800   10.2900   10.3000   10.3100
   10.3200   10.3300   10.3400   10.3500   10.3600   10.3700   10.3800   10.3900
   10.4000   10.4100   10.4200   10.4300   10.4400   10.4500   10.4600   10.4700
   10.4800   10.4900   10.5000   10.5100   10.5200   10.5300   10.5400   10.5500
   10.5600   10.5700   10.5800   10.5900   10.6000   10.6100   10.6200   10.6300
   10.6400   10.6500   10.6600   10.6700   10.6800   10.6900   10.7000   10.7100
   10.7200   10.7300   10.7400   10.7500   10.7600   10.7700   10.7800   10.7900
   10.8000   10.8100   10.8200   10.8300   10.8400   10.8500   10.8600   10.8700
   10.8800   10.8900   10.9000   10.9100   10.9200   10.9300   10.9400   10.9500
   10.9600   10.9700   10.9800   10.9900   11.0000   11.0100   11.0200   11.0300
   11.0400   11.0500   11.0600   11.0700   11.0800   11.0900   11.1000   11.1100
   11.1200   11.1300   11.1400   11.1500   11.1600   11.1700   11.1800   11.1900
   11.2000   11.2100   11.2200   11.2300   11.2400   11.2500   11.2600   11.2700
   11.2800   11.2900   11.3000   11.3100   11.3200   11.3300   11.3400   11.3500
   11.3600   11.3700   11.3800   11.3900   11.4000   11.4100   11.4200   11.4300
   11.4400   11.4500   11.4600   11.4700   11.4800   11.4900   11.5000   11.5100
   11.5200   11.5300   11.5400   11.5500   11.5600   11.5700   11.5800   11.5900
   11.6000   11.6100   11.6200   11.6300   11.6400   11.6500   11.6600   11.6700
   11.6800   11.6900   11.7000   11.7100   11.7200   11.7300   11.7400   11.7500
   11.7600   11.7700   11.7800   11.7900   11.8000   11.8100   11.8200   11.8300
   11.8400   11.8500   11.8600   11.8700   11.8800   11.8900   11.9000   11.9100
   11.9200   11.9300   11.9400   11.9500   11.9600   11.9700   11.9800   11.9900
   12.0000   12.0100   12.0200   12.0300   12.0400   12.0500   12.0600   12.0700
   12.0800   12.0900   12.1000   12.1100   12.1200   12.1300   12.1400   12.1500
   12.1600   12.1700   12.1800   12.1900   12.2000   12.2100   12.2200   12.2300
   12.2400   12.2500   12.2600   12.2700   12.2800   12.2900   12.3000   12.3100
   12.3200   12.3300   12.3400   12.3500   12.3600   12.3700   12.3800   12.3900
   12.4000   12.4100   12.4200   12.4300   12.4400   12.4500   12.4600   12.4700
   12.4800   12.4900   12.5000   12.5100   12.5200   12.5300   12.5400   12.5500
   12.5600   12.5700   12.5800   12.5900   12.6000   12.6100   12.6200   12.6300
   12.6400   12.6500   12.6600   12.6700   12.6800   12.6900   12.7000   12.7100
   12.7200   12.7300   12.7400   12.7500   12.7600   12.7700   12.7800   12.7900
   12.8000   12.8100   12.8200   12.8300   12.8400   12.8500   12.8600   12.8700
   12.8800   12.8900   12.9000   12.9100   12.9200   12.9300   12.9400   12.9500
   12.9600   12.9700   12.9800   12.9900
   </PP_R>
   <PP_RAB type="real"  size="1300" columns="8">
    0.0100    0.0100    0.0100    0.0100    0.0100    0.0100    0.0100    0.0100
    0.0100    0.0100    0.0100    0.0100    0.0100    0.0100    0.0100    0.0100
    0.0100    0.0100    0.0100    0.0100    0.0100    0.0100    0.0100    0.0100
    0.0100    0.0100    0.0100    0.0100    0.0100    0.0100    0.0100    0.0100
    0.0100    0.0100    0.0100    0.0100    0.0100    0.0100    0.0100    0.0100
    0.0100    0.0100    0.0100    0.0100    0.0100    0.0100    0.0100    0.0100
    0.0100    0.0100    0.0100    0.0100    0.0100    0.0100    0.0100    0.0100
    0.0100    0.0100    0.0100    0.0100    0.0100    0.0100    0.0100    0.0100
    0.0100    0.0100    0.0100    0.0100    0.0100    0.0100    0.0100    0.0100
    0.0100    0.0100    0.0100    0.0100    0.0100    0.0100    0.0100    0.0100
    0.0100    0.0100    0.0100    0.0100    0.0100    0.0100    0.0100    0.0100
    0.0100    0.0100    0.0100    0.0100    0.0100    0.0100    0.0100    0.0100
    0.0100    0.0100    0.0100    0.0100    0.0100    0.0100    0.0100    0.0100
    0.0100    0.0100    0.0100    0.0100    0.0100    0.0100    0.0100    0.0100
    0.0100    0.0100    0.0100    0.0100    0.0100    0.0100    0.0100    0.0100
    0.0100    0.0100    0.0100    0.0100    0.0100    0.0100    0.0100    0.0100
    0.0100    0.0100    0.0100    0.0100    0.0100    0.0100    0.0100    0.0100
    0.0100    0.0100    0.0100    0.0100    0.0100    0.0100    0.0100    0.0100
    0.0100    0.0100    0.0100    0.0100    0.0100    0.0100    0.0100    0.0100
    0.0100    0.0100    0.0100    0.0100    0.0100    0.0100    0.0100    0.0100
    0.0100    0.0100    0.0100    0.0100    0.0100    0.0100    0.0100    0.0100
    0.0100    0.0100    0.0100    0.0100    0.0100    0.0100    0.0100    0.0100
    0.0100    0.0100    0.0100    0.0100    0.0100    0.0100    0.0100    0.0100
    0.0100    0.0100    0.0100    0.0100    0.0100    0.0100    0.0100    0.0100
    0.0100    0.0100    0.0100    0.0100    0.0100    0.0100    0.0100    0.0100
    0.0100    0.0100    0.0100    0.0100    0.0100    0.0100    0.0100    0.0100
    0.0100    0.0100    0.0100    0.0100    0.0100    0.0100    0.0100    0.0100
    0.0100    0.0100    0.0100    0.0100    0.0100    0.0100    0.0100    0.0100
    0.0100    0.0100    0.0100    0.0100    0.0100    0.0100    0.0100    0.0100
    0.0100    0.0100    0.0100    0.0100    0.0100    0.0100    0.0100    0.0100
    0.0100    0.0100    0.0100    0.0100    0.0100    0.0100    0.0100    0.0100
    0.0100    0.0100    0.0100    0.0100    0.0100    0.0100    0.0100    0.0100
    0.0100    0.0100    0.0100    0.0100    0.0100    0.0100    0.0100    0.0100
    0.0100    0.0100    0.0100    0.0100    0.0100    0.0100    0.0100    0.0100
    0.0100    0.0100    0.0100    0.0100    0.0100    0.0100    0.0100    0.0100
    0.0100    0.0100    0.0100    0.0100    0.0100    0.0100    0.0100    0.0100
    0.0100    0.0100    0.0100    0.0100    0.0100    0.0100    0.0100    0.0100
    0.0100    0.0100    0.0100    0.0100    0.0100    0.0100    0.0100    0.0100
    0.0100    0.0100    0.0100    0.0100    0.0100    0.0100    0.0100    0.0100
    0.0100    0.0100    0.0100    0.0100    0.0100    0.0100    0.0100    0.0100
    0.0100    0.0100    0.0100    0.0100    0.0100    0.0100    0.0100    0.0100
    0.0100    0.0100    0.0100    0.0100    0.0100    0.0100    0.0100    0.0100
    0.0100    0.0100    0.0100    0.0100    0.0100    0.0100    0.0100    0.0100
    0.0100    0.0100    0.0100    0.0100    0.0100    0.0100    0.0100    0.0100
    0.0100    0.0100    0.0100    0.0100    0.0100    0.0100    0.0100    0.0100
    0.0100    0.0100    0.0100    0.0100    0.0100    0.0100    0.0100    0.0100
    0.0100    0.0100    0.0100    0.0100    0.0100    0.0100    0.0100    0.0100
    0.0100    0.0100    0.0100    0.0100    0.0100    0.0100    0.0100    0.0100
    0.0100    0.0100    0.0100    0.0100    0.0100    0.0100    0.0100    0.0100
    0.0100    0.0100    0.0100    0.0100    0.0100    0.0100    0.0100    0.0100
    0.0100    0.0100    0.0100    0.0100    0.0100    0.0100    0.0100    0.0100
    0.0100    0.0100    0.0100    0.0100    0.0100    0.0100    0.0100    0.0100
    0.0100    0.0100    0.0100    0.0100    0.0100    0.0100    0.0100    0.0100
    0.0100    0.0100    0.0100    0.0100    0.0100    0.0100    0.0100    0.0100
    0.0100    0.0100    0.0100    0.0100    0.0100    0.0100    0.0100    0.0100
    0.0100    0.0100    0.0100    0.0100    0.0100    0.0100    0.0100    0.0100
    0.0100    0.0100    0.0100    0.0100    0.0100    0.0100    0.0100    0.0100
    0.0100    0.0100    0.0100    0.0100    0.0100    0.0100    0.0100    0.0100
    0.0100    0.0100    0.0100    0.0100    0.0100    0.0100    0.0100    0.0100
    0.0100    0.0100    0.0100    0.0100    0.0100    0.0100    0.0100    0.0100
    0.0100    0.0100    0.0100    0.0100    0.0100    0.0100    0.0100    0.0100
    0.0100    0.0100    0.0100    0.0100    0.0100    0.0100    0.0100    0.0100
    0.0100    0.0100    0.0100    0.0100    0.0100    0.0100    0.0100    0.0100
    0.0100    0.0100    0.0100    0.0100    0.0100    0.0100    0.0100    0.0100
    0.0100    0.0100    0.0100    0.0100    0.0100    0.0100    0.0100    0.0100
    0.0100    0.0100    0.0100    0.0100    0.0100    0.0100    0.0100    0.0100
    0.0100    0.0100    0.0100    0.0100    0.0100    0.0100    0.0100    0.0100
    0.0100    0.0100    0.0100    0.0100    0.0100    0.0100    0.0100    0.0100
    0.0100    0.0100    0.0100    0.0100    0.0100    0.0100    0.0100    0.0100
    0.0100    0.0100    0.0100    0.0100    0.0100    0.0100    0.0100    0.0100
    0.0100    0.0100    0.0100    0.0100    0.0100    0.0100    0.0100    0.0100
    0.0100    0.0100    0.0100    0.0100    0.0100    0.0100    0.0100    0.0100
    0.0100    0.0100    0.0100    0.0100    0.0100    0.0100    0.0100    0.0100
    0.0100    0.0100    0.0100    0.0100    0.0100    0.0100    0.0100    0.0100
    0.0100    0.0100    0.0100    0.0100    0.0100    0.0100    0.0100    0.0100
    0.0100    0.0100    0.0100    0.0100    0.0100    0.0100    0.0100    0.0100
    0.0100    0.0100    0.0100    0.0100    0.0100    0.0100    0.0100    0.0100
    0.0100    0.0100    0.0100    0.0100    0.0100    0.0100    0.0100    0.0100
    0.0100    0.0100    0.0100    0.0100    0.0100    0.0100    0.0100    0.0100
    0.0100    0.0100    0.0100    0.0100    0.0100    0.0100    0.0100    0.0100
    0.0100    0.0100    0.0100    0.0100    0.0100    0.0100    0.0100    0.0100
    0.0100    0.0100    0.0100    0.0100    0.0100    0.0100    0.0100    0.0100
    0.0100    0.0100    0.0100    0.0100    0.0100    0.0100    0.0100    0.0100
    0.0100    0.0100    0.0100    0.0100    0.0100    0.0100    0.0100    0.0100
    0.0100    0.0100    0.0100    0.0100    0.0100    0.0100    0.0100    0.0100
    0.0100    0.0100    0.0100    0.0100    0.0100    0.0100    0.0100    0.0100
    0.0100    0.0100    0.0100    0.0100    0.0100    0.0100    0.0100    0.0100
    0.0100    0.0100    0.0100    0.0100    0.0100    0.0100    0.0100    0.0100
    0.0100    0.0100    0.0100    0.0100    0.0100    0.0100    0.0100    0.0100
    0.0100    0.0100    0.0100    0.0100    0.0100    0.0100    0.0100    0.0100
    0.0100    0.0100    0.0100    0.0100    0.0100    0.0100    0.0100    0.0100
    0.0100    0.0100    0.0100    0.0100    0.0100    0.0100    0.0100    0.0100
    0.0100    0.0100    0.0100    0.0100    0.0100    0.0100    0.0100    0.0100
    0.0100    0.0100    0.0100    0.0100    0.0100    0.0100    0.0100    0.0100
    0.0100    0.0100    0.0100    0.0100    0.0100    0.0100    0.0100    0.0100
    0.0100    0.0100    0.0100    0.0100    0.0100    0.0100    0.0100    0.0100
    0.0100    0.0100    0.0100    0.0100    0.0100    0.0100    0.0100    0.0100
    0.0100    0.0100    0.0100    0.0100    0.0100    0.0100    0.0100    0.0100
    0.0100    0.0100    0.0100    0.0100    0.0100    0.0100    0.0100    0.0100
    0.0100    0.0100    0.0100    0.0100    0.0100    0.0100    0.0100    0.0100
    0.0100    0.0100    0.0100    0.0100    0.0100    0.0100    0.0100    0.0100
    0.0100    0.0100    0.0100    0.0100    0.0100    0.0100    0.0100    0.0100
    0.0100    0.0100    0.0100    0.0100    0.0100    0.0100    0.0100    0.0100
    0.0100    0.0100    0.0100    0.0100    0.0100    0.0100    0.0100    0.0100
    0.0100    0.0100    0.0100    0.0100    0.0100    0.0100    0.0100    0.0100
    0.0100    0.0100    0.0100    0.0100    0.0100    0.0100    0.0100    0.0100
    0.0100    0.0100    0.0100    0.0100    0.0100    0.0100    0.0100    0.0100
    0.0100    0.0100    0.0100    0.0100    0.0100    0.0100    0.0100    0.0100
    0.0100    0.0100    0.0100    0.0100    0.0100    0.0100    0.0100    0.0100
    0.0100    0.0100    0.0100    0.0100    0.0100    0.0100    0.0100    0.0100
    0.0100    0.0100    0.0100    0.0100    0.0100    0.0100    0.0100    0.0100
    0.0100    0.0100    0.0100    0.0100    0.0100    0.0100    0.0100    0.0100
    0.0100    0.0100    0.0100    0.0100    0.0100    0.0100    0.0100    0.0100
    0.0100    0.0100    0.0100    0.0100    0.0100    0.0100    0.0100    0.0100
    0.0100    0.0100    0.0100    0.0100    0.0100    0.0100    0.0100    0.0100
    0.0100    0.0100    0.0100    0.0100    0.0100    0.0100    0.0100    0.0100
    0.0100    0.0100    0.0100    0.0100    0.0100    0.0100    0.0100    0.0100
    0.0100    0.0100    0.0100    0.0100    0.0100    0.0100    0.0100    0.0100
    0.0100    0.0100    0.0100    0.0100    0.0100    0.0100    0.0100    0.0100
    0.0100    0.0100    0.0100    0.0100    0.0100    0.0100    0.0100    0.0100
    0.0100    0.0100    0.0100    0.0100    0.0100    0.0100    0.0100    0.0100
    0.0100    0.0100    0.0100    0.0100    0.0100    0.0100    0.0100    0.0100
    0.0100    0.0100    0.0100    0.0100    0.0100    0.0100    0.0100    0.0100
    0.0100    0.0100    0.0100    0.0100    0.0100    0.0100    0.0100    0.0100
    0.0100    0.0100    0.0100    0.0100    0.0100    0.0100    0.0100    0.0100
    0.0100    0.0100    0.0100    0.0100    0.0100    0.0100    0.0100    0.0100
    0.0100    0.0100    0.0100    0.0100    0.0100    0.0100    0.0100    0.0100
    0.0100    0.0100    0.0100    0.0100    0.0100    0.0100    0.0100    0.0100
    0.0100    0.0100    0.0100    0.0100    0.0100    0.0100    0.0100    0.0100
    0.0100    0.0100    0.0100    0.0100    0.0100    0.0100    0.0100    0.0100
    0.0100    0.0100    0.0100    0.0100    0.0100    0.0100    0.0100    0.0100
    0.0100    0.0100    0.0100    0.0100    0.0100    0.0100    0.0100    0.0100
    0.0100    0.0100    0.0100    0.0100    0.0100    0.0100    0.0100    0.0100
    0.0100    0.0100    0.0100    0.0100    0.0100    0.0100    0.0100    0.0100
    0.0100    0.0100    0.0100    0.0100    0.0100    0.0100    0.0100    0.0100
    0.0100    0.0100    0.0100    0.0100    0.0100    0.0100    0.0100    0.0100
    0.0100    0.0100    0.0100    0.0100    0.0100    0.0100    0.0100    0.0100
    0.0100    0.0100    0.0100    0.0100    0.0100    0.0100    0.0100    0.0100
    0.0100    0.0100    0.0100    0.0100    0.0100    0.0100    0.0100    0.0100
    0.0100    0.0100    0.0100    0.0100    0.0100    0.0100    0.0100    0.0100
    0.0100    0.0100    0.0100    0.0100    0.0100    0.0100    0.0100    0.0100
    0.0100    0.0100    0.0100    0.0100    0.0100    0.0100    0.0100    0.0100
    0.0100    0.0100    0.0100    0.0100    0.0100    0.0100    0.0100    0.0100
    0.0100    0.0100    0.0100    0.0100    0.0100    0.0100    0.0100    0.0100
    0.0100    0.0100    0.0100    0.0100    0.0100    0.0100    0.0100    0.0100
    0.0100    0.0100    0.0100    0.0100    0.0100    0.0100    0.0100    0.0100
    0.0100    0.0100    0.0100    0.0100    0.0100    0.0100    0.0100    0.0100
    0.0100    0.0100    0.0100    0.0100    0.0100    0.0100    0.0100    0.0100
    0.0100    0.0100    0.0100    0.0100    0.0100    0.0100    0.0100    0.0100
    0.0100    0.0100    0.0100    0.0100    0.0100    0.0100    0.0100    0.0100
    0.0100    0.0100    0.0100    0.0100    0.0100    0.0100    0.0100    0.0100
    0.0100    0.0100    0.0100    0.0100    0.0100    0.0100    0.0100    0.0100
    0.0100    0.0100    0.0100    0.0100    0.0100    0.0100    0.0100    0.0100
    0.0100    0.0100    0.0100    0.0100    0.0100    0.0100    0.0100    0.0100
    0.0100    0.0100    0.0100    0.0100    0.0100    0.0100    0.0100    0.0100
    0.0100    0.0100    0.0100    0.0100    0.0100    0.0100    0.0100    0.0100
    0.0100    0.0100    0.0100    0.0100    0.0100    0.0100    0.0100    0.0100
    0.0100    0.0100    0.0100    0.0100    0.0100    0.0100    0.0100    0.0100
    0.0100    0.0100    0.0100    0.0100    0.0100    0.0100    0.0100    0.0100
    0.0100    0.0100    0.0100    0.0100    0.0100    0.0100    0.0100    0.0100
    0.0100    0.0100    0.0100    0.0100    0.0100    0.0100    0.0100    0.0100
    0.0100    0.0100    0.0100    0.0100    0.0100    0.0100    0.0100    0.0100
    0.0100    0.0100    0.0100    0.0100
   </PP_RAB>
 </PP_MESH>
  <PP_LOCAL type="real"  size="1300" columns="4">
   -1.4683363756E+01   -1.4683289574E+01   -1.4681248306E+01   -1.4677847823E+01
   -1.4673090567E+01   -1.4666979951E+01   -1.4659520347E+01   -1.4650717079E+01
   -1.4640576408E+01   -1.4629105518E+01   -1.4616312490E+01   -1.4602206287E+01
   -1.4586796719E+01   -1.4570094413E+01   -1.4552110780E+01   -1.4532857972E+01
   -1.4512348843E+01   -1.4490596896E+01   -1.4467616234E+01   -1.4443421509E+01
   -1.4418027866E+01   -1.4391450883E+01   -1.4363706515E+01   -1.4334811038E+01
   -1.4304780990E+01   -1.4273633114E+01   -1.4241384310E+01   -1.4208051581E+01
   -1.4173651990E+01   -1.4138202617E+01   -1.4101720523E+01   -1.4064222718E+01
   -1.4025726136E+01   -1.3986247613E+01   -1.3945803869E+01   -1.3904411499E+01
   -1.3862086966E+01   -1.3818846595E+01   -1.3774706574E+01   -1.3729682953E+01
   -1.3683791653E+01   -1.3637048463E+01   -1.3589469044E+01   -1.3541068937E+01
   -1.3491863552E+01   -1.3441868177E+01   -1.3391097959E+01   -1.3339567905E+01
   -1.3287292857E+01   -1.3234287477E+01   -1.3180566217E+01   -1.3126143293E+01
   -1.3071032642E+01   -1.3015247885E+01   -1.2958802278E+01   -1.2901708660E+01
   -1.2843979401E+01   -1.2785626339E+01   -1.2726660725E+01   -1.2667093159E+01
   -1.2606933528E+01   -1.2546190949E+01   -1.2484873710E+01   -1.2422989218E+01
   -1.2360543958E+01   -1.2297543457E+01   -1.2233992260E+01   -1.2169893927E+01
   -1.2105251045E+01   -1.2040065263E+01   -1.1974337363E+01   -1.1908067349E+01
   -1.1841254589E+01   -1.1773897982E+01   -1.1705996183E+01   -1.1637547864E+01
   -1.1568552025E+01   -1.1499008354E+01   -1.1428917621E+01   -1.1358282108E+01
   -1.1287106067E+01   -1.1215396176E+01   -1.1143161999E+01   -1.1070416405E+01
   -1.0997175945E+01   -1.0923461159E+01   -1.0849296778E+01   -1.0774711831E+01
   -1.0699739608E+01   -1.0624417507E+01   -1.0548786733E+01   -1.0472891872E+01
   -1.0396780356E+01   -1.0320501829E+01   -1.0244107452E+01   -1.0167649177E+01
   -1.0091179011E+01   -1.0014748328E+01   -9.9384072279E+00   -9.8622039865E+00
   -9.7861846092E+00   -9.7103924943E+00   -9.6348682122E+00   -9.5596493948E+00
   -9.4847707255E+00   -9.4102640146E+00   -9.3361583436E+00   -9.2624802604E+00
   -9.1892540056E+00   -9.1165017554E+00   -9.0442438653E+00   -8.9724991027E+00
   -8.9012848609E+00   -8.8306173465E+00   -8.7605117381E+00   -8.6909823146E+00
   -8.6220425540E+00   -8.5537052043E+00   -8.4859823298E+00   -8.4188853364E+00
   -8.3524249803E+00   -8.2866113633E+00   -8.2214539197E+00   -8.1569613981E+00
   -8.0931418424E+00   -8.0300025729E+00   -7.9675501738E+00   -7.9057904853E+00
   -7.8447286047E+00   -7.7843688961E+00   -7.7247150092E+00   -7.6657699078E+00
   -7.6075359048E+00   -7.5500147045E+00   -7.4932074477E+00   -7.4371147586E+00
   -7.3817367880E+00   -7.3270732503E+00   -7.2731234504E+00   -7.2198862977E+00
   -7.1673603001E+00   -7.1155435318E+00   -7.0644335846E+00   -7.0140274870E+00
   -6.9643216844E+00   -6.9153119150E+00   -6.8669900851E+00   -6.8193415437E+00
   -6.7723521170E+00   -6.7260120562E+00   -6.6803116418E+00   -6.6352411191E+00
   -6.5907914178E+00   -6.5469536911E+00   -6.5037196018E+00   -6.4610807652E+00
   -6.4190246473E+00   -6.3775332301E+00   -6.3365911765E+00   -6.2961884593E+00
   -6.2563148899E+00   -6.2169598281E+00   -6.1781133073E+00   -6.1397655343E+00
   -6.1019069630E+00   -6.0645282849E+00   -6.0276204169E+00   -5.9911744923E+00
   -5.9551818520E+00   -5.9196340361E+00   -5.8845227757E+00   -5.8498399859E+00
   -5.8155777584E+00   -5.7817283558E+00   -5.7482842051E+00   -5.7152378930E+00
   -5.6825821608E+00   -5.6503099003E+00   -5.6184141493E+00   -5.5868880891E+00
   -5.5557250402E+00   -5.5249184603E+00   -5.4944619415E+00   -5.4643492077E+00
   -5.4345741130E+00   -5.4051306395E+00   -5.3760128955E+00   -5.3472151142E+00
   -5.3187316518E+00   -5.2905569862E+00   -5.2626857158E+00   -5.2351125579E+00
   -5.2078323473E+00   -5.1808400353E+00   -5.1541306878E+00   -5.1276994845E+00
   -5.1015417169E+00   -5.0756527871E+00   -5.0500282064E+00   -5.0246635935E+00
   -4.9995546725E+00   -4.9746972720E+00   -4.9500873224E+00   -4.9257208546E+00
   -4.9015939978E+00   -4.8777029777E+00   -4.8540441140E+00   -4.8306138187E+00
   -4.8074085936E+00   -4.7844250282E+00   -4.7616597974E+00   -4.7391096590E+00
   -4.7167714514E+00   -4.6946420913E+00   -4.6727185711E+00   -4.6509979565E+00
   -4.6294773841E+00   -4.6081540589E+00   -4.5870252517E+00   -4.5660882971E+00
   -4.5453405905E+00   -4.5247795860E+00   -4.5044027944E+00   -4.4842077801E+00
   -4.4641921596E+00   -4.4443535986E+00   -4.4246898106E+00   -4.4051985542E+00
   -4.3858776313E+00   -4.3667248852E+00   -4.3477381988E+00   -4.3289154926E+00
   -4.3102547231E+00   -4.2917538815E+00   -4.2734109916E+00   -4.2552241089E+00
   -4.2371913189E+00   -4.2193107361E+00   -4.2015805030E+00   -4.1839987884E+00
   -4.1665637872E+00   -4.1492737190E+00   -4.1321268276E+00   -4.1151213802E+00
   -4.0982556668E+00   -4.0815279996E+00   -4.0649367125E+00   -4.0484801609E+00
   -4.0321567211E+00   -4.0159647904E+00   -3.9999027865E+00   -3.9839691474E+00
   -3.9681623314E+00   -3.9524808171E+00   -3.9369231032E+00   -3.9214877083E+00
   -3.9061731714E+00   -3.8909780515E+00   -3.8759009277E+00   -3.8609403994E+00
   -3.8460950863E+00   -3.8313636284E+00   -3.8167446859E+00   -3.8022369395E+00
   -3.7878390903E+00   -3.7735498597E+00   -3.7593679896E+00   -3.7452922420E+00
   -3.7313213994E+00   -3.7174542643E+00   -3.7036896593E+00   -3.6900264268E+00
   -3.6764634290E+00   -3.6629995473E+00   -3.6496336828E+00   -3.6363647551E+00
   -3.6231917027E+00   -3.6101134824E+00   -3.5971290688E+00   -3.5842374544E+00
   -3.5714376486E+00   -3.5587286776E+00   -3.5461095841E+00   -3.5335794263E+00
   -3.5211372783E+00   -3.5087822286E+00   -3.4965133805E+00   -3.4843298511E+00
   -3.4722307709E+00   -3.4602152835E+00   -3.4482825451E+00   -3.4364317237E+00
   -3.4246619990E+00   -3.4129725618E+00   -3.4013626135E+00   -3.3898313661E+00
   -3.3783780413E+00   -3.3670018704E+00   -3.3557020940E+00   -3.3444779613E+00
   -3.3333287305E+00   -3.3222536677E+00   -3.3112520475E+00   -3.3003231520E+00
   -3.2894662715E+00   -3.2786807032E+00   -3.2679657523E+00   -3.2573207308E+00
   -3.2467449583E+00   -3.2362377613E+00   -3.2257984734E+00   -3.2154264355E+00
   -3.2051209951E+00   -3.1948815073E+00   -3.1847073338E+00   -3.1745978438E+00
   -3.1645524133E+00   -3.1545704256E+00   -3.1446512712E+00   -3.1347943480E+00
   -3.1249990610E+00   -3.1152648227E+00   -3.1055910527E+00   -3.0959771784E+00
   -3.0864226344E+00   -3.0769268627E+00   -3.0674893129E+00   -3.0581094420E+00
   -3.0487867144E+00   -3.0395206018E+00   -3.0303105834E+00   -3.0211561455E+00
   -3.0120567819E+00   -3.0030119933E+00   -2.9940212872E+00   -2.9850841818E+00
   -2.9762001880E+00   -2.9673688198E+00   -2.9585896819E+00   -2.9498623728E+00
   -2.9411862909E+00   -2.9325607804E+00   -2.9239852562E+00   -2.9154592544E+00
   -2.9069826764E+00   -2.8985555744E+00   -2.8901776940E+00   -2.8818485278E+00
   -2.8735674665E+00   -2.8653338628E+00   -2.8571472109E+00   -2.8490071699E+00
   -2.8409133899E+00   -2.8328654689E+00   -2.8248630152E+00   -2.8169056461E+00
   -2.8089929792E+00   -2.8011246396E+00   -2.7933002564E+00   -2.7855194622E+00
   -2.7777818937E+00   -2.7700871919E+00   -2.7624350014E+00   -2.7548249711E+00
   -2.7472567534E+00   -2.7397300048E+00   -2.7322443854E+00   -2.7247995589E+00
   -2.7173951930E+00   -2.7100309586E+00   -2.7027065304E+00   -2.6954215866E+00
   -2.6881758087E+00   -2.6809688819E+00   -2.6738004944E+00   -2.6666703380E+00
   -2.6595781077E+00   -2.6525235016E+00   -2.6455062213E+00   -2.6385259713E+00
   -2.6315824592E+00   -2.6246753958E+00   -2.6178044949E+00   -2.6109694732E+00
   -2.6041700504E+00   -2.5974059492E+00   -2.5906768951E+00   -2.5839826164E+00
   -2.5773228441E+00   -2.5706973123E+00   -2.5641057576E+00   -2.5575479191E+00
   -2.5510235391E+00   -2.5445323619E+00   -2.5380741349E+00   -2.5316486078E+00
   -2.5252555328E+00   -2.5188946648E+00   -2.5125657610E+00   -2.5062685811E+00
   -2.5000028871E+00   -2.4937684435E+00   -2.4875650172E+00   -2.4813923771E+00
   -2.4752502947E+00   -2.4691385436E+00   -2.4630568998E+00   -2.4570051413E+00
   -2.4509830484E+00   -2.4449904035E+00   -2.4390269911E+00   -2.4330925978E+00
   -2.4271870124E+00   -2.4213100256E+00   -2.4154614301E+00   -2.4096410208E+00
   -2.4038485943E+00   -2.3980839494E+00   -2.3923468866E+00   -2.3866372085E+00
   -2.3809547195E+00   -2.3752992258E+00   -2.3696705356E+00   -2.3640684587E+00
   -2.3584928068E+00   -2.3529433934E+00   -2.3474200338E+00   -2.3419225448E+00
   -2.3364507452E+00   -2.3310044553E+00   -2.3255834971E+00   -2.3201876944E+00
   -2.3148168723E+00   -2.3094708579E+00   -2.3041494797E+00   -2.2988525677E+00
   -2.2935799536E+00   -2.2883314707E+00   -2.2831069536E+00   -2.2779062385E+00
   -2.2727291632E+00   -2.2675755669E+00   -2.2624452901E+00   -2.2573381750E+00
   -2.2522540651E+00   -2.2471928053E+00   -2.2421542419E+00   -2.2371382225E+00
   -2.2321445963E+00   -2.2271732135E+00   -2.2222239259E+00   -2.2172965865E+00
   -2.2123910496E+00   -2.2075071709E+00   -2.2026448073E+00   -2.1978038168E+00
   -2.1929840588E+00   -2.1881853941E+00   -2.1834076843E+00   -2.1786507926E+00
   -2.1739145832E+00   -2.1691989215E+00   -2.1645036741E+00   -2.1598287086E+00
   -2.1551738940E+00   -2.1505391002E+00   -2.1459241984E+00   -2.1413290608E+00
   -2.1367535606E+00   -2.1321975723E+00   -2.1276609713E+00   -2.1231436342E+00
   -2.1186454384E+00   -2.1141662626E+00   -2.1097059864E+00   -2.1052644905E+00
   -2.1008416564E+00   -2.0964373669E+00   -2.0920515054E+00   -2.0876839567E+00
   -2.0833346061E+00   -2.0790033403E+00   -2.0746900467E+00   -2.0703946137E+00
   -2.0661169304E+00   -2.0618568873E+00   -2.0576143752E+00   -2.0533892863E+00
   -2.0491815135E+00   -2.0449909505E+00   -2.0408174919E+00   -2.0366610333E+00
   -2.0325214709E+00   -2.0283987020E+00   -2.0242926245E+00   -2.0202031374E+00
   -2.0161301403E+00   -2.0120735335E+00   -2.0080332185E+00   -2.0040090971E+00
   -2.0000010724E+00   -1.9960090478E+00   -1.9920329279E+00   -1.9880726176E+00
   -1.9841280229E+00   -1.9801990505E+00   -1.9762856076E+00   -1.9723876025E+00
   -1.9685049440E+00   -1.9646375416E+00   -1.9607853055E+00   -1.9569481467E+00
   -1.9531259769E+00   -1.9493187085E+00   -1.9455262543E+00   -1.9417485283E+00
   -1.9379854446E+00   -1.9342369184E+00   -1.9305028653E+00   -1.9267832017E+00
   -1.9230778446E+00   -1.9193867115E+00   -1.9157097208E+00   -1.9120467913E+00
   -1.9083978425E+00   -1.9047627945E+00   -1.9011415680E+00   -1.8975340844E+00
   -1.8939402655E+00   -1.8903600340E+00   -1.8867933127E+00   -1.8832400255E+00
   -1.8797000966E+00   -1.8761734507E+00   -1.8726600133E+00   -1.8691597103E+00
   -1.8656724682E+00   -1.8621982140E+00   -1.8587368752E+00   -1.8552883801E+00
   -1.8518526572E+00   -1.8484296357E+00   -1.8450192454E+00   -1.8416214163E+00
   -1.8382360793E+00   -1.8348631656E+00   -1.8315026070E+00   -1.8281543356E+00
   -1.8248182842E+00   -1.8214943860E+00   -1.8181825747E+00   -1.8148827846E+00
   -1.8115949503E+00   -1.8083190069E+00   -1.8050548900E+00   -1.8018025358E+00
   -1.7985618806E+00   -1.7953328617E+00   -1.7921154162E+00   -1.7889094823E+00
   -1.7857149981E+00   -1.7825319025E+00   -1.7793601346E+00   -1.7761996342E+00
   -1.7730503412E+00   -1.7699121962E+00   -1.7667851400E+00   -1.7636691141E+00
   -1.7605640600E+00   -1.7574699201E+00   -1.7543866368E+00   -1.7513141532E+00
   -1.7482524125E+00   -1.7452013585E+00   -1.7421609354E+00   -1.7391310876E+00
   -1.7361117602E+00   -1.7331028985E+00   -1.7301044480E+00   -1.7271163548E+00
   -1.7241385655E+00   -1.7211710267E+00   -1.7182136857E+00   -1.7152664899E+00
   -1.7123293873E+00   -1.7094023261E+00   -1.7064852548E+00   -1.7035781225E+00
   -1.7006808783E+00   -1.6977934721E+00   -1.6949158536E+00   -1.6920479733E+00
   -1.6891897818E+00   -1.6863412301E+00   -1.6835022695E+00   -1.6806728515E+00
   -1.6778529283E+00   -1.6750424521E+00   -1.6722413755E+00   -1.6694496514E+00
   -1.6666672330E+00   -1.6638940739E+00   -1.6611301280E+00   -1.6583753494E+00
   -1.6556296926E+00   -1.6528931124E+00   -1.6501655638E+00   -1.6474470022E+00
   -1.6447373832E+00   -1.6420366628E+00   -1.6393447972E+00   -1.6366617430E+00
   -1.6339874569E+00   -1.6313218961E+00   -1.6286650179E+00   -1.6260167799E+00
   -1.6233771401E+00   -1.6207460567E+00   -1.6181234882E+00   -1.6155093932E+00
   -1.6129037308E+00   -1.6103064602E+00   -1.6077175409E+00   -1.6051369328E+00
   -1.6025645959E+00   -1.6000004905E+00   -1.5974445770E+00   -1.5948968165E+00
   -1.5923571698E+00   -1.5898255983E+00   -1.5873020636E+00   -1.5847865274E+00
   -1.5822789517E+00   -1.5797792989E+00   -1.5772875314E+00   -1.5748036120E+00
   -1.5723275037E+00   -1.5698591696E+00   -1.5673985733E+00   -1.5649456784E+00
   -1.5625004488E+00   -1.5600628486E+00   -1.5576328422E+00   -1.5552103941E+00
   -1.5527954692E+00   -1.5503880324E+00   -1.5479880489E+00   -1.5455954843E+00
   -1.5432103042E+00   -1.5408324743E+00   -1.5384619609E+00   -1.5360987301E+00
   -1.5337427486E+00   -1.5313939829E+00   -1.5290524000E+00   -1.5267179669E+00
   -1.5243906510E+00   -1.5220704198E+00   -1.5197572410E+00   -1.5174510825E+00
   -1.5151519123E+00   -1.5128596988E+00   -1.5105744104E+00   -1.5082960157E+00
   -1.5060244837E+00   -1.5037597834E+00   -1.5015018840E+00   -1.4992507549E+00
   -1.4970063657E+00   -1.4947686862E+00   -1.4925376864E+00   -1.4903133363E+00
   -1.4880956063E+00   -1.4858844669E+00   -1.4836798888E+00   -1.4814818427E+00
   -1.4792902998E+00   -1.4771052311E+00   -1.4749266080E+00   -1.4727544022E+00
   -1.4705885851E+00   -1.4684291288E+00   -1.4662760051E+00   -1.4641291864E+00
   -1.4619886449E+00   -1.4598543532E+00   -1.4577262840E+00   -1.4556044099E+00
   -1.4534887041E+00   -1.4513791398E+00   -1.4492756900E+00   -1.4471783285E+00
   -1.4450870286E+00   -1.4430017643E+00   -1.4409225094E+00   -1.4388492379E+00
   -1.4367819242E+00   -1.4347205424E+00   -1.4326650672E+00   -1.4306154733E+00
   -1.4285717352E+00   -1.4265338282E+00   -1.4245017271E+00   -1.4224754072E+00
   -1.4204548440E+00   -1.4184400128E+00   -1.4164308894E+00   -1.4144274496E+00
   -1.4124296691E+00   -1.4104375242E+00   -1.4084509909E+00   -1.4064700456E+00
   -1.4044946648E+00   -1.4025248250E+00   -1.4005605030E+00   -1.3986016756E+00
   -1.3966483198E+00   -1.3947004127E+00   -1.3927579316E+00   -1.3908208537E+00
   -1.3888891566E+00   -1.3869628178E+00   -1.3850418152E+00   -1.3831261266E+00
   -1.3812157300E+00   -1.3793106034E+00   -1.3774107251E+00   -1.3755160734E+00
   -1.3736266268E+00   -1.3717423639E+00   -1.3698632634E+00   -1.3679893040E+00
   -1.3661204648E+00   -1.3642567247E+00   -1.3623980629E+00   -1.3605444588E+00
   -1.3586958915E+00   -1.3568523408E+00   -1.3550137861E+00   -1.3531802073E+00
   -1.3513515840E+00   -1.3495278964E+00   -1.3477091243E+00   -1.3458952480E+00
   -1.3440862477E+00   -1.3422821037E+00   -1.3404827967E+00   -1.3386883070E+00
   -1.3368986155E+00   -1.3351137029E+00   -1.3333335500E+00   -1.3315581379E+00
   -1.3297874476E+00   -1.3280214604E+00   -1.3262601574E+00   -1.3245035202E+00
   -1.3227515302E+00   -1.3210041690E+00   -1.3192614182E+00   -1.3175232597E+00
   -1.3157896752E+00   -1.3140606469E+00   -1.3123361566E+00   -1.3106161867E+00
   -1.3089007193E+00   -1.3071897368E+00   -1.3054832216E+00   -1.3037811563E+00
   -1.3020835234E+00   -1.3003903058E+00   -1.2987014860E+00   -1.2970170472E+00
   -1.2953369722E+00   -1.2936612440E+00   -1.2919898460E+00   -1.2903227612E+00
   -1.2886599730E+00   -1.2870014649E+00   -1.2853472203E+00   -1.2836972228E+00
   -1.2820514560E+00   -1.2804099038E+00   -1.2787725499E+00   -1.2771393783E+00
   -1.2755103730E+00   -1.2738855180E+00   -1.2722647974E+00   -1.2706481957E+00
   -1.2690356969E+00   -1.2674272856E+00   -1.2658229463E+00   -1.2642226634E+00
   -1.2626264217E+00   -1.2610342058E+00   -1.2594460005E+00   -1.2578617908E+00
   -1.2562815614E+00   -1.2547052975E+00   -1.2531329841E+00   -1.2515646065E+00
   -1.2500001498E+00   -1.2484395993E+00   -1.2468829405E+00   -1.2453301589E+00
   -1.2437812398E+00   -1.2422361690E+00   -1.2406949322E+00   -1.2391575150E+00
   -1.2376239033E+00   -1.2360940830E+00   -1.2345680401E+00   -1.2330457605E+00
   -1.2315272303E+00   -1.2300124358E+00   -1.2285013631E+00   -1.2269939986E+00
   -1.2254903287E+00   -1.2239903397E+00   -1.2224940181E+00   -1.2210013506E+00
   -1.2195123237E+00   -1.2180269242E+00   -1.2165451388E+00   -1.2150669543E+00
   -1.2135923577E+00   -1.2121213358E+00   -1.2106538758E+00   -1.2091899646E+00
   -1.2077295895E+00   -1.2062727376E+00   -1.2048193961E+00   -1.2033695525E+00
   -1.2019231941E+00   -1.2004803084E+00   -1.1990408828E+00   -1.1976049049E+00
   -1.1961723624E+00   -1.1947432429E+00   -1.1933175343E+00   -1.1918952242E+00
   -1.1904763006E+00   -1.1890607513E+00   -1.1876485645E+00   -1.1862397280E+00
   -1.1848342299E+00   -1.1834320585E+00   -1.1820332020E+00   -1.1806376485E+00
   -1.1792453864E+00   -1.1778564041E+00   -1.1764706900E+00   -1.1750882326E+00
   -1.1737090204E+00   -1.1723330420E+00   -1.1709602860E+00   -1.1695907411E+00
   -1.1682243962E+00   -1.1668612398E+00   -1.1655012611E+00   -1.1641444487E+00
   -1.1627907917E+00   -1.1614402791E+00   -1.1600929000E+00   -1.1587486434E+00
   -1.1574074985E+00   -1.1560694546E+00   -1.1547345008E+00   -1.1534026264E+00
   -1.1520738210E+00   -1.1507480737E+00   -1.1494253742E+00   -1.1481057119E+00
   -1.1467890763E+00   -1.1454754571E+00   -1.1441648438E+00   -1.1428572263E+00
   -1.1415525942E+00   -1.1402509373E+00   -1.1389522455E+00   -1.1376565086E+00
   -1.1363637165E+00   -1.1350738593E+00   -1.1337869269E+00   -1.1325029095E+00
   -1.1312217971E+00   -1.1299435798E+00   -1.1286682479E+00   -1.1273957916E+00
   -1.1261262013E+00   -1.1248594671E+00   -1.1235955795E+00   -1.1223345290E+00
   -1.1210763059E+00   -1.1198209008E+00   -1.1185683042E+00   -1.1173185067E+00
   -1.1160714990E+00   -1.1148272716E+00   -1.1135858154E+00   -1.1123471210E+00
   -1.1111111793E+00   -1.1098779810E+00   -1.1086475171E+00   -1.1074197786E+00
   -1.1061947562E+00   -1.1049724411E+00   -1.1037528243E+00   -1.1025358968E+00
   -1.1013216497E+00   -1.1001100743E+00   -1.0989011617E+00   -1.0976949031E+00
   -1.0964912898E+00   -1.0952903132E+00   -1.0940919644E+00   -1.0928962351E+00
   -1.0917031165E+00   -1.0905126001E+00   -1.0893246775E+00   -1.0881393401E+00
   -1.0869565795E+00   -1.0857763874E+00   -1.0845987553E+00   -1.0834236750E+00
   -1.0822511381E+00   -1.0810811365E+00   -1.0799136619E+00   -1.0787487061E+00
   -1.0775862609E+00   -1.0764263184E+00   -1.0752688704E+00   -1.0741139088E+00
   -1.0729614257E+00   -1.0718114130E+00   -1.0706638630E+00   -1.0695187675E+00
   -1.0683761189E+00   -1.0672359092E+00   -1.0660981307E+00   -1.0649627756E+00
   -1.0638298361E+00   -1.0626993046E+00   -1.0615711733E+00   -1.0604454347E+00
   -1.0593220811E+00   -1.0582011050E+00   -1.0570824989E+00   -1.0559662551E+00
   -1.0548523663E+00   -1.0537408250E+00   -1.0526316238E+00   -1.0515247553E+00
   -1.0504202122E+00   -1.0493179871E+00   -1.0482180727E+00   -1.0471204618E+00
   -1.0460251472E+00   -1.0449321217E+00   -1.0438413780E+00   -1.0427529091E+00
   -1.0416667079E+00   -1.0405827672E+00   -1.0395010800E+00   -1.0384216393E+00
   -1.0373444381E+00   -1.0362694695E+00   -1.0351967265E+00   -1.0341262022E+00
   -1.0330578897E+00   -1.0319917822E+00   -1.0309278728E+00   -1.0298661548E+00
   -1.0288066215E+00   -1.0277492660E+00   -1.0266940816E+00   -1.0256410618E+00
   -1.0245901998E+00   -1.0235414890E+00   -1.0224949227E+00   -1.0214504946E+00
   -1.0204081979E+00   -1.0193680261E+00   -1.0183299729E+00   -1.0172940317E+00
   -1.0162601960E+00   -1.0152284595E+00   -1.0141988158E+00   -1.0131712585E+00
   -1.0121457812E+00   -1.0111223778E+00   -1.0101010418E+00   -1.0090817670E+00
   -1.0080645472E+00   -1.0070493762E+00   -1.0060362479E+00   -1.0050251559E+00
   -1.0040160943E+00   -1.0030090568E+00   -1.0020040375E+00   -1.0010010302E+00
   -1.0000000290E+00   -9.9900102769E-01   -9.9800402045E-01   -9.9700900126E-01
   -9.9601596418E-01   -9.9502490329E-01   -9.9403581271E-01   -9.9304868656E-01
   -9.9206351899E-01   -9.9108030418E-01   -9.9009903634E-01   -9.8911970968E-01
   -9.8814231845E-01   -9.8716685692E-01   -9.8619331937E-01   -9.8522170013E-01
   -9.8425199353E-01   -9.8328419392E-01   -9.8231829569E-01   -9.8135429323E-01
   -9.8039218098E-01   -9.7943195337E-01   -9.7847360488E-01   -9.7751713000E-01
   -9.7656252323E-01   -9.7560977912E-01   -9.7465889220E-01   -9.7370985706E-01
   -9.7276266830E-01   -9.7181732052E-01   -9.7087380837E-01   -9.6993212651E-01
   -9.6899226962E-01   -9.6805423239E-01   -9.6711800954E-01   -9.6618359583E-01
   -9.6525098600E-01   -9.6432017485E-01   -9.6339115716E-01   -9.6246392777E-01
   -9.6153848151E-01   -9.6061481325E-01   -9.5969291787E-01   -9.5877279026E-01
   -9.5785442535E-01   -9.5693781808E-01   -9.5602296341E-01   -9.5510985631E-01
   -9.5419849178E-01   -9.5328886484E-01   -9.5238097052E-01   -9.5147480388E-01
   -9.5057035999E-01   -9.4966763395E-01   -9.4876662086E-01   -9.4786731585E-01
   -9.4696971407E-01   -9.4607381069E-01   -9.4517960089E-01   -9.4428707987E-01
   -9.4339624285E-01   -9.4250708508E-01   -9.4161960180E-01   -9.4073378830E-01
   -9.3984963986E-01   -9.3896715179E-01   -9.3808631942E-01   -9.3720713810E-01
   -9.3632960319E-01   -9.3545371006E-01   -9.3457945412E-01   -9.3370683078E-01
   -9.3283583547E-01   -9.3196646363E-01   -9.3109871074E-01   -9.3023257227E-01
   -9.2936804373E-01   -9.2850512062E-01   -9.2764379849E-01   -9.2678407288E-01
   -9.2592593935E-01   -9.2506939349E-01   -9.2421443089E-01   -9.2336104718E-01
   -9.2250923797E-01   -9.2165899892E-01   -9.2081032568E-01   -9.1996321395E-01
   -9.1911765940E-01   -9.1827365776E-01   -9.1743120475E-01   -9.1659029610E-01
   -9.1575092758E-01   -9.1491309496E-01   -9.1407679403E-01   -9.1324202059E-01
   -9.1240877046E-01   -9.1157703947E-01   -9.1074682348E-01   -9.0991811834E-01
   -9.0909091995E-01   -9.0826522418E-01   -9.0744102695E-01   -9.0661832419E-01
   -9.0579711184E-01   -9.0497738584E-01   -9.0415914217E-01   -9.0334237681E-01
   -9.0252708575E-01   -9.0171326501E-01   -9.0090091062E-01   -9.0009001861E-01
   -8.9928058504E-01   -8.9847260598E-01   -8.9766607751E-01   -8.9686099573E-01
   -8.9605735675E-01   -8.9525515669E-01   -8.9445439170E-01   -8.9365505792E-01
   -8.9285715153E-01   -8.9206066869E-01   -8.9126560562E-01   -8.9047195851E-01
   -8.8967972358E-01   -8.8888889707E-01   -8.8809947522E-01   -8.8731145430E-01
   -8.8652483059E-01   -8.8573960036E-01   -8.8495575992E-01   -8.8417330558E-01
   -8.8339223367E-01   -8.8261254053E-01   -8.8183422251E-01   -8.8105727597E-01
   -8.8028169730E-01   -8.7950748289E-01   -8.7873462913E-01   -8.7796313245E-01
   -8.7719298927E-01   -8.7642419604E-01   -8.7565674921E-01   -8.7489064524E-01
   -8.7412588061E-01   -8.7336245181E-01   -8.7260035536E-01   -8.7183958776E-01
   -8.7108014553E-01   -8.7032202523E-01   -8.6956522339E-01   -8.6880973659E-01
   -8.6805556140E-01   -8.6730269441E-01   -8.6655113221E-01   -8.6580087142E-01
   -8.6505190866E-01   -8.6430424056E-01   -8.6355786377E-01   -8.6281277495E-01
   -8.6206897077E-01   -8.6132644790E-01   -8.6058520304E-01   -8.5984523289E-01
   -8.5910653418E-01   -8.5836910361E-01   -8.5763293793E-01   -8.5689803389E-01
   -8.5616438825E-01   -8.5543199778E-01   -8.5470085926E-01   -8.5397096948E-01
   -8.5324232525E-01   -8.5251492337E-01   -8.5178876069E-01   -8.5106383402E-01
   -8.5034014023E-01   -8.4961767616E-01   -8.4889643868E-01   -8.4817642468E-01
   -8.4745763104E-01   -8.4674005467E-01   -8.4602369247E-01   -8.4530854136E-01
   -8.4459459828E-01   -8.4388186017E-01   -8.4317032398E-01   -8.4245998666E-01
   -8.4175084521E-01   -8.4104289659E-01   -8.4033613780E-01   -8.3963056584E-01
   -8.3892617773E-01   -8.3822297049E-01   -8.3752094115E-01   -8.3682008676E-01
   -8.3612040436E-01   -8.3542189102E-01   -8.3472454382E-01   -8.3402835983E-01
   -8.3333333615E-01   -8.3263946987E-01   -8.3194675812E-01   -8.3125519801E-01
   -8.3056478667E-01   -8.2987552124E-01   -8.2918739887E-01   -8.2850041672E-01
   -8.2781457196E-01   -8.2712986176E-01   -8.2644628332E-01   -8.2576383382E-01
   -8.2508251048E-01   -8.2440231051E-01   -8.2372323114E-01   -8.2304526959E-01
   -8.2236842311E-01   -8.2169268894E-01   -8.2101806436E-01   -8.2034454663E-01
   -8.1967213303E-01   -8.1900082084E-01   -8.1833060736E-01   -8.1766148990E-01
   -8.1699346577E-01   -8.1632653228E-01   -8.1566068679E-01   -8.1499592661E-01
   -8.1433224911E-01   -8.1366965163E-01   -8.1300813155E-01   -8.1234768624E-01
   -8.1168831308E-01   -8.1103000947E-01   -8.1037277280E-01   -8.0971660047E-01
   -8.0906148992E-01   -8.0840743856E-01   -8.0775444382E-01   -8.0710250316E-01
   -8.0645161401E-01   -8.0580177383E-01   -8.0515298010E-01   -8.0450523028E-01
   -8.0385852186E-01   -8.0321285234E-01   -8.0256821919E-01   -8.0192461995E-01
   -8.0128205211E-01   -8.0064051321E-01   -8.0000000076E-01   -7.9936051232E-01
   -7.9872204543E-01   -7.9808459764E-01   -7.9744816651E-01   -7.9681274961E-01
   -7.9617834453E-01   -7.9554494884E-01   -7.9491256014E-01   -7.9428117602E-01
   -7.9365079411E-01   -7.9302141201E-01   -7.9239302734E-01   -7.9176563774E-01
   -7.9113924085E-01   -7.9051383431E-01   -7.8988941577E-01   -7.8926598290E-01
   -7.8864353336E-01   -7.8802206482E-01   -7.8740157498E-01   -7.8678206152E-01
   -7.8616352214E-01   -7.8554595454E-01   -7.8492935643E-01   -7.8431372554E-01
   -7.8369905959E-01   -7.8308535630E-01   -7.8247261343E-01   -7.8186082872E-01
   -7.8124999993E-01   -7.8064012480E-01   -7.8003120113E-01   -7.7942322667E-01
   -7.7881619921E-01   -7.7821011654E-01   -7.7760497646E-01   -7.7700077676E-01
   -7.7639751527E-01   -7.7579518979E-01   -7.7519379815E-01   -7.7459333817E-01
   -7.7399380770E-01   -7.7339520458E-01   -7.7279752666E-01   -7.7220077179E-01
   -7.7160493784E-01   -7.7101002268E-01   -7.7041602418E-01   -7.6982294024E-01
  </PP_LOCAL>
 <PP_NONLOCAL>
   <PP_BETA.1
       type="real"
       size="1300"
       columns="4"
       index="1"
       angular_momentum="0"
       cutoff_radius_index=" 176"
       cutoff_radius="    1.7500000000E+00" >
    5.3754110246E-08    1.0707194285E-02    2.2054331632E-02    3.4662598960E-02
    4.9116194509E-02    6.5945128112E-02    8.5609535093E-02    1.0848594291E-01
    1.3485587596E-01    1.6489711955E-01    1.9867789071E-01    2.3615408337E-01
    2.7716967041E-01    3.2146025793E-01    3.6865969958E-01    4.1830959377E-01
    4.6987140653E-01    5.2274088898E-01    5.7626439427E-01    6.2975664474E-01
    6.8251945863E-01    7.3386091722E-01    7.8311443946E-01    8.2965723148E-01
    8.7292759351E-01    9.1244059634E-01    9.4780168235E-01    9.7871780133E-01
    1.0050057578E+00    1.0265975223E+00    1.0435423404E+00    1.0560055637E+00
    1.0642642134E+00    1.0686993801E+00    1.0697856519E+00    1.0680778425E+00
    1.0641953720E+00    1.0588047169E+00    1.0526004034E+00    1.0462850604E+00
    1.0405490807E+00    1.0360504511E+00    1.0333953142E+00    1.0331198060E+00
    1.0356736881E+00    1.0414062418E+00    1.0505548396E+00    1.0632365345E+00
    1.0794429332E+00    1.0990385269E+00    1.1217625645E+00    1.1472344539E+00
    1.1749625845E+00    1.2043563644E+00    1.2347411817E+00    1.2653759136E+00
    1.2954725336E+00    1.3242173077E+00    1.3507930196E+00    1.3744016326E+00
    1.3942867768E+00    1.4097554475E+00    1.4201983172E+00    1.4251080919E+00
    1.4240953882E+00    1.4169016722E+00    1.4034088687E+00    1.3836453386E+00
    1.3577880140E+00    1.3261605801E+00    1.2892276984E+00    1.2475853709E+00
    1.2019476469E+00    1.1531299767E+00    1.1020296069E+00    1.0496034945E+00
    9.9684429243E-01    9.4475501067E-01    8.9432300582E-01    8.4649397272E-01
    8.0214662283E-01    7.6206872346E-01    7.2693514463E-01    6.9728851591E-01
    6.7352303503E-01    6.5587189401E-01    6.4439870065E-01    6.3899317369E-01
    6.3937128246E-01    6.4507988899E-01    6.5550583451E-01    6.6988929713E-01
    6.8734113517E-01    7.0686382462E-01    7.2737550259E-01    7.4773654291E-01
    7.6677801872E-01    7.8333135163E-01    7.9625840823E-01    8.0448128571E-01
    8.0701102765E-01    8.0297452995E-01    7.9163893516E-01    7.7243286949E-01
    7.4496395002E-01    7.0903207822E-01    6.6463813712E-01    6.1198782176E-01
    5.5149045224E-01    4.8375274359E-01    4.0956763285E-01    3.2989838886E-01
    2.4585835010E-01    1.5868674888E-01    6.9721181157E-02   -1.9632629551E-02
   -1.0793305343E-01   -1.9373598466E-01   -2.7562866853E-01   -3.5226309702E-01
   -4.2238814927E-01   -4.8487967845E-01   -5.3876779192E-01   -5.8326063595E-01
   -6.1776407821E-01   -6.4189677885E-01   -6.5550025155E-01   -6.5864363727E-01
   -6.5162304225E-01   -6.3495542449E-01   -6.0936714718E-01   -5.7577744941E-01
   -5.3527720988E-01   -4.8910349695E-01   -4.3861050355E-01   -3.8523755651E-01
   -3.3047496542E-01   -2.7582851415E-01   -2.2278351072E-01   -1.7276673844E-01
   -1.2711423893E-01   -8.7046425962E-02   -5.3629769871E-02   -2.7753529410E-02
   -1.0066180056E-02   -1.2754579461E-03    1.4382090036E-04   -3.6354189808E-05
    3.9362747526E-06    1.4719737852E-11    0.0000000000E+00    0.0000000000E+00
    0.0000000000E+00    0.0000000000E+00    0.0000000000E+00    0.0000000000E+00
    0.0000000000E+00    0.0000000000E+00    0.0000000000E+00    0.0000000000E+00
    0.0000000000E+00    0.0000000000E+00    0.0000000000E+00    0.0000000000E+00
    0.0000000000E+00    0.0000000000E+00    0.0000000000E+00    0.0000000000E+00
    0.0000000000E+00    0.0000000000E+00    0.0000000000E+00    0.0000000000E+00
    0.0000000000E+00    0.0000000000E+00    0.0000000000E+00    0.0000000000E+00
 0. 0. 0. 0.
 0. 0. 0. 0.
 0. 0. 0. 0.
 0. 0. 0. 0.
 0. 0. 0. 0.
 0. 0. 0. 0.
 0. 0. 0. 0.
 0. 0. 0. 0.
 0. 0. 0. 0.
 0. 0. 0. 0.
 0. 0. 0. 0.
 0. 0. 0. 0.
 0. 0. 0. 0.
 0. 0. 0. 0.
 0. 0. 0. 0.
 0. 0. 0. 0.
 0. 0. 0. 0.
 0. 0. 0. 0.
 0. 0. 0. 0.
 0. 0. 0. 0.
 0. 0. 0. 0.
 0. 0. 0. 0.
 0. 0. 0. 0.
 0. 0. 0. 0.
 0. 0. 0. 0.
 0. 0. 0. 0.
 0. 0. 0. 0.
 0. 0. 0. 0.
 0. 0. 0. 0.
 0. 0. 0. 0.
 0. 0. 0. 0.
 0. 0. 0. 0.
 0. 0. 0. 0.
 0. 0. 0. 0.
 0. 0. 0. 0.
 0. 0. 0. 0.
 0. 0. 0. 0.
 0. 0. 0. 0.
 0. 0. 0. 0.
 0. 0. 0. 0.
 0. 0. 0. 0.
 0. 0. 0. 0.
 0. 0. 0. 0.
 0. 0. 0. 0.
 0. 0. 0. 0.
 0. 0. 0. 0.
 0. 0. 0. 0.
 0. 0. 0. 0.
 0. 0. 0. 0.
 0. 0. 0. 0.
 0. 0. 0. 0.
 0. 0. 0. 0.
 0. 0. 0. 0.
 0. 0. 0. 0.
 0. 0. 0. 0.
 0. 0. 0. 0.
 0. 0. 0. 0.
 0. 0. 0. 0.
 0. 0. 0. 0.
 0. 0. 0. 0.
 0. 0. 0. 0.
 0. 0. 0. 0.
 0. 0. 0. 0.
 0. 0. 0. 0.
 0. 0. 0. 0.
 0. 0. 0. 0.
 0. 0. 0. 0.
 0. 0. 0. 0.
 0. 0. 0. 0.
 0. 0. 0. 0.
 0. 0. 0. 0.
 0. 0. 0. 0.
 0. 0. 0. 0.
 0. 0. 0. 0.
 0. 0. 0. 0.
 0. 0. 0. 0.
 0. 0. 0. 0.
 0. 0. 0. 0.
 0. 0. 0. 0.
 0. 0. 0. 0.
 0. 0. 0. 0.
 0. 0. 0. 0.
 0. 0. 0. 0.
 0. 0. 0. 0.
 0. 0. 0. 0.
 0. 0. 0. 0.
 0. 0. 0. 0.
 0. 0. 0. 0.
 0. 0. 0. 0.
 0. 0. 0. 0.
 0. 0. 0. 0.
 0. 0. 0. 0.
 0. 0. 0. 0.
 0. 0. 0. 0.
 0. 0. 0. 0.
 0. 0. 0. 0.
 0. 0. 0. 0.
 0. 0. 0. 0.
 0. 0. 0. 0.
 0. 0. 0. 0.
 0. 0. 0. 0.
 0. 0. 0. 0.
 0. 0. 0. 0.
 0. 0. 0. 0.
 0. 0. 0. 0.
 0. 0. 0. 0.
 0. 0. 0. 0.
 0. 0. 0. 0.
 0. 0. 0. 0.
 0. 0. 0. 0.
 0. 0. 0. 0.
 0. 0. 0. 0.
 0. 0. 0. 0.
 0. 0. 0. 0.
 0. 0. 0. 0.
 0. 0. 0. 0.
 0. 0. 0. 0.
 0. 0. 0. 0.
 0. 0. 0. 0.
 0. 0. 0. 0.
 0. 0. 0. 0.
 0. 0. 0. 0.
 0. 0. 0. 0.
 0. 0. 0. 0.
 0. 0. 0. 0.
 0. 0. 0. 0.
 0. 0. 0. 0.
 0. 0. 0. 0.
 0. 0. 0. 0.
 0. 0. 0. 0.
 0. 0. 0. 0.
 0. 0. 0. 0.
 0. 0. 0. 0.
 0. 0. 0. 0.
 0. 0. 0. 0.
 0. 0. 0. 0.
 0. 0. 0. 0.
 0. 0. 0. 0.
 0. 0. 0. 0.
 0. 0. 0. 0.
 0. 0. 0. 0.
 0. 0. 0. 0.
 0. 0. 0. 0.
 0. 0. 0. 0.
 0. 0. 0. 0.
 0. 0. 0. 0.
 0. 0. 0. 0.
 0. 0. 0. 0.
 0. 0. 0. 0.
 0. 0. 0. 0.
 0. 0. 0. 0.
 0. 0. 0. 0.
 0. 0. 0. 0.
 0. 0. 0. 0.
 0. 0. 0. 0.
 0. 0. 0. 0.
 0. 0. 0. 0.
 0. 0. 0. 0.
 0. 0. 0. 0.
 0. 0. 0. 0.
 0. 0. 0. 0.
 0. 0. 0. 0.
 0. 0. 0. 0.
 0. 0. 0. 0.
 0. 0. 0. 0.
 0. 0. 0. 0.
 0. 0. 0. 0.
 0. 0. 0. 0.
 0. 0. 0. 0.
 0. 0. 0. 0.
 0. 0. 0. 0.
 0. 0. 0. 0.
 0. 0. 0. 0.
 0. 0. 0. 0.
 0. 0. 0. 0.
 0. 0. 0. 0.
 0. 0. 0. 0.
 0. 0. 0. 0.
 0. 0. 0. 0.
 0. 0. 0. 0.
 0. 0. 0. 0.
 0. 0. 0. 0.
 0. 0. 0. 0.
 0. 0. 0. 0.
 0. 0. 0. 0.
 0. 0. 0. 0.
 0. 0. 0. 0.
 0. 0. 0. 0.
 0. 0. 0. 0.
 0. 0. 0. 0.
 0. 0. 0. 0.
 0. 0. 0. 0.
 0. 0. 0. 0.
 0. 0. 0. 0.
 0. 0. 0. 0.
 0. 0. 0. 0.
 0. 0. 0. 0.
 0. 0. 0. 0.
 0. 0. 0. 0.
 0. 0. 0. 0.
 0. 0. 0. 0.
 0. 0. 0. 0.
 0. 0. 0. 0.
 0. 0. 0. 0.
 0. 0. 0. 0.
 0. 0. 0. 0.
 0. 0. 0. 0.
 0. 0. 0. 0.
 0. 0. 0. 0.
 0. 0. 0. 0.
 0. 0. 0. 0.
 0. 0. 0. 0.
 0. 0. 0. 0.
 0. 0. 0. 0.
 0. 0. 0. 0.
 0. 0. 0. 0.
 0. 0. 0. 0.
 0. 0. 0. 0.
 0. 0. 0. 0.
 0. 0. 0. 0.
 0. 0. 0. 0.
 0. 0. 0. 0.
 0. 0. 0. 0.
 0. 0. 0. 0.
 0. 0. 0. 0.
 0. 0. 0. 0.
 0. 0. 0. 0.
 0. 0. 0. 0.
 0. 0. 0. 0.
 0. 0. 0. 0.
 0. 0. 0. 0.
 0. 0. 0. 0.
 0. 0. 0. 0.
 0. 0. 0. 0.
 0. 0. 0. 0.
 0. 0. 0. 0.
 0. 0. 0. 0.
 0. 0. 0. 0.
 0. 0. 0. 0.
 0. 0. 0. 0.
 0. 0. 0. 0.
 0. 0. 0. 0.
 0. 0. 0. 0.
 0. 0. 0. 0.
 0. 0. 0. 0.
 0. 0. 0. 0.
 0. 0. 0. 0.
 0. 0. 0. 0.
 0. 0. 0. 0.
 0. 0. 0. 0.
 0. 0. 0. 0.
 0. 0. 0. 0.
 0. 0. 0. 0.
 0. 0. 0. 0.
 0. 0. 0. 0.
 0. 0. 0. 0.
 0. 0. 0. 0.
 0. 0. 0. 0.
 0. 0. 0. 0.
 0. 0. 0. 0.
 0. 0. 0. 0.
 0. 0. 0. 0.
 0. 0. 0. 0.
 0. 0. 0. 0.
 0. 0. 0. 0.
 0. 0. 0. 0.
 0. 0. 0. 0.
 0. 0. 0. 0.
 0. 0. 0. 0.
 0. 0. 0. 0.
 0. 0. 0. 0.
 0. 0. 0. 0.
 0. 0. 0. 0.
 0. 0. 0. 0.
 0. 0. 0. 0.
 0. 0. 0. 0.
 0. 0. 0. 0.
 0. 0. 0. 0.
 0. 0. 0. 0.
 0. 0. 0. 0.
 0. 0. 0. 0.
   </PP_BETA.1>
   <PP_BETA.2
       type="real"
       size="1300"
       columns="4"
       index="2"
       angular_momentum="0"
       cutoff_radius_index=" 176"
       cutoff_radius="    1.7500000000E+00" >
   -1.2724826814E-07    5.2973882313E-02    1.0443491657E-01    1.5291386893E-01
    1.9702750380E-01    2.3551854148E-01    2.6729206069E-01    2.9144731558E-01
    3.0730406445E-01    3.1442265943E-01    3.1261731995E-01    3.0196220271E-01
    2.8279008102E-01    2.5568365324E-01    2.2145970591E-01    1.8114655745E-01
    1.3595539771E-01    8.7246310753E-02    3.6489920031E-02   -1.4774279817E-02
   -6.4981743162E-02   -1.1258761972E-01   -1.5611116992E-01   -1.9417859577E-01
   -2.2556307217E-01   -2.4922083524E-01   -2.6432228901E-01   -2.7027722434E-01
   -2.6675340346E-01   -2.5368794392E-01   -2.3129113275E-01   -2.0004251018E-01
   -1.6067927647E-01   -1.1417728928E-01   -6.1725127028E-02   -4.6918898955E-03
    5.5410410790E-02    1.1696886719E-01    1.7831495574E-01    2.3777184629E-01
    2.9370243503E-01    3.4455676536E-01    3.8891750590E-01    4.2554219624E-01
    4.5340104856E-01    4.7170920409E-01    4.7995248575E-01    4.7790585776E-01
    4.6564399602E-01    4.4354358350E-01    4.1227716841E-01    3.7279865268E-01
    3.2632070819E-01    2.7428464309E-01    2.1832345232E-01    1.6021898169E-01
    1.0185430576E-01    4.5162563658E-02   -7.9263919556E-03   -5.5540101777E-02
   -9.5916893270E-02   -1.2745709261E-01   -1.4877062772E-01   -1.5871967437E-01
   -1.5645511405E-01   -1.4144572301E-01   -1.1349919357E-01   -7.2774296406E-02
   -1.9783721174E-02    4.4612623799E-02    1.1922381958E-01    2.0255336515E-01
    2.9283328920E-01    3.8806616991E-01    4.8607406646E-01    5.8455316926E-01
    6.8113280802E-01    7.7343732305E-01    8.5914920871E-01    9.3607188305E-01
    1.0021904243E+00    1.0557286455E+00    1.0952009528E+00    1.1194575470E+00
    1.1277216814E+00    1.1196178823E+00    1.0951902519E+00    1.0549102264E+00
    9.9967342075E-01    9.3078547335E-01    8.4993708395E-01    7.5916872113E-01
    6.6082574693E-01    5.5750496257E-01    4.5199381230E-01    3.4720368633E-01
    2.4609893298E-01    1.5162332041E-01    6.6625774625E-02   -6.2127378806E-03
   -6.4449321142E-02   -1.0594444582E-01   -1.2892072225E-01   -1.3201358680E-01
   -1.1431252349E-01   -7.5391665524E-02   -1.5328875184E-02    6.5287320469E-02
    1.6536326253E-01    2.8331817850E-01    4.1711438995E-01    5.6429910706E-01
    7.2205691218E-01    8.8727176022E-01    1.0565970751E+00    1.2265323078E+00
    1.3935041458E+00    1.5539504318E+00    1.7044047672E+00    1.8415797384E+00
    1.9624467246E+00    2.0643103096E+00    2.1448754402E+00    2.2023056363E+00
    2.2352707646E+00    2.2429831355E+00    2.2252209561E+00    2.1823384799E+00
    2.1152625114E+00    2.0254752550E+00    1.9149838335E+00    1.7862771253E+00
    1.6422708818E+00    1.4862423789E+00    1.3217561126E+00    1.1525822783E+00
    9.8260995279E-01    8.1575700656E-01    6.5587899615E-01    5.0667466658E-01
    3.7160317429E-01    2.5381571459E-01    1.5606487255E-01    8.0646495406E-02
    2.9223216262E-02    3.7010667975E-03   -4.1724047899E-04    1.0546987076E-04
   -1.1423992105E-05   -3.5528006106E-11    0.0000000000E+00    0.0000000000E+00
    0.0000000000E+00    0.0000000000E+00    0.0000000000E+00    0.0000000000E+00
    0.0000000000E+00    0.0000000000E+00    0.0000000000E+00    0.0000000000E+00
    0.0000000000E+00    0.0000000000E+00    0.0000000000E+00    0.0000000000E+00
    0.0000000000E+00    0.0000000000E+00    0.0000000000E+00    0.0000000000E+00
    0.0000000000E+00    0.0000000000E+00    0.0000000000E+00    0.0000000000E+00
    0.0000000000E+00    0.0000000000E+00    0.0000000000E+00    0.0000000000E+00
 0. 0. 0. 0.
 0. 0. 0. 0.
 0. 0. 0. 0.
 0. 0. 0. 0.
 0. 0. 0. 0.
 0. 0. 0. 0.
 0. 0. 0. 0.
 0. 0. 0. 0.
 0. 0. 0. 0.
 0. 0. 0. 0.
 0. 0. 0. 0.
 0. 0. 0. 0.
 0. 0. 0. 0.
 0. 0. 0. 0.
 0. 0. 0. 0.
 0. 0. 0. 0.
 0. 0. 0. 0.
 0. 0. 0. 0.
 0. 0. 0. 0.
 0. 0. 0. 0.
 0. 0. 0. 0.
 0. 0. 0. 0.
 0. 0. 0. 0.
 0. 0. 0. 0.
 0. 0. 0. 0.
 0. 0. 0. 0.
 0. 0. 0. 0.
 0. 0. 0. 0.
 0. 0. 0. 0.
 0. 0. 0. 0.
 0. 0. 0. 0.
 0. 0. 0. 0.
 0. 0. 0. 0.
 0. 0. 0. 0.
 0. 0. 0. 0.
 0. 0. 0. 0.
 0. 0. 0. 0.
 0. 0. 0. 0.
 0. 0. 0. 0.
 0. 0. 0. 0.
 0. 0. 0. 0.
 0. 0. 0. 0.
 0. 0. 0. 0.
 0. 0. 0. 0.
 0. 0. 0. 0.
 0. 0. 0. 0.
 0. 0. 0. 0.
 0. 0. 0. 0.
 0. 0. 0. 0.
 0. 0. 0. 0.
 0. 0. 0. 0.
 0. 0. 0. 0.
 0. 0. 0. 0.
 0. 0. 0. 0.
 0. 0. 0. 0.
 0. 0. 0. 0.
 0. 0. 0. 0.
 0. 0. 0. 0.
 0. 0. 0. 0.
 0. 0. 0. 0.
 0. 0. 0. 0.
 0. 0. 0. 0.
 0. 0. 0. 0.
 0. 0. 0. 0.
 0. 0. 0. 0.
 0. 0. 0. 0.
 0. 0. 0. 0.
 0. 0. 0. 0.
 0. 0. 0. 0.
 0. 0. 0. 0.
 0. 0. 0. 0.
 0. 0. 0. 0.
 0. 0. 0. 0.
 0. 0. 0. 0.
 0. 0. 0. 0.
 0. 0. 0. 0.
 0. 0. 0. 0.
 0. 0. 0. 0.
 0. 0. 0. 0.
 0. 0. 0. 0.
 0. 0. 0. 0.
 0. 0. 0. 0.
 0. 0. 0. 0.
 0. 0. 0. 0.
 0. 0. 0. 0.
 0. 0. 0. 0.
 0. 0. 0. 0.
 0. 0. 0. 0.
 0. 0. 0. 0.
 0. 0. 0. 0.
 0. 0. 0. 0.
 0. 0. 0. 0.
 0. 0. 0. 0.
 0. 0. 0. 0.
 0. 0. 0. 0.
 0. 0. 0. 0.
 0. 0. 0. 0.
 0. 0. 0. 0.
 0. 0. 0. 0.
 0. 0. 0. 0.
 0. 0. 0. 0.
 0. 0. 0. 0.
 0. 0. 0. 0.
 0. 0. 0. 0.
 0. 0. 0. 0.
 0. 0. 0. 0.
 0. 0. 0. 0.
 0. 0. 0. 0.
 0. 0. 0. 0.
 0. 0. 0. 0.
 0. 0. 0. 0.
 0. 0. 0. 0.
 0. 0. 0. 0.
 0. 0. 0. 0.
 0. 0. 0. 0.
 0. 0. 0. 0.
 0. 0. 0. 0.
 0. 0. 0. 0.
 0. 0. 0. 0.
 0. 0. 0. 0.
 0. 0. 0. 0.
 0. 0. 0. 0.
 0. 0. 0. 0.
 0. 0. 0. 0.
 0. 0. 0. 0.
 0. 0. 0. 0.
 0. 0. 0. 0.
 0. 0. 0. 0.
 0. 0. 0. 0.
 0. 0. 0. 0.
 0. 0. 0. 0.
 0. 0. 0. 0.
 0. 0. 0. 0.
 0. 0. 0. 0.
 0. 0. 0. 0.
 0. 0. 0. 0.
 0. 0. 0. 0.
 0. 0. 0. 0.
 0. 0. 0. 0.
 0. 0. 0. 0.
 0. 0. 0. 0.
 0. 0. 0. 0.
 0. 0. 0. 0.
 0. 0. 0. 0.
 0. 0. 0. 0.
 0. 0. 0. 0.
 0. 0. 0. 0.
 0. 0. 0. 0.
 0. 0. 0. 0.
 0. 0. 0. 0.
 0. 0. 0. 0.
 0. 0. 0. 0.
 0. 0. 0. 0.
 0. 0. 0. 0.
 0. 0. 0. 0.
 0. 0. 0. 0.
 0. 0. 0. 0.
 0. 0. 0. 0.
 0. 0. 0. 0.
 0. 0. 0. 0.
 0. 0. 0. 0.
 0. 0. 0. 0.
 0. 0. 0. 0.
 0. 0. 0. 0.
 0. 0. 0. 0.
 0. 0. 0. 0.
 0. 0. 0. 0.
 0. 0. 0. 0.
 0. 0. 0. 0.
 0. 0. 0. 0.
 0. 0. 0. 0.
 0. 0. 0. 0.
 0. 0. 0. 0.
 0. 0. 0. 0.
 0. 0. 0. 0.
 0. 0. 0. 0.
 0. 0. 0. 0.
 0. 0. 0. 0.
 0. 0. 0. 0.
 0. 0. 0. 0.
 0. 0. 0. 0.
 0. 0. 0. 0.
 0. 0. 0. 0.
 0. 0. 0. 0.
 0. 0. 0. 0.
 0. 0. 0. 0.
 0. 0. 0. 0.
 0. 0. 0. 0.
 0. 0. 0. 0.
 0. 0. 0. 0.
 0. 0. 0. 0.
 0. 0. 0. 0.
 0. 0. 0. 0.
 0. 0. 0. 0.
 0. 0. 0. 0.
 0. 0. 0. 0.
 0. 0. 0. 0.
 0. 0. 0. 0.
 0. 0. 0. 0.
 0. 0. 0. 0.
 0. 0. 0. 0.
 0. 0. 0. 0.
 0. 0. 0. 0.
 0. 0. 0. 0.
 0. 0. 0. 0.
 0. 0. 0. 0.
 0. 0. 0. 0.
 0. 0. 0. 0.
 0. 0. 0. 0.
 0. 0. 0. 0.
 0. 0. 0. 0.
 0. 0. 0. 0.
 0. 0. 0. 0.
 0. 0. 0. 0.
 0. 0. 0. 0.
 0. 0. 0. 0.
 0. 0. 0. 0.
 0. 0. 0. 0.
 0. 0. 0. 0.
 0. 0. 0. 0.
 0. 0. 0. 0.
 0. 0. 0. 0.
 0. 0. 0. 0.
 0. 0. 0. 0.
 0. 0. 0. 0.
 0. 0. 0. 0.
 0. 0. 0. 0.
 0. 0. 0. 0.
 0. 0. 0. 0.
 0. 0. 0. 0.
 0. 0. 0. 0.
 0. 0. 0. 0.
 0. 0. 0. 0.
 0. 0. 0. 0.
 0. 0. 0. 0.
 0. 0. 0. 0.
 0. 0. 0. 0.
 0. 0. 0. 0.
 0. 0. 0. 0.
 0. 0. 0. 0.
 0. 0. 0. 0.
 0. 0. 0. 0.
 0. 0. 0. 0.
 0. 0. 0. 0.
 0. 0. 0. 0.
 0. 0. 0. 0.
 0. 0. 0. 0.
 0. 0. 0. 0.
 0. 0. 0. 0.
 0. 0. 0. 0.
 0. 0. 0. 0.
 0. 0. 0. 0.
 0. 0. 0. 0.
 0. 0. 0. 0.
 0. 0. 0. 0.
 0. 0. 0. 0.
 0. 0. 0. 0.
 0. 0. 0. 0.
 0. 0. 0. 0.
 0. 0. 0. 0.
 0. 0. 0. 0.
 0. 0. 0. 0.
 0. 0. 0. 0.
 0. 0. 0. 0.
 0. 0. 0. 0.
 0. 0. 0. 0.
 0. 0. 0. 0.
 0. 0. 0. 0.
 0. 0. 0. 0.
 0. 0. 0. 0.
 0. 0. 0. 0.
 0. 0. 0. 0.
 0. 0. 0. 0.
 0. 0. 0. 0.
 0. 0. 0. 0.
 0. 0. 0. 0.
 0. 0. 0. 0.
 0. 0. 0. 0.
 0. 0. 0. 0.
 0. 0. 0. 0.
 0. 0. 0. 0.
   </PP_BETA.2>
   <PP_BETA.3
       type="real"
       size="1300"
       columns="4"
       index="3"
       angular_momentum="1"
       cutoff_radius_index=" 176"
       cutoff_radius="    1.7500000000E+00" >
   -1.0531463297E-07   -1.8254373379E-03   -7.2239804741E-03   -1.5964672029E-02
   -2.7670346835E-02   -4.1829044832E-02   -5.7809530171E-02   -7.4880472911E-02
   -9.2232744370E-02   -1.0900418715E-01   -1.2430614862E-01   -1.3725101413E-01
   -1.4697994520E-01   -1.5269001908E-01   -1.5365997949E-01   -1.4927384454E-01
   -1.3904167476E-01   -1.2261688108E-01   -9.9809547530E-02   -7.0595352790E-02
   -3.5119797080E-02    6.3024284759E-03    5.3192956719E-02    1.0492003260E-01
    1.6071332828E-01    2.1968290937E-01    2.8084185697E-01    3.4313194292E-01
    4.0545166544E-01    4.6668587951E-01    5.2573620524E-01    5.8155136802E-01
    6.3315661817E-01    6.7968139519E-01    7.2038444258E-01    7.5467564188E-01
    7.8213391837E-01    8.0252067316E-01    8.1578831426E-01    8.2208359067E-01
    8.2174557348E-01    8.1529827407E-01    8.0343803718E-01    7.8701599189E-01
    7.6701598249E-01    7.4452853016E-01    7.2072149155E-01    6.9680817846E-01
    6.7401378132E-01    6.5354099534E-01    6.3653578086E-01    6.2405419680E-01
    6.1703122860E-01    6.1625248865E-01    6.2232960061E-01    6.3567998859E-01
    6.5651168253E-01    6.8481362240E-01    7.2035180210E-01    7.6267144008E-01
    8.1110520401E-01    8.6478735405E-01    9.2267350852E-01    9.8356558054E-01
    1.0461412901E+00    1.1089875250E+00    1.1706367122E+00    1.2296052683E+00
    1.2844331321E+00    1.3337233366E+00    1.3761805663E+00    1.4106476557E+00
    1.4361390266E+00    1.4518701286E+00    1.4572820410E+00    1.4520605098E+00
    1.4361488305E+00    1.4097541428E+00    1.3733468676E+00    1.3276531976E+00
    1.2736407291E+00    1.2124975079E+00    1.1456049343E+00    1.0745051410E+00
    1.0008636115E+00    9.2642793636E-01    8.5298372282E-01    7.8230875797E-01
    7.1612658605E-01    6.5606069256E-01    6.0359048748E-01    5.6001024971E-01
    5.2639213446E-01    5.0355425501E-01    4.9203473405E-01    4.9207247802E-01
    5.0359526597E-01    5.2621556531E-01    5.5923429473E-01    6.0165255518E-01
    6.5219114735E-01    7.0931749401E-01    7.7127939313E-01    8.3614484772E-01
    9.0184705547E-01    9.6623350010E-01    1.0271179703E+00    1.0823342446E+00
    1.1297901247E+00    1.1675204750E+00    1.1937379361E+00    1.2068800255E+00
    1.2056514117E+00    1.1890602573E+00    1.1564476638E+00    1.1075094111E+00
    1.0423093672E+00    9.6128414724E-01    8.6523881196E-01    7.5533361452E-01
    6.3306202939E-01    5.0022051139E-01    3.5887064307E-01    2.1129452103E-01
    5.9944405686E-02   -9.2612191457E-02   -2.4375068769E-01   -3.9084949054E-01
   -5.3135049888E-01   -6.6281858045E-01   -7.8299857792E-01   -8.8986844606E-01
   -9.8168720856E-01   -1.0570365415E+00   -1.1148549387E+00   -1.1544635912E+00
   -1.1755833072E+00   -1.1783420170E+00   -1.1632726345E+00   -1.1313012782E+00
   -1.0837260925E+00   -1.0221871373E+00   -9.4862803702E-01   -8.6525027826E-01
   -7.7446123135E-01   -6.7881712951E-01   -5.8096232488E-01   -4.8356655055E-01
   -3.8926057855E-01   -3.0057053916E-01   -2.1986937577E-01   -1.4931324163E-01
   -9.0787255369E-02   -4.5875584791E-02   -1.5655544778E-02   -1.6267393005E-03
    2.5428820630E-04   -7.4296642214E-05    1.1266224106E-05    1.0330186932E-10
    0.0000000000E+00    0.0000000000E+00    0.0000000000E+00    0.0000000000E+00
    0.0000000000E+00    0.0000000000E+00    0.0000000000E+00    0.0000000000E+00
    0.0000000000E+00    0.0000000000E+00    0.0000000000E+00    0.0000000000E+00
    0.0000000000E+00    0.0000000000E+00    0.0000000000E+00    0.0000000000E+00
 0. 0. 0. 0.
 0. 0. 0. 0.
 0. 0. 0. 0.
 0. 0. 0. 0.
 0. 0. 0. 0.
 0. 0. 0. 0.
 0. 0. 0. 0.
 0. 0. 0. 0.
 0. 0. 0. 0.
 0. 0. 0. 0.
 0. 0. 0. 0.
 0. 0. 0. 0.
 0. 0. 0. 0.
 0. 0. 0. 0.
 0. 0. 0. 0.
 0. 0. 0. 0.
 0. 0. 0. 0.
 0. 0. 0. 0.
 0. 0. 0. 0.
 0. 0. 0. 0.
 0. 0. 0. 0.
 0. 0. 0. 0.
 0. 0. 0. 0.
 0. 0. 0. 0.
 0. 0. 0. 0.
 0. 0. 0. 0.
 0. 0. 0. 0.
 0. 0. 0. 0.
 0. 0. 0. 0.
 0. 0. 0. 0.
 0. 0. 0. 0.
 0. 0. 0. 0.
 0. 0. 0. 0.
 0. 0. 0. 0.
 0. 0. 0. 0.
 0. 0. 0. 0.
 0. 0. 0. 0.
 0. 0. 0. 0.
 0. 0. 0. 0.
 0. 0. 0. 0.
 0. 0. 0. 0.
 0. 0. 0. 0.
 0. 0. 0. 0.
 0. 0. 0. 0.
 0. 0. 0. 0.
 0. 0. 0. 0.
 0. 0. 0. 0.
 0. 0. 0. 0.
 0. 0. 0. 0.
 0. 0. 0. 0.
 0. 0. 0. 0.
 0. 0. 0. 0.
 0. 0. 0. 0.
 0. 0. 0. 0.
 0. 0. 0. 0.
 0. 0. 0. 0.
 0. 0. 0. 0.
 0. 0. 0. 0.
 0. 0. 0. 0.
 0. 0. 0. 0.
 0. 0. 0. 0.
 0. 0. 0. 0.
 0. 0. 0. 0.
 0. 0. 0. 0.
 0. 0. 0. 0.
 0. 0. 0. 0.
 0. 0. 0. 0.
 0. 0. 0. 0.
 0. 0. 0. 0.
 0. 0. 0. 0.
 0. 0. 0. 0.
 0. 0. 0. 0.
 0. 0. 0. 0.
 0. 0. 0. 0.
 0. 0. 0. 0.
 0. 0. 0. 0.
 0. 0. 0. 0.
 0. 0. 0. 0.
 0. 0. 0. 0.
 0. 0. 0. 0.
 0. 0. 0. 0.
 0. 0. 0. 0.
 0. 0. 0. 0.
 0. 0. 0. 0.
 0. 0. 0. 0.
 0. 0. 0. 0.
 0. 0. 0. 0.
 0. 0. 0. 0.
 0. 0. 0. 0.
 0. 0. 0. 0.
 0. 0. 0. 0.
 0. 0. 0. 0.
 0. 0. 0. 0.
 0. 0. 0. 0.
 0. 0. 0. 0.
 0. 0. 0. 0.
 0. 0. 0. 0.
 0. 0. 0. 0.
 0. 0. 0. 0.
 0. 0. 0. 0.
 0. 0. 0. 0.
 0. 0. 0. 0.
 0. 0. 0. 0.
 0. 0. 0. 0.
 0. 0. 0. 0.
 0. 0. 0. 0.
 0. 0. 0. 0.
 0. 0. 0. 0.
 0. 0. 0. 0.
 0. 0. 0. 0.
 0. 0. 0. 0.
 0. 0. 0. 0.
 0. 0. 0. 0.
 0. 0. 0. 0.
 0. 0. 0. 0.
 0. 0. 0. 0.
 0. 0. 0. 0.
 0. 0. 0. 0.
 0. 0. 0. 0.
 0. 0. 0. 0.
 0. 0. 0. 0.
 0. 0. 0. 0.
 0. 0. 0. 0.
 0. 0. 0. 0.
 0. 0. 0. 0.
 0. 0. 0. 0.
 0. 0. 0. 0.
 0. 0. 0. 0.
 0. 0. 0. 0.
 0. 0. 0. 0.
 0. 0. 0. 0.
 0. 0. 0. 0.
 0. 0. 0. 0.
 0. 0. 0. 0.
 0. 0. 0. 0.
 0. 0. 0. 0.
 0. 0. 0. 0.
 0. 0. 0. 0.
 0. 0. 0. 0.
 0. 0. 0. 0.
 0. 0. 0. 0.
 0. 0. 0. 0.
 0. 0. 0. 0.
 0. 0. 0. 0.
 0. 0. 0. 0.
 0. 0. 0. 0.
 0. 0. 0. 0.
 0. 0. 0. 0.
 0. 0. 0. 0.
 0. 0. 0. 0.
 0. 0. 0. 0.
 0. 0. 0. 0.
 0. 0. 0. 0.
 0. 0. 0. 0.
 0. 0. 0. 0.
 0. 0. 0. 0.
 0. 0. 0. 0.
 0. 0. 0. 0.
 0. 0. 0. 0.
 0. 0. 0. 0.
 0. 0. 0. 0.
 0. 0. 0. 0.
 0. 0. 0. 0.
 0. 0. 0. 0.
 0. 0. 0. 0.
 0. 0. 0. 0.
 0. 0. 0. 0.
 0. 0. 0. 0.
 0. 0. 0. 0.
 0. 0. 0. 0.
 0. 0. 0. 0.
 0. 0. 0. 0.
 0. 0. 0. 0.
 0. 0. 0. 0.
 0. 0. 0. 0.
 0. 0. 0. 0.
 0. 0. 0. 0.
 0. 0. 0. 0.
 0. 0. 0. 0.
 0. 0. 0. 0.
 0. 0. 0. 0.
 0. 0. 0. 0.
 0. 0. 0. 0.
 0. 0. 0. 0.
 0. 0. 0. 0.
 0. 0. 0. 0.
 0. 0. 0. 0.
 0. 0. 0. 0.
 0. 0. 0. 0.
 0. 0. 0. 0.
 0. 0. 0. 0.
 0. 0. 0. 0.
 0. 0. 0. 0.
 0. 0. 0. 0.
 0. 0. 0. 0.
 0. 0. 0. 0.
 0. 0. 0. 0.
 0. 0. 0. 0.
 0. 0. 0. 0.
 0. 0. 0. 0.
 0. 0. 0. 0.
 0. 0. 0. 0.
 0. 0. 0. 0.
 0. 0. 0. 0.
 0. 0. 0. 0.
 0. 0. 0. 0.
 0. 0. 0. 0.
 0. 0. 0. 0.
 0. 0. 0. 0.
 0. 0. 0. 0.
 0. 0. 0. 0.
 0. 0. 0. 0.
 0. 0. 0. 0.
 0. 0. 0. 0.
 0. 0. 0. 0.
 0. 0. 0. 0.
 0. 0. 0. 0.
 0. 0. 0. 0.
 0. 0. 0. 0.
 0. 0. 0. 0.
 0. 0. 0. 0.
 0. 0. 0. 0.
 0. 0. 0. 0.
 0. 0. 0. 0.
 0. 0. 0. 0.
 0. 0. 0. 0.
 0. 0. 0. 0.
 0. 0. 0. 0.
 0. 0. 0. 0.
 0. 0. 0. 0.
 0. 0. 0. 0.
 0. 0. 0. 0.
 0. 0. 0. 0.
 0. 0. 0. 0.
 0. 0. 0. 0.
 0. 0. 0. 0.
 0. 0. 0. 0.
 0. 0. 0. 0.
 0. 0. 0. 0.
 0. 0. 0. 0.
 0. 0. 0. 0.
 0. 0. 0. 0.
 0. 0. 0. 0.
 0. 0. 0. 0.
 0. 0. 0. 0.
 0. 0. 0. 0.
 0. 0. 0. 0.
 0. 0. 0. 0.
 0. 0. 0. 0.
 0. 0. 0. 0.
 0. 0. 0. 0.
 0. 0. 0. 0.
 0. 0. 0. 0.
 0. 0. 0. 0.
 0. 0. 0. 0.
 0. 0. 0. 0.
 0. 0. 0. 0.
 0. 0. 0. 0.
 0. 0. 0. 0.
 0. 0. 0. 0.
 0. 0. 0. 0.
 0. 0. 0. 0.
 0. 0. 0. 0.
 0. 0. 0. 0.
 0. 0. 0. 0.
 0. 0. 0. 0.
 0. 0. 0. 0.
 0. 0. 0. 0.
 0. 0. 0. 0.
 0. 0. 0. 0.
 0. 0. 0. 0.
 0. 0. 0. 0.
 0. 0. 0. 0.
 0. 0. 0. 0.
 0. 0. 0. 0.
 0. 0. 0. 0.
 0. 0. 0. 0.
 0. 0. 0. 0.
 0. 0. 0. 0.
 0. 0. 0. 0.
 0. 0. 0. 0.
   </PP_BETA.3>
   <PP_BETA.4
       type="real"
       size="1300"
       columns="4"
       index="4"
       angular_momentum="1"
       cutoff_radius_index=" 176"
       cutoff_radius="    1.7500000000E+00" >
    1.3223649481E-07    3.0429519849E-03    1.2074408586E-02    2.6805105458E-02
    4.6762630079E-02    7.1305671078E-02    9.9643390185E-02    1.3085935908E-01
    1.6393937122E-01    1.9780232573E-01    2.3133329004E-01    2.6341778261E-01
    2.9297627852E-01    3.1899793040E-01    3.4057251526E-01    3.5691966380E-01
    3.6741450167E-01    3.7160893001E-01    3.6924789266E-01    3.6028011627E-01
    3.4486296413E-01    3.2336120955E-01    2.9633970637E-01    2.6455010764E-01
    2.2891195368E-01    1.9048861345E-01    1.5045871274E-01    1.1008381657E-01
    7.0673245805E-02    3.3546997401E-02   -2.1995602056E-06   -2.8746625063E-02
   -5.1560034557E-02   -6.7451803051E-02   -7.5597753339E-02   -7.5366756796E-02
   -6.6342303267E-02   -4.8338367916E-02   -2.1409054164E-02    1.4148341019E-02
    5.7797014602E-02    1.0877108762E-01    1.6609258090E-01    2.2859455580E-01
    2.9494986454E-01    3.6370479283E-01    4.3331673392E-01    5.0219491132E-01
    5.6874307113E-01    6.3140299703E-01    6.8869766349E-01    7.3927283725E-01
    7.8193596389E-01    8.1569123475E-01    8.3976981915E-01    8.5365436459E-01
    8.5709701124E-01    8.5013033318E-01    8.3307080222E-01    8.0651456727E-01
    7.7132554722E-01    7.2861604274E-01    6.7972027724E-01    6.2616147341E-01
    5.6961325442E-01    5.1185632246E-01    4.5473150774E-01    4.0009039416E-01
    3.4974480989E-01    3.0541652053E-01    2.6868847608E-01    2.4095894203E-01
    2.2339978689E-01    2.1692010744E-01    2.2213624847E-01    2.3934912008E-01
    2.6852953613E-01    3.0931209630E-01    3.6099791654E-01    4.2256628454E-01
    4.9269508331E-01    5.6978959327E-01    6.5201905822E-01    7.3736018807E-01
    8.2364657755E-01    9.0862285100E-01    9.9000220210E-01    1.0655258896E+00
    1.1330231778E+00    1.1904701773E+00    1.2360460453E+00    1.2681850526E+00
    1.2856231069E+00    1.2874374453E+00    1.2730783650E+00    1.2423920482E+00
    1.1956337530E+00    1.1334708763E+00    1.0569756467E+00    9.6760746448E-01
    8.6718517162E-01    7.5784979052E-01    6.4201852175E-01    5.2233102074E-01
    4.0158918267E-01    2.8269184404E-01    1.6856595584E-01    6.2095891557E-02
   -3.3947378682E-02   -1.1697549174E-01   -1.8464853558E-01   -2.3493585929E-01
   -2.6617028005E-01   -2.7709426360E-01   -2.6689683803E-01   -2.3524021635E-01
   -1.8227534681E-01   -1.0864587533E-01   -1.5480285354E-02    9.5627731034E-02
    2.2265032512E-01    3.6316733809E-01    5.1441804060E-01    6.7336161320E-01
    8.3674499042E-01    1.0011764979E+00    1.1632035570E+00    1.3193926167E+00
    1.4664094031E+00    1.6010975537E+00    1.7205537275E+00    1.8221973541E+00
    1.9038333009E+00    1.9637058989E+00    2.0005429646E+00    2.0135886926E+00
    2.0026245530E+00    1.9679776146E+00    1.9105160167E+00    1.8316316208E+00
    1.7332101829E+00    1.6175896917E+00    1.4875078073E+00    1.3460395993E+00
    1.1965270258E+00    1.0425018043E+00    8.8760344164E-01    7.3549499531E-01
    5.8977845973E-01    4.5391068828E-01    3.3112660589E-01    2.2435949664E-01
    1.3617102475E-01    6.8713226416E-02    2.3426399639E-02    2.4325758636E-03
   -3.8012450163E-04    1.1108226418E-04   -1.6853130070E-05   -1.2699655096E-10
    0.0000000000E+00    0.0000000000E+00    0.0000000000E+00    0.0000000000E+00
    0.0000000000E+00    0.0000000000E+00    0.0000000000E+00    0.0000000000E+00
    0.0000000000E+00    0.0000000000E+00    0.0000000000E+00    0.0000000000E+00
    0.0000000000E+00    0.0000000000E+00    0.0000000000E+00    0.0000000000E+00
 0. 0. 0. 0.
 0. 0. 0. 0.
 0. 0. 0. 0.
 0. 0. 0. 0.
 0. 0. 0. 0.
 0. 0. 0. 0.
 0. 0. 0. 0.
 0. 0. 0. 0.
 0. 0. 0. 0.
 0. 0. 0. 0.
 0. 0. 0. 0.
 0. 0. 0. 0.
 0. 0. 0. 0.
 0. 0. 0. 0.
 0. 0. 0. 0.
 0. 0. 0. 0.
 0. 0. 0. 0.
 0. 0. 0. 0.
 0. 0. 0. 0.
 0. 0. 0. 0.
 0. 0. 0. 0.
 0. 0. 0. 0.
 0. 0. 0. 0.
 0. 0. 0. 0.
 0. 0. 0. 0.
 0. 0. 0. 0.
 0. 0. 0. 0.
 0. 0. 0. 0.
 0. 0. 0. 0.
 0. 0. 0. 0.
 0. 0. 0. 0.
 0. 0. 0. 0.
 0. 0. 0. 0.
 0. 0. 0. 0.
 0. 0. 0. 0.
 0. 0. 0. 0.
 0. 0. 0. 0.
 0. 0. 0. 0.
 0. 0. 0. 0.
 0. 0. 0. 0.
 0. 0. 0. 0.
 0. 0. 0. 0.
 0. 0. 0. 0.
 0. 0. 0. 0.
 0. 0. 0. 0.
 0. 0. 0. 0.
 0. 0. 0. 0.
 0. 0. 0. 0.
 0. 0. 0. 0.
 0. 0. 0. 0.
 0. 0. 0. 0.
 0. 0. 0. 0.
 0. 0. 0. 0.
 0. 0. 0. 0.
 0. 0. 0. 0.
 0. 0. 0. 0.
 0. 0. 0. 0.
 0. 0. 0. 0.
 0. 0. 0. 0.
 0. 0. 0. 0.
 0. 0. 0. 0.
 0. 0. 0. 0.
 0. 0. 0. 0.
 0. 0. 0. 0.
 0. 0. 0. 0.
 0. 0. 0. 0.
 0. 0. 0. 0.
 0. 0. 0. 0.
 0. 0. 0. 0.
 0. 0. 0. 0.
 0. 0. 0. 0.
 0. 0. 0. 0.
 0. 0. 0. 0.
 0. 0. 0. 0.
 0. 0. 0. 0.
 0. 0. 0. 0.
 0. 0. 0. 0.
 0. 0. 0. 0.
 0. 0. 0. 0.
 0. 0. 0. 0.
 0. 0. 0. 0.
 0. 0. 0. 0.
 0. 0. 0. 0.
 0. 0. 0. 0.
 0. 0. 0. 0.
 0. 0. 0. 0.
 0. 0. 0. 0.
 0. 0. 0. 0.
 0. 0. 0. 0.
 0. 0. 0. 0.
 0. 0. 0. 0.
 0. 0. 0. 0.
 0. 0. 0. 0.
 0. 0. 0. 0.
 0. 0. 0. 0.
 0. 0. 0. 0.
 0. 0. 0. 0.
 0. 0. 0. 0.
 0. 0. 0. 0.
 0. 0. 0. 0.
 0. 0. 0. 0.
 0. 0. 0. 0.
 0. 0. 0. 0.
 0. 0. 0. 0.
 0. 0. 0. 0.
 0. 0. 0. 0.
 0. 0. 0. 0.
 0. 0. 0. 0.
 0. 0. 0. 0.
 0. 0. 0. 0.
 0. 0. 0. 0.
 0. 0. 0. 0.
 0. 0. 0. 0.
 0. 0. 0. 0.
 0. 0. 0. 0.
 0. 0. 0. 0.
 0. 0. 0. 0.
 0. 0. 0. 0.
 0. 0. 0. 0.
 0. 0. 0. 0.
 0. 0. 0. 0.
 0. 0. 0. 0.
 0. 0. 0. 0.
 0. 0. 0. 0.
 0. 0. 0. 0.
 0. 0. 0. 0.
 0. 0. 0. 0.
 0. 0. 0. 0.
 0. 0. 0. 0.
 0. 0. 0. 0.
 0. 0. 0. 0.
 0. 0. 0. 0.
 0. 0. 0. 0.
 0. 0. 0. 0.
 0. 0. 0. 0.
 0. 0. 0. 0.
 0. 0. 0. 0.
 0. 0. 0. 0.
 0. 0. 0. 0.
 0. 0. 0. 0.
 0. 0. 0. 0.
 0. 0. 0. 0.
 0. 0. 0. 0.
 0. 0. 0. 0.
 0. 0. 0. 0.
 0. 0. 0. 0.
 0. 0. 0. 0.
 0. 0. 0. 0.
 0. 0. 0. 0.
 0. 0. 0. 0.
 0. 0. 0. 0.
 0. 0. 0. 0.
 0. 0. 0. 0.
 0. 0. 0. 0.
 0. 0. 0. 0.
 0. 0. 0. 0.
 0. 0. 0. 0.
 0. 0. 0. 0.
 0. 0. 0. 0.
 0. 0. 0. 0.
 0. 0. 0. 0.
 0. 0. 0. 0.
 0. 0. 0. 0.
 0. 0. 0. 0.
 0. 0. 0. 0.
 0. 0. 0. 0.
 0. 0. 0. 0.
 0. 0. 0. 0.
 0. 0. 0. 0.
 0. 0. 0. 0.
 0. 0. 0. 0.
 0. 0. 0. 0.
 0. 0. 0. 0.
 0. 0. 0. 0.
 0. 0. 0. 0.
 0. 0. 0. 0.
 0. 0. 0. 0.
 0. 0. 0. 0.
 0. 0. 0. 0.
 0. 0. 0. 0.
 0. 0. 0. 0.
 0. 0. 0. 0.
 0. 0. 0. 0.
 0. 0. 0. 0.
 0. 0. 0. 0.
 0. 0. 0. 0.
 0. 0. 0. 0.
 0. 0. 0. 0.
 0. 0. 0. 0.
 0. 0. 0. 0.
 0. 0. 0. 0.
 0. 0. 0. 0.
 0. 0. 0. 0.
 0. 0. 0. 0.
 0. 0. 0. 0.
 0. 0. 0. 0.
 0. 0. 0. 0.
 0. 0. 0. 0.
 0. 0. 0. 0.
 0. 0. 0. 0.
 0. 0. 0. 0.
 0. 0. 0. 0.
 0. 0. 0. 0.
 0. 0. 0. 0.
 0. 0. 0. 0.
 0. 0. 0. 0.
 0. 0. 0. 0.
 0. 0. 0. 0.
 0. 0. 0. 0.
 0. 0. 0. 0.
 0. 0. 0. 0.
 0. 0. 0. 0.
 0. 0. 0. 0.
 0. 0. 0. 0.
 0. 0. 0. 0.
 0. 0. 0. 0.
 0. 0. 0. 0.
 0. 0. 0. 0.
 0. 0. 0. 0.
 0. 0. 0. 0.
 0. 0. 0. 0.
 0. 0. 0. 0.
 0. 0. 0. 0.
 0. 0. 0. 0.
 0. 0. 0. 0.
 0. 0. 0. 0.
 0. 0. 0. 0.
 0. 0. 0. 0.
 0. 0. 0. 0.
 0. 0. 0. 0.
 0. 0. 0. 0.
 0. 0. 0. 0.
 0. 0. 0. 0.
 0. 0. 0. 0.
 0. 0. 0. 0.
 0. 0. 0. 0.
 0. 0. 0. 0.
 0. 0. 0. 0.
 0. 0. 0. 0.
 0. 0. 0. 0.
 0. 0. 0. 0.
 0. 0. 0. 0.
 0. 0. 0. 0.
 0. 0. 0. 0.
 0. 0. 0. 0.
 0. 0. 0. 0.
 0. 0. 0. 0.
 0. 0. 0. 0.
 0. 0. 0. 0.
 0. 0. 0. 0.
 0. 0. 0. 0.
 0. 0. 0. 0.
 0. 0. 0. 0.
 0. 0. 0. 0.
 0. 0. 0. 0.
 0. 0. 0. 0.
 0. 0. 0. 0.
 0. 0. 0. 0.
 0. 0. 0. 0.
 0. 0. 0. 0.
 0. 0. 0. 0.
 0. 0. 0. 0.
 0. 0. 0. 0.
 0. 0. 0. 0.
 0. 0. 0. 0.
 0. 0. 0. 0.
 0. 0. 0. 0.
 0. 0. 0. 0.
 0. 0. 0. 0.
 0. 0. 0. 0.
 0. 0. 0. 0.
 0. 0. 0. 0.
 0. 0. 0. 0.
 0. 0. 0. 0.
 0. 0. 0. 0.
 0. 0. 0. 0.
 0. 0. 0. 0.
 0. 0. 0. 0.
 0. 0. 0. 0.
 0. 0. 0. 0.
 0. 0. 0. 0.
   </PP_BETA.4>
   <PP_BETA.5
       type="real"
       size="1300"
       columns="4"
       index="5"
       angular_momentum="2"
       cutoff_radius_index=" 176"
       cutoff_radius="    1.7500000000E+00" >
   -2.5261534677E-08   -3.8617355886E-05   -3.0743017855E-04   -1.0291412014E-03
   -2.4117023542E-03   -4.6415192487E-03   -7.8773327568E-03   -1.2244972643E-02
   -1.7833152951E-02   -2.4690448582E-02   -3.2823558106E-02   -4.2196920168E-02
   -5.2733711079E-02   -6.4318210248E-02   -7.6799479273E-02   -8.9996260875E-02
   -1.0370296647E-01   -1.1769658726E-01   -1.3174433398E-01   -1.4561178614E-01
   -1.5907131288E-01   -1.7191051572E-01   -1.8394043828E-01   -1.9500329005E-01
   -2.0497944030E-01   -2.1379345473E-01   -2.2141896967E-01   -2.2788222794E-01
   -2.3326413441E-01   -2.3770072833E-01   -2.4138201146E-01   -2.4454911609E-01
   -2.4748984291E-01   -2.5053264481E-01   -2.5403917747E-01   -2.5839558029E-01
   -2.6400268984E-01   -2.7126542245E-01   -2.8058159090E-01   -2.9233044223E-01
   -3.0686121856E-01   -3.2448204960E-01   -3.4544948481E-01   -3.6995896369E-01
   -3.9813650545E-01   -4.3003187444E-01   -4.6561344503E-01   -5.0476495115E-01
   -5.4728426066E-01   -5.9288426625E-01   -6.4119593111E-01   -6.9177347379E-01
   -7.4410162043E-01   -7.9760479823E-01   -8.5165809093E-01   -9.0559972788E-01
   -9.5874483376E-01   -1.0104001273E+00   -1.0598792260E+00   -1.1065181906E+00
   -1.1496909274E+00   -1.1888240631E+00   -1.2234109088E+00   -1.2530241453E+00
   -1.2773268842E+00   -1.2960817939E+00   -1.3091580168E+00   -1.3165356577E+00
   -1.3183076736E+00   -1.3146790594E+00   -1.3059632868E+00   -1.2925760195E+00
   -1.2750261984E+00   -1.2539046529E+00   -1.2298704640E+00   -1.2036353584E+00
   -1.1759464737E+00   -1.1475678768E+00   -1.1192612597E+00   -1.0917662647E+00
   -1.0657809093E+00   -1.0419425920E+00   -1.0208101517E+00   -1.0028474440E+00
   -9.8840886531E-01   -9.7772722424E-01   -9.7090430673E-01   -9.6790442796E-01
   -9.6855119756E-01   -9.7252765326E-01   -9.7937984134E-01   -9.8852384243E-01
   -9.9925615930E-01   -1.0107673025E+00   -1.0221583310E+00   -1.0324600301E+00
   -1.0406543418E+00   -1.0456975999E+00   -1.0465450746E+00   -1.0421762866E+00
   -1.0316205259E+00   -1.0139819927E+00   -9.8846397452E-01   -9.5439148674E-01
   -9.1123182551E-01   -8.5861252147E-01   -7.9633623097E-01   -7.2439216368E-01
   -6.4296371645E-01   -5.5243206328E-01   -4.5337553867E-01   -3.4656474301E-01
   -2.3295339417E-01   -1.1366504486E-01    1.0024120076E-02    1.3670610171E-01
    2.6486513026E-01    3.9290446623E-01    5.1917542422E-01    6.4200802762E-01
    7.5974265841E-01    8.7076203629E-01    9.7352284575E-01    1.0665863292E+00
    1.1486471798E+00    1.2185600963E+00    1.2753634089E+00    1.3182992415E+00
    1.3468297472E+00    1.3606490364E+00    1.3596905063E+00    1.3441293817E+00
    1.3143803757E+00    1.2710904908E+00    1.2151270830E+00    1.1475614174E+00
    1.0696480460E+00    9.8280042826E-01    8.8856330237E-01    7.8858238875E-01
    6.8457206734E-01    5.7828171891E-01    4.7146145218E-01    3.6582795504E-01
    2.6303120807E-01    1.6462277709E-01    7.2026395454E-02   -1.3488931253E-02
   -9.0833034986E-02   -1.5911430250E-01   -2.1765463272E-01   -2.6599969665E-01
   -3.0392426215E-01   -3.3143248472E-01   -3.4875317216E-01   -3.5633014307E-01
   -3.5480790851E-01   -3.4501301079E-01   -3.2793145048E-01   -3.0468272021E-01
   -2.7649103943E-01   -2.4465445547E-01   -2.1051248594E-01   -1.7541391859E-01
   -1.4068634275E-01   -1.0759684043E-01   -7.7323858385E-02   -5.0929604492E-02
   -2.9335513457E-02   -1.3293397277E-02   -3.3951283702E-03   -8.5494772518E-06
    1.1961572879E-05   -9.0782643812E-06    2.6771799845E-06    6.1163992148E-11
 0. 0. 0. 0.
 0. 0. 0. 0.
 0. 0. 0. 0.
 0. 0. 0. 0.
 0. 0. 0. 0.
 0. 0. 0. 0.
 0. 0. 0. 0.
 0. 0. 0. 0.
 0. 0. 0. 0.
 0. 0. 0. 0.
 0. 0. 0. 0.
 0. 0. 0. 0.
 0. 0. 0. 0.
 0. 0. 0. 0.
 0. 0. 0. 0.
 0. 0. 0. 0.
 0. 0. 0. 0.
 0. 0. 0. 0.
 0. 0. 0. 0.
 0. 0. 0. 0.
 0. 0. 0. 0.
 0. 0. 0. 0.
 0. 0. 0. 0.
 0. 0. 0. 0.
 0. 0. 0. 0.
 0. 0. 0. 0.
 0. 0. 0. 0.
 0. 0. 0. 0.
 0. 0. 0. 0.
 0. 0. 0. 0.
 0. 0. 0. 0.
 0. 0. 0. 0.
 0. 0. 0. 0.
 0. 0. 0. 0.
 0. 0. 0. 0.
 0. 0. 0. 0.
 0. 0. 0. 0.
 0. 0. 0. 0.
 0. 0. 0. 0.
 0. 0. 0. 0.
 0. 0. 0. 0.
 0. 0. 0. 0.
 0. 0. 0. 0.
 0. 0. 0. 0.
 0. 0. 0. 0.
 0. 0. 0. 0.
 0. 0. 0. 0.
 0. 0. 0. 0.
 0. 0. 0. 0.
 0. 0. 0. 0.
 0. 0. 0. 0.
 0. 0. 0. 0.
 0. 0. 0. 0.
 0. 0. 0. 0.
 0. 0. 0. 0.
 0. 0. 0. 0.
 0. 0. 0. 0.
 0. 0. 0. 0.
 0. 0. 0. 0.
 0. 0. 0. 0.
 0. 0. 0. 0.
 0. 0. 0. 0.
 0. 0. 0. 0.
 0. 0. 0. 0.
 0. 0. 0. 0.
 0. 0. 0. 0.
 0. 0. 0. 0.
 0. 0. 0. 0.
 0. 0. 0. 0.
 0. 0. 0. 0.
 0. 0. 0. 0.
 0. 0. 0. 0.
 0. 0. 0. 0.
 0. 0. 0. 0.
 0. 0. 0. 0.
 0. 0. 0. 0.
 0. 0. 0. 0.
 0. 0. 0. 0.
 0. 0. 0. 0.
 0. 0. 0. 0.
 0. 0. 0. 0.
 0. 0. 0. 0.
 0. 0. 0. 0.
 0. 0. 0. 0.
 0. 0. 0. 0.
 0. 0. 0. 0.
 0. 0. 0. 0.
 0. 0. 0. 0.
 0. 0. 0. 0.
 0. 0. 0. 0.
 0. 0. 0. 0.
 0. 0. 0. 0.
 0. 0. 0. 0.
 0. 0. 0. 0.
 0. 0. 0. 0.
 0. 0. 0. 0.
 0. 0. 0. 0.
 0. 0. 0. 0.
 0. 0. 0. 0.
 0. 0. 0. 0.
 0. 0. 0. 0.
 0. 0. 0. 0.
 0. 0. 0. 0.
 0. 0. 0. 0.
 0. 0. 0. 0.
 0. 0. 0. 0.
 0. 0. 0. 0.
 0. 0. 0. 0.
 0. 0. 0. 0.
 0. 0. 0. 0.
 0. 0. 0. 0.
 0. 0. 0. 0.
 0. 0. 0. 0.
 0. 0. 0. 0.
 0. 0. 0. 0.
 0. 0. 0. 0.
 0. 0. 0. 0.
 0. 0. 0. 0.
 0. 0. 0. 0.
 0. 0. 0. 0.
 0. 0. 0. 0.
 0. 0. 0. 0.
 0. 0. 0. 0.
 0. 0. 0. 0.
 0. 0. 0. 0.
 0. 0. 0. 0.
 0. 0. 0. 0.
 0. 0. 0. 0.
 0. 0. 0. 0.
 0. 0. 0. 0.
 0. 0. 0. 0.
 0. 0. 0. 0.
 0. 0. 0. 0.
 0. 0. 0. 0.
 0. 0. 0. 0.
 0. 0. 0. 0.
 0. 0. 0. 0.
 0. 0. 0. 0.
 0. 0. 0. 0.
 0. 0. 0. 0.
 0. 0. 0. 0.
 0. 0. 0. 0.
 0. 0. 0. 0.
 0. 0. 0. 0.
 0. 0. 0. 0.
 0. 0. 0. 0.
 0. 0. 0. 0.
 0. 0. 0. 0.
 0. 0. 0. 0.
 0. 0. 0. 0.
 0. 0. 0. 0.
 0. 0. 0. 0.
 0. 0. 0. 0.
 0. 0. 0. 0.
 0. 0. 0. 0.
 0. 0. 0. 0.
 0. 0. 0. 0.
 0. 0. 0. 0.
 0. 0. 0. 0.
 0. 0. 0. 0.
 0. 0. 0. 0.
 0. 0. 0. 0.
 0. 0. 0. 0.
 0. 0. 0. 0.
 0. 0. 0. 0.
 0. 0. 0. 0.
 0. 0. 0. 0.
 0. 0. 0. 0.
 0. 0. 0. 0.
 0. 0. 0. 0.
 0. 0. 0. 0.
 0. 0. 0. 0.
 0. 0. 0. 0.
 0. 0. 0. 0.
 0. 0. 0. 0.
 0. 0. 0. 0.
 0. 0. 0. 0.
 0. 0. 0. 0.
 0. 0. 0. 0.
 0. 0. 0. 0.
 0. 0. 0. 0.
 0. 0. 0. 0.
 0. 0. 0. 0.
 0. 0. 0. 0.
 0. 0. 0. 0.
 0. 0. 0. 0.
 0. 0. 0. 0.
 0. 0. 0. 0.
 0. 0. 0. 0.
 0. 0. 0. 0.
 0. 0. 0. 0.
 0. 0. 0. 0.
 0. 0. 0. 0.
 0. 0. 0. 0.
 0. 0. 0. 0.
 0. 0. 0. 0.
 0. 0. 0. 0.
 0. 0. 0. 0.
 0. 0. 0. 0.
 0. 0. 0. 0.
 0. 0. 0. 0.
 0. 0. 0. 0.
 0. 0. 0. 0.
 0. 0. 0. 0.
 0. 0. 0. 0.
 0. 0. 0. 0.
 0. 0. 0. 0.
 0. 0. 0. 0.
 0. 0. 0. 0.
 0. 0. 0. 0.
 0. 0. 0. 0.
 0. 0. 0. 0.
 0. 0. 0. 0.
 0. 0. 0. 0.
 0. 0. 0. 0.
 0. 0. 0. 0.
 0. 0. 0. 0.
 0. 0. 0. 0.
 0. 0. 0. 0.
 0. 0. 0. 0.
 0. 0. 0. 0.
 0. 0. 0. 0.
 0. 0. 0. 0.
 0. 0. 0. 0.
 0. 0. 0. 0.
 0. 0. 0. 0.
 0. 0. 0. 0.
 0. 0. 0. 0.
 0. 0. 0. 0.
 0. 0. 0. 0.
 0. 0. 0. 0.
 0. 0. 0. 0.
 0. 0. 0. 0.
 0. 0. 0. 0.
 0. 0. 0. 0.
 0. 0. 0. 0.
 0. 0. 0. 0.
 0. 0. 0. 0.
 0. 0. 0. 0.
 0. 0. 0. 0.
 0. 0. 0. 0.
 0. 0. 0. 0.
 0. 0. 0. 0.
 0. 0. 0. 0.
 0. 0. 0. 0.
 0. 0. 0. 0.
 0. 0. 0. 0.
 0. 0. 0. 0.
 0. 0. 0. 0.
 0. 0. 0. 0.
 0. 0. 0. 0.
 0. 0. 0. 0.
 0. 0. 0. 0.
 0. 0. 0. 0.
 0. 0. 0. 0.
 0. 0. 0. 0.
 0. 0. 0. 0.
 0. 0. 0. 0.
 0. 0. 0. 0.
 0. 0. 0. 0.
 0. 0. 0. 0.
 0. 0. 0. 0.
 0. 0. 0. 0.
 0. 0. 0. 0.
 0. 0. 0. 0.
 0. 0. 0. 0.
 0. 0. 0. 0.
 0. 0. 0. 0.
 0. 0. 0. 0.
 0. 0. 0. 0.
 0. 0. 0. 0.
 0. 0. 0. 0.
 0. 0. 0. 0.
 0. 0. 0. 0.
 0. 0. 0. 0.
 0. 0. 0. 0.
 0. 0. 0. 0.
 0. 0. 0. 0.
 0. 0. 0. 0.
 0. 0. 0. 0.
 0. 0. 0. 0.
   </PP_BETA.5>
   <PP_BETA.6
       type="real"
       size="1300"
       columns="4"
       index="6"
       angular_momentum="2"
       cutoff_radius_index=" 176"
       cutoff_radius="    1.7500000000E+00" >
   -1.8128732768E-08   -9.0360842560E-06   -7.1505182098E-05   -2.3695537796E-04
   -5.4731561432E-04   -1.0334580254E-03   -1.7121930195E-03   -2.5838192253E-03
   -3.6303322890E-03   -4.8143748743E-03   -6.0789857191E-03   -7.3481789719E-03
   -8.5283570577E-03   -9.5105318667E-03   -1.0173300954E-02   -1.0386498584E-02
   -1.0015416630E-02   -8.9254684006E-03   -6.9871500280E-03   -4.0811398096E-03
   -1.0336631474E-04    5.0301285074E-03    1.1378704263E-02    1.8973182089E-02
    2.7812605344E-02    3.7861840286E-02    4.9050134984E-02    6.1270729417E-02
    7.4381581022E-02    8.8207238314E-02    1.0254186181E-01    1.1715335690E-01
    1.3178854884E-01    1.4617929631E-01    1.6004940831E-01    1.7312220040E-01
    1.8512850093E-01    1.9581489758E-01    2.0495199915E-01    2.1234247794E-01
    2.1782865493E-01    2.2129939333E-01    2.2269607562E-01    2.2201745606E-01
    2.1932320283E-01    2.1473597294E-01    2.0844189630E-01    2.0068938394E-01
    1.9178621690E-01    1.8209491669E-01    1.7202644416E-01    1.6203231945E-01
    1.5259530121E-01    1.4421880611E-01    1.3741528942E-01    1.3269384287E-01
    1.3054729578E-01    1.3143912868E-01    1.3579052504E-01    1.4396789506E-01
    1.5627120532E-01    1.7292344002E-01    1.9406150234E-01    2.1972883917E-01
    2.4987003945E-01    2.8432761536E-01    3.2284112903E-01    3.6504877444E-01
    4.1049146745E-01    4.5861943688E-01    5.0880124770E-01    5.6033512598E-01
    6.1246239430E-01    6.6438276904E-01    7.1527121772E-01    7.6429602679E-01
    8.1063769046E-01    8.5350819850E-01    8.9217027847E-01    9.2595613491E-01
    9.5428522589E-01    9.7668062594E-01    9.9278354448E-01    1.0023655990E+00
    1.0053384833E+00    1.0017607225E+00    9.9184126349E-01    9.7593971898E-01
    9.5456315406E-01    9.2835938190E-01    8.9810681547E-01    8.6470100285E-01
    8.2913805379E-01    7.9249524236E-01    7.5590914301E-01    7.2055172355E-01
    6.8760487625E-01    6.5823391657E-01    6.3356061619E-01    6.1463636207E-01
    6.0241604544E-01    5.9773328314E-01    6.0127755892E-01    6.1357384304E-01
    6.3496520705E-01    6.6559889546E-01    7.0541624993E-01    7.5414680530E-01
    8.1130679093E-01    8.7620217902E-01    9.4793632402E-01    1.0254221369E+00
    1.1073986374E+00    1.1924516276E+00    1.2790381351E+00    1.3655141847E+00
    1.4501653742E+00    1.5312396632E+00    1.6069817190E+00    1.6756681217E+00
    1.7356426982E+00    1.7853512392E+00    1.8233748519E+00    1.8484612228E+00
    1.8595530912E+00    1.8558132903E+00    1.8366457693E+00    1.8017120936E+00
    1.7509430053E+00    1.6845447279E+00    1.6029998072E+00    1.5070623944E+00
    1.3977479935E+00    1.2763178167E+00    1.1442580052E+00    1.0032540877E+00
    8.5516115365E-01    7.0197031599E-01    5.4577212283E-01    3.8871765040E-01
    2.3297806606E-01    8.0703491128E-02   -6.6017983730E-02   -2.0520027256E-01
   -3.3499741289E-01   -4.5373902889E-01   -5.5996231836E-01   -6.5244092614E-01
   -7.3021081734E-01   -7.9258969343E-01   -8.3918975464E-01   -8.6992453781E-01
   -8.8500959477E-01   -8.8495698368E-01   -8.7056366211E-01   -8.4289399987E-01
   -8.0325675441E-01   -7.5317697009E-01   -6.9436337151E-01   -6.2867191826E-01
   -5.5806626905E-01   -4.8457600700E-01   -4.1025335025E-01   -3.3713291002E-01
   -2.6719553033E-01   -2.0229825675E-01   -1.4414992068E-01   -9.4277258126E-02
   -5.3993508823E-02   -2.4357385788E-02   -6.2000650148E-03   -1.5510228945E-05
    2.1757655078E-05   -1.6537796022E-05    4.8895398215E-06    5.1723991107E-11
 0. 0. 0. 0.
 0. 0. 0. 0.
 0. 0. 0. 0.
 0. 0. 0. 0.
 0. 0. 0. 0.
 0. 0. 0. 0.
 0. 0. 0. 0.
 0. 0. 0. 0.
 0. 0. 0. 0.
 0. 0. 0. 0.
 0. 0. 0. 0.
 0. 0. 0. 0.
 0. 0. 0. 0.
 0. 0. 0. 0.
 0. 0. 0. 0.
 0. 0. 0. 0.
 0. 0. 0. 0.
 0. 0. 0. 0.
 0. 0. 0. 0.
 0. 0. 0. 0.
 0. 0. 0. 0.
 0. 0. 0. 0.
 0. 0. 0. 0.
 0. 0. 0. 0.
 0. 0. 0. 0.
 0. 0. 0. 0.
 0. 0. 0. 0.
 0. 0. 0. 0.
 0. 0. 0. 0.
 0. 0. 0. 0.
 0. 0. 0. 0.
 0. 0. 0. 0.
 0. 0. 0. 0.
 0. 0. 0. 0.
 0. 0. 0. 0.
 0. 0. 0. 0.
 0. 0. 0. 0.
 0. 0. 0. 0.
 0. 0. 0. 0.
 0. 0. 0. 0.
 0. 0. 0. 0.
 0. 0. 0. 0.
 0. 0. 0. 0.
 0. 0. 0. 0.
 0. 0. 0. 0.
 0. 0. 0. 0.
 0. 0. 0. 0.
 0. 0. 0. 0.
 0. 0. 0. 0.
 0. 0. 0. 0.
 0. 0. 0. 0.
 0. 0. 0. 0.
 0. 0. 0. 0.
 0. 0. 0. 0.
 0. 0. 0. 0.
 0. 0. 0. 0.
 0. 0. 0. 0.
 0. 0. 0. 0.
 0. 0. 0. 0.
 0. 0. 0. 0.
 0. 0. 0. 0.
 0. 0. 0. 0.
 0. 0. 0. 0.
 0. 0. 0. 0.
 0. 0. 0. 0.
 0. 0. 0. 0.
 0. 0. 0. 0.
 0. 0. 0. 0.
 0. 0. 0. 0.
 0. 0. 0. 0.
 0. 0. 0. 0.
 0. 0. 0. 0.
 0. 0. 0. 0.
 0. 0. 0. 0.
 0. 0. 0. 0.
 0. 0. 0. 0.
 0. 0. 0. 0.
 0. 0. 0. 0.
 0. 0. 0. 0.
 0. 0. 0. 0.
 0. 0. 0. 0.
 0. 0. 0. 0.
 0. 0. 0. 0.
 0. 0. 0. 0.
 0. 0. 0. 0.
 0. 0. 0. 0.
 0. 0. 0. 0.
 0. 0. 0. 0.
 0. 0. 0. 0.
 0. 0. 0. 0.
 0. 0. 0. 0.
 0. 0. 0. 0.
 0. 0. 0. 0.
 0. 0. 0. 0.
 0. 0. 0. 0.
 0. 0. 0. 0.
 0. 0. 0. 0.
 0. 0. 0. 0.
 0. 0. 0. 0.
 0. 0. 0. 0.
 0. 0. 0. 0.
 0. 0. 0. 0.
 0. 0. 0. 0.
 0. 0. 0. 0.
 0. 0. 0. 0.
 0. 0. 0. 0.
 0. 0. 0. 0.
 0. 0. 0. 0.
 0. 0. 0. 0.
 0. 0. 0. 0.
 0. 0. 0. 0.
 0. 0. 0. 0.
 0. 0. 0. 0.
 0. 0. 0. 0.
 0. 0. 0. 0.
 0. 0. 0. 0.
 0. 0. 0. 0.
 0. 0. 0. 0.
 0. 0. 0. 0.
 0. 0. 0. 0.
 0. 0. 0. 0.
 0. 0. 0. 0.
 0. 0. 0. 0.
 0. 0. 0. 0.
 0. 0. 0. 0.
 0. 0. 0. 0.
 0. 0. 0. 0.
 0. 0. 0. 0.
 0. 0. 0. 0.
 0. 0. 0. 0.
 0. 0. 0. 0.
 0. 0. 0. 0.
 0. 0. 0. 0.
 0. 0. 0. 0.
 0. 0. 0. 0.
 0. 0. 0. 0.
 0. 0. 0. 0.
 0. 0. 0. 0.
 0. 0. 0. 0.
 0. 0. 0. 0.
 0. 0. 0. 0.
 0. 0. 0. 0.
 0. 0. 0. 0.
 0. 0. 0. 0.
 0. 0. 0. 0.
 0. 0. 0. 0.
 0. 0. 0. 0.
 0. 0. 0. 0.
 0. 0. 0. 0.
 0. 0. 0. 0.
 0. 0. 0. 0.
 0. 0. 0. 0.
 0. 0. 0. 0.
 0. 0. 0. 0.
 0. 0. 0. 0.
 0. 0. 0. 0.
 0. 0. 0. 0.
 0. 0. 0. 0.
 0. 0. 0. 0.
 0. 0. 0. 0.
 0. 0. 0. 0.
 0. 0. 0. 0.
 0. 0. 0. 0.
 0. 0. 0. 0.
 0. 0. 0. 0.
 0. 0. 0. 0.
 0. 0. 0. 0.
 0. 0. 0. 0.
 0. 0. 0. 0.
 0. 0. 0. 0.
 0. 0. 0. 0.
 0. 0. 0. 0.
 0. 0. 0. 0.
 0. 0. 0. 0.
 0. 0. 0. 0.
 0. 0. 0. 0.
 0. 0. 0. 0.
 0. 0. 0. 0.
 0. 0. 0. 0.
 0. 0. 0. 0.
 0. 0. 0. 0.
 0. 0. 0. 0.
 0. 0. 0. 0.
 0. 0. 0. 0.
 0. 0. 0. 0.
 0. 0. 0. 0.
 0. 0. 0. 0.
 0. 0. 0. 0.
 0. 0. 0. 0.
 0. 0. 0. 0.
 0. 0. 0. 0.
 0. 0. 0. 0.
 0. 0. 0. 0.
 0. 0. 0. 0.
 0. 0. 0. 0.
 0. 0. 0. 0.
 0. 0. 0. 0.
 0. 0. 0. 0.
 0. 0. 0. 0.
 0. 0. 0. 0.
 0. 0. 0. 0.
 0. 0. 0. 0.
 0. 0. 0. 0.
 0. 0. 0. 0.
 0. 0. 0. 0.
 0. 0. 0. 0.
 0. 0. 0. 0.
 0. 0. 0. 0.
 0. 0. 0. 0.
 0. 0. 0. 0.
 0. 0. 0. 0.
 0. 0. 0. 0.
 0. 0. 0. 0.
 0. 0. 0. 0.
 0. 0. 0. 0.
 0. 0. 0. 0.
 0. 0. 0. 0.
 0. 0. 0. 0.
 0. 0. 0. 0.
 0. 0. 0. 0.
 0. 0. 0. 0.
 0. 0. 0. 0.
 0. 0. 0. 0.
 0. 0. 0. 0.
 0. 0. 0. 0.
 0. 0. 0. 0.
 0. 0. 0. 0.
 0. 0. 0. 0.
 0. 0. 0. 0.
 0. 0. 0. 0.
 0. 0. 0. 0.
 0. 0. 0. 0.
 0. 0. 0. 0.
 0. 0. 0. 0.
 0. 0. 0. 0.
 0. 0. 0. 0.
 0. 0. 0. 0.
 0. 0. 0. 0.
 0. 0. 0. 0.
 0. 0. 0. 0.
 0. 0. 0. 0.
 0. 0. 0. 0.
 0. 0. 0. 0.
 0. 0. 0. 0.
 0. 0. 0. 0.
 0. 0. 0. 0.
 0. 0. 0. 0.
 0. 0. 0. 0.
 0. 0. 0. 0.
 0. 0. 0. 0.
 0. 0. 0. 0.
 0. 0. 0. 0.
 0. 0. 0. 0.
 0. 0. 0. 0.
 0. 0. 0. 0.
 0. 0. 0. 0.
 0. 0. 0. 0.
 0. 0. 0. 0.
 0. 0. 0. 0.
 0. 0. 0. 0.
 0. 0. 0. 0.
 0. 0. 0. 0.
 0. 0. 0. 0.
 0. 0. 0. 0.
 0. 0. 0. 0.
 0. 0. 0. 0.
 0. 0. 0. 0.
 0. 0. 0. 0.
 0. 0. 0. 0.
 0. 0. 0. 0.
 0. 0. 0. 0.
 0. 0. 0. 0.
 0. 0. 0. 0.
 0. 0. 0. 0.
 0. 0. 0. 0.
 0. 0. 0. 0.
 0. 0. 0. 0.
 0. 0. 0. 0.
 0. 0. 0. 0.
 0. 0. 0. 0.
 0. 0. 0. 0.
   </PP_BETA.6>
   <PP_DIJ type="real"  size="  36" columns="4">
    1.3430544764E+01    0.0000000000E+00    0.0000000000E+00    0.0000000000E+00
    0.0000000000E+00    0.0000000000E+00    0.0000000000E+00    1.9971516780E+00
    0.0000000000E+00    0.0000000000E+00    0.0000000000E+00    0.0000000000E+00
    0.0000000000E+00    0.0000000000E+00    6.4044768336E+00    0.0000000000E+00
    0.0000000000E+00    0.0000000000E+00    0.0000000000E+00    0.0000000000E+00
    0.0000000000E+00    1.6057529570E+00    0.0000000000E+00    0.0000000000E+00
    0.0000000000E+00    0.0000000000E+00    0.0000000000E+00    0.0000000000E+00
   -5.8889301763E+00    0.0000000000E+00    0.0000000000E+00    0.0000000000E+00
    0.0000000000E+00    0.0000000000E+00    0.0000000000E+00   -1.4558884164E+00
   </PP_DIJ>
 </PP_NONLOCAL>
 <PP_PSWFC>
   <PP_CHI.1
       type="real"
       size="1300"
       columns="4"
       index="1"
       occupation=" 2.000"
       pseudo_energy="   -0.1022896050E+01"
       label="3S"
       l="0" >
   -1.2563852736E-11    8.8587764869E-04    1.7774373337E-03    2.6803589963E-03
    3.6003182459E-03    4.5429838440E-03    5.5140147761E-03    6.5190567901E-03
    7.5637382922E-03    8.6536655046E-03    9.7944168097E-03    1.0991536222E-02
    1.2250525952E-02    1.3576838049E-02    1.4975865126E-02    1.6452930207E-02
    1.8013275741E-02    1.9662051866E-02    2.1404304008E-02    2.3244959949E-02
    2.5188816470E-02    2.7240525740E-02    2.9404581582E-02    3.1685305810E-02
    3.4086834774E-02    3.6613106317E-02    3.9267847292E-02    4.2054561807E-02
    4.4976520365E-02    4.8036750031E-02    5.1238025761E-02    5.4582863007E-02
    5.8073511681E-02    6.1711951566E-02    6.5499889200E-02    6.9438756277E-02
    7.3529709540E-02    7.7773632166E-02    8.2171136566E-02    8.6722568541E-02
    9.1428012693E-02    9.6287298963E-02    1.0130001018E-01    1.0646549046E-01
    1.1178285425E-01    1.1725099597E-01    1.2286859989E-01    1.2863415022E-01
    1.3454594117E-01    1.4060208681E-01    1.4680053051E-01    1.5313905401E-01
    1.5961528564E-01    1.6622670796E-01    1.7297066442E-01    1.7984436512E-01
    1.8684489157E-01    1.9396920045E-01    2.0121412637E-01    2.0857638360E-01
    2.1605256696E-01    2.2363915176E-01    2.3133249310E-01    2.3912882447E-01
    2.4702425597E-01    2.5501477207E-01    2.6309622938E-01    2.7126435436E-01
    2.7951474128E-01    2.8784285058E-01    2.9624400782E-01    3.0471340339E-01
    3.1324609312E-01    3.2183700005E-01    3.3048091730E-01    3.3917251232E-01
    3.4790633251E-01    3.5667681234E-01    3.6547828189E-01    3.7430497692E-01
    3.8315105038E-01    3.9201058532E-01    4.0087760907E-01    4.0974610865E-01
    4.1861004710E-01    4.2746338084E-01    4.3630007746E-01    4.4511413418E-01
    4.5389959635E-01    4.6265057602E-01    4.7136127020E-01    4.8002597860E-01
    4.8863912061E-01    4.9719525126E-01    5.0568907598E-01    5.1411546389E-01
    5.2246945943E-01    5.3074629231E-01    5.3894138543E-01    5.4705036080E-01
    5.5506904337E-01    5.6299346277E-01    5.7081985283E-01    5.7854464913E-01
    5.8616448445E-01    5.9367618238E-01    6.0107674916E-01    6.0836336399E-01
    6.1553336798E-01    6.2258425198E-01    6.2951364354E-01    6.3631929337E-01
    6.4299906143E-01    6.4955090307E-01    6.5597285550E-01    6.6226302485E-01
    6.6841957409E-01    6.7444071223E-01    6.8032468479E-01    6.8606976607E-01
    6.9167425317E-01    6.9713646214E-01    7.0245472617E-01    7.0762739613E-01
    7.1265284343E-01    7.1752946512E-01    7.2225569135E-01    7.2682999505E-01
    7.3125090374E-01    7.3551701322E-01    7.3962700313E-01    7.4357965396E-01
    7.4737386545E-01    7.5100867589E-01    7.5448328222E-01    7.5779706043E-01
    7.6094958609E-01    7.6394065457E-01    7.6677030064E-01    7.6943881715E-01
    7.7194677259E-01    7.7429502705E-01    7.7648474619E-01    7.7851741302E-01
    7.8039483758E-01    7.8211916407E-01    7.8369287277E-01    7.8511871219E-01
    7.8639950333E-01    7.8753802982E-01    7.8853706305E-01    7.8939935466E-01
    7.9012763502E-01    7.9072461242E-01    7.9119297223E-01    7.9153537609E-01
    7.9175446123E-01    7.9185283975E-01    7.9183309804E-01    7.9169779619E-01
    7.9144946746E-01    7.9109061786E-01    7.9062372563E-01    7.9005124090E-01
    7.8937558531E-01    7.8859915168E-01    7.8772430374E-01    7.8675337585E-01
    7.8568867275E-01    7.8453246943E-01    7.8328701088E-01    7.8195451200E-01
    7.8053715747E-01    7.7903710164E-01    7.7745646850E-01    7.7579735157E-01
    7.7406181397E-01    7.7225188831E-01    7.7036957682E-01    7.6841685130E-01
    7.6639565321E-01    7.6430789377E-01    7.6215545400E-01    7.5994018487E-01
    7.5766390741E-01    7.5532841284E-01    7.5293546273E-01    7.5048678916E-01
    7.4798409492E-01    7.4542905366E-01    7.4282331012E-01    7.4016848033E-01
    7.3746615184E-01    7.3471788395E-01    7.3192520793E-01    7.2908962729E-01
    7.2621261801E-01    7.2329562884E-01    7.2034008154E-01    7.1734737115E-01
    7.1431886628E-01    7.1125590940E-01    7.0815981711E-01    7.0503188048E-01
    7.0187336526E-01    6.9868551228E-01    6.9546953768E-01    6.9222663324E-01
    6.8895796672E-01    6.8566468210E-01    6.8234789995E-01    6.7900871773E-01
    6.7564821008E-01    6.7226742915E-01    6.6886740493E-01    6.6544914553E-01
    6.6201363754E-01    6.5856184628E-01    6.5509471617E-01    6.5161317104E-01
    6.4811811439E-01    6.4461042976E-01    6.4109098100E-01    6.3756061259E-01
    6.3402014997E-01    6.3047039980E-01    6.2691215029E-01    6.2334617150E-01
    6.1977321561E-01    6.1619401726E-01    6.1260929383E-01    6.0901974568E-01
    6.0542605653E-01    6.0182889367E-01    5.9822890826E-01    5.9462673565E-01
    5.9102299559E-01    5.8741829256E-01    5.8381321602E-01    5.8020834069E-01
    5.7660422679E-01    5.7300142031E-01    5.6940045331E-01    5.6580184411E-01
    5.6220609760E-01    5.5861370544E-01    5.5502514634E-01    5.5144088632E-01
    5.4786137889E-01    5.4428706534E-01    5.4071837495E-01    5.3715572522E-01
    5.3359952210E-01    5.3005016023E-01    5.2650802314E-01    5.2297348345E-01
    5.1944690313E-01    5.1592863370E-01    5.1241901638E-01    5.0891838239E-01
    5.0542705305E-01    5.0194534008E-01    4.9847354569E-01    4.9501196288E-01
    4.9156087552E-01    4.8812055863E-01    4.8469127851E-01    4.8127329291E-01
    4.7786685126E-01    4.7447219479E-01    4.7108955673E-01    4.6771916247E-01
    4.6436122973E-01    4.6101596871E-01    4.5768358226E-01    4.5436426604E-01
    4.5105820864E-01    4.4776559179E-01    4.4448659047E-01    4.4122137304E-01
    4.3797010144E-01    4.3473293126E-01    4.3151001195E-01    4.2830148688E-01
    4.2510749356E-01    4.2192816368E-01    4.1876362330E-01    4.1561399296E-01
    4.1247938779E-01    4.0935991766E-01    4.0625568726E-01    4.0316679624E-01
    4.0009333933E-01    3.9703540645E-01    3.9399308279E-01    3.9096644897E-01
    3.8795558108E-01    3.8496055087E-01    3.8198142577E-01    3.7901826902E-01
    3.7607113978E-01    3.7314009323E-01    3.7022518063E-01    3.6732644945E-01
    3.6444394342E-01    3.6157770267E-01    3.5872776376E-01    3.5589415981E-01
    3.5307692057E-01    3.5027607250E-01    3.4749163883E-01    3.4472363967E-01
    3.4197209208E-01    3.3923701014E-01    3.3651840499E-01    3.3381628498E-01
    3.3113065568E-01    3.2846151995E-01    3.2580887804E-01    3.2317272764E-01
    3.2055306393E-01    3.1794987969E-01    3.1536316529E-01    3.1279290882E-01
    3.1023909612E-01    3.0770171084E-01    3.0518073448E-01    3.0267614650E-01
    3.0018792432E-01    2.9771604339E-01    2.9526047726E-01    2.9282119760E-01
    2.9039817429E-01    2.8799137545E-01    2.8560076748E-01    2.8322631510E-01
    2.8086798144E-01    2.7852572805E-01    2.7619951494E-01    2.7388930066E-01
    2.7159504229E-01    2.6931669554E-01    2.6705421475E-01    2.6480755294E-01
    2.6257666185E-01    2.6036149200E-01    2.5816199269E-01    2.5597811206E-01
    2.5380979713E-01    2.5165699382E-01    2.4951964700E-01    2.4739770050E-01
    2.4529109719E-01    2.4319977895E-01    2.4112368677E-01    2.3906276070E-01
    2.3701693998E-01    2.3498616297E-01    2.3297036726E-01    2.3096948965E-01
    2.2898346619E-01    2.2701223223E-01    2.2505572242E-01    2.2311387072E-01
    2.2118661049E-01    2.1927387445E-01    2.1737559475E-01    2.1549170296E-01
    2.1362213013E-01    2.1176680676E-01    2.0992566289E-01    2.0809862807E-01
    2.0628563142E-01    2.0448660160E-01    2.0270146689E-01    2.0093015518E-01
    1.9917259399E-01    1.9742871049E-01    1.9569843154E-01    1.9398168368E-01
    1.9227839316E-01    1.9058848596E-01    1.8891188782E-01    1.8724852424E-01
    1.8559832048E-01    1.8396120164E-01    1.8233709259E-01    1.8072591808E-01
    1.7912760266E-01    1.7754207077E-01    1.7596924672E-01    1.7440905472E-01
    1.7286141887E-01    1.7132626321E-01    1.6980351169E-01    1.6829308824E-01
    1.6679491672E-01    1.6530892098E-01    1.6383502485E-01    1.6237315217E-01
    1.6092322678E-01    1.5948517254E-01    1.5805891335E-01    1.5664437315E-01
    1.5524147594E-01    1.5385014579E-01    1.5247030685E-01    1.5110188333E-01
    1.4974479956E-01    1.4839897999E-01    1.4706434916E-01    1.4574083173E-01
    1.4442835253E-01    1.4312683651E-01    1.4183620876E-01    1.4055639454E-01
    1.3928731930E-01    1.3802890863E-01    1.3678108833E-01    1.3554378437E-01
    1.3431692294E-01    1.3310043041E-01    1.3189423338E-01    1.3069825867E-01
    1.2951243332E-01    1.2833668459E-01    1.2717093999E-01    1.2601512726E-01
    1.2486917442E-01    1.2373300972E-01    1.2260656166E-01    1.2148975902E-01
    1.2038253086E-01    1.1928480650E-01    1.1819651553E-01    1.1711758785E-01
    1.1604795364E-01    1.1498754335E-01    1.1393628776E-01    1.1289411793E-01
    1.1186096523E-01    1.1083676135E-01    1.0982143826E-01    1.0881492828E-01
    1.0781716403E-01    1.0682807846E-01    1.0584760483E-01    1.0487567675E-01
    1.0391222814E-01    1.0295719325E-01    1.0201050669E-01    1.0107210338E-01
    1.0014191860E-01    9.9219887956E-02    9.8305947412E-02    9.7400033267E-02
    9.6502082171E-02    9.5612031123E-02    9.4729817474E-02    9.3855378924E-02
    9.2988653530E-02    9.2129579703E-02    9.1278096207E-02    9.0434142168E-02
    8.9597657067E-02    8.8768580744E-02    8.7946853400E-02    8.7132415597E-02
    8.6325208258E-02    8.5525172666E-02    8.4732250469E-02    8.3946383677E-02
    8.3167514662E-02    8.2395586162E-02    8.1630541276E-02    8.0872323469E-02
    8.0120876567E-02    7.9376144764E-02    7.8638072613E-02    7.7906605036E-02
    7.7181687313E-02    7.6463265092E-02    7.5751284380E-02    7.5045691550E-02
    7.4346433334E-02    7.3653456829E-02    7.2966709490E-02    7.2286139133E-02
    7.1611693937E-02    7.0943322436E-02    7.0280973525E-02    6.9624596457E-02
    6.8974140839E-02    6.8329556639E-02    6.7690794175E-02    6.7057804121E-02
    6.6430537507E-02    6.5808945711E-02    6.5192980464E-02    6.4582593847E-02
    6.3977738291E-02    6.3378366572E-02    6.2784431815E-02    6.2195887488E-02
    6.1612687406E-02    6.1034785725E-02    6.0462136942E-02    5.9894695894E-02
    5.9332417759E-02    5.8775258050E-02    5.8223172616E-02    5.7676117642E-02
    5.7134049645E-02    5.6596925474E-02    5.6064702307E-02    5.5537337651E-02
    5.5014789340E-02    5.4497015534E-02    5.3983974716E-02    5.3475625691E-02
    5.2971927585E-02    5.2472839844E-02    5.1978322229E-02    5.1488334819E-02
    5.1002838004E-02    5.0521792490E-02    5.0045159291E-02    4.9572899731E-02
    4.9104975440E-02    4.8641348354E-02    4.8181980715E-02    4.7726835063E-02
    4.7275874241E-02    4.6829061389E-02    4.6386359946E-02    4.5947733643E-02
    4.5513146506E-02    4.5082562851E-02    4.4655947286E-02    4.4233264704E-02
    4.3814480287E-02    4.3399559498E-02    4.2988468084E-02    4.2581172074E-02
    4.2177637774E-02    4.1777831767E-02    4.1381720912E-02    4.0989272342E-02
    4.0600453460E-02    4.0215231939E-02    3.9833575722E-02    3.9455453016E-02
    3.9080832294E-02    3.8709682290E-02    3.8341972000E-02    3.7977670679E-02
    3.7616747838E-02    3.7259173246E-02    3.6904916923E-02    3.6553949141E-02
    3.6206240425E-02    3.5861761545E-02    3.5520483519E-02    3.5182377609E-02
    3.4847415322E-02    3.4515568403E-02    3.4186808840E-02    3.3861108856E-02
    3.3538440911E-02    3.3218777701E-02    3.2902092151E-02    3.2588357419E-02
    3.2277546893E-02    3.1969634186E-02    3.1664593139E-02    3.1362397814E-02
    3.1063022499E-02    3.0766441701E-02    3.0472630144E-02    3.0181562772E-02
    2.9893214744E-02    2.9607561431E-02    2.9324578420E-02    2.9044241505E-02
    2.8766526692E-02    2.8491410191E-02    2.8218868422E-02    2.7948878005E-02
    2.7681415765E-02    2.7416458729E-02    2.7153984121E-02    2.6893969363E-02
    2.6636392076E-02    2.6381230073E-02    2.6128461361E-02    2.5878064138E-02
    2.5630016795E-02    2.5384297907E-02    2.5140886240E-02    2.4899760744E-02
    2.4660900553E-02    2.4424284984E-02    2.4189893535E-02    2.3957705883E-02
    2.3727701885E-02    2.3499861573E-02    2.3274165154E-02    2.3050593012E-02
    2.2829125700E-02    2.2609743944E-02    2.2392428638E-02    2.2177160846E-02
    2.1963921799E-02    2.1752692892E-02    2.1543455684E-02    2.1336191900E-02
    2.1130883422E-02    2.0927512295E-02    2.0726060723E-02    2.0526511066E-02
    2.0328845839E-02    2.0133047716E-02    1.9939099521E-02    1.9746984232E-02
    1.9556684977E-02    1.9368185033E-02    1.9181467829E-02    1.8996516937E-02
    1.8813316078E-02    1.8631849117E-02    1.8452100061E-02    1.8274053062E-02
    1.8097692411E-02    1.7923002540E-02    1.7749968020E-02    1.7578573558E-02
    1.7408804000E-02    1.7240644325E-02    1.7074079648E-02    1.6909095215E-02
    1.6745676406E-02    1.6583808730E-02    1.6423477827E-02    1.6264669464E-02
    1.6107369537E-02    1.5951564067E-02    1.5797239202E-02    1.5644381213E-02
    1.5492976493E-02    1.5343011560E-02    1.5194473050E-02    1.5047347722E-02
    1.4901622452E-02    1.4757284233E-02    1.4614320177E-02    1.4472717513E-02
    1.4332463580E-02    1.4193545837E-02    1.4055951852E-02    1.3919669306E-02
    1.3784685990E-02    1.3650989809E-02    1.3518568772E-02    1.3387410999E-02
    1.3257504717E-02    1.3128838259E-02    1.3001400063E-02    1.2875178673E-02
    1.2750162734E-02    1.2626340997E-02    1.2503702311E-02    1.2382235629E-02
    1.2261930003E-02    1.2142774583E-02    1.2024758620E-02    1.1907871459E-02
    1.1792102544E-02    1.1677441415E-02    1.1563877705E-02    1.1451401143E-02
    1.1340001549E-02    1.1229668839E-02    1.1120393016E-02    1.1012164178E-02
    1.0904972512E-02    1.0798808291E-02    1.0693661882E-02    1.0589523736E-02
    1.0486384391E-02    1.0384234472E-02    1.0283064691E-02    1.0182865842E-02
    1.0083628804E-02    9.9853445394E-03    9.8880040930E-03    9.7915985913E-03
    9.6961192417E-03    9.6015573321E-03    9.5079042299E-03    9.4151513815E-03
    9.3232903113E-03    9.2323126215E-03    9.1422099910E-03    9.0529741749E-03
    8.9645970037E-03    8.8770703830E-03    8.7903862923E-03    8.7045367847E-03
    8.6195139861E-03    8.5353100948E-03    8.4519173806E-03    8.3693281841E-03
    8.2875349165E-03    8.2065300585E-03    8.1263061599E-03    8.0468558391E-03
    7.9681717823E-03    7.8902467428E-03    7.8130735409E-03    7.7366450627E-03
    7.6609542599E-03    7.5859941491E-03    7.5117578113E-03    7.4382383912E-03
    7.3654290966E-03    7.2933231981E-03    7.2219140283E-03    7.1511949814E-03
    7.0811595124E-03    7.0118011369E-03    6.9431134303E-03    6.8750900275E-03
    6.8077246221E-03    6.7410109660E-03    6.6749428690E-03    6.6095141980E-03
    6.5447188770E-03    6.4805508858E-03    6.4170042604E-03    6.3540730916E-03
    6.2917515253E-03    6.2300337616E-03    6.1689140543E-03    6.1083867106E-03
    6.0484460905E-03    5.9890866062E-03    5.9303027220E-03    5.8720889535E-03
    5.8144398672E-03    5.7573500804E-03    5.7008142601E-03    5.6448271230E-03
    5.5893834350E-03    5.5344780108E-03    5.4801057130E-03    5.4262614525E-03
    5.3729401874E-03    5.3201369226E-03    5.2678467099E-03    5.2160646470E-03
    5.1647858775E-03    5.1140055900E-03    5.0637190184E-03    5.0139214407E-03
    4.9646081794E-03    4.9157746003E-03    4.8674161128E-03    4.8195281691E-03
    4.7721062638E-03    4.7251459339E-03    4.6786427579E-03    4.6325923558E-03
    4.5869903886E-03    4.5418325579E-03    4.4971146057E-03    4.4528323136E-03
    4.4089815030E-03    4.3655580343E-03    4.3225578070E-03    4.2799767588E-03
    4.2378108656E-03    4.1960561410E-03    4.1547086362E-03    4.1137644394E-03
    4.0732196755E-03    4.0330705059E-03    3.9933131281E-03    3.9539437752E-03
    3.9149587159E-03    3.8763542540E-03    3.8381267279E-03    3.8002725108E-03
    3.7627880097E-03    3.7256696658E-03    3.6889139534E-03    3.6525173805E-03
    3.6164764878E-03    3.5807878484E-03    3.5454480682E-03    3.5104537848E-03
    3.4758016676E-03    3.4414884176E-03    3.4075107666E-03    3.3738654776E-03
    3.3405493442E-03    3.3075591901E-03    3.2748918691E-03    3.2425442649E-03
    3.2105132905E-03    3.1787958882E-03    3.1473890292E-03    3.1162897134E-03
    3.0854949692E-03    3.0550018529E-03    3.0248074490E-03    2.9949088695E-03
    2.9653032537E-03    2.9359877682E-03    2.9069596063E-03    2.8782159881E-03
    2.8497541600E-03    2.8215713944E-03    2.7936649899E-03    2.7660322706E-03
    2.7386705860E-03    2.7115773108E-03    2.6847498448E-03    2.6581856123E-03
    2.6318820622E-03    2.6058366677E-03    2.5800469261E-03    2.5545103583E-03
    2.5292245091E-03    2.5041869465E-03    2.4793952616E-03    2.4548470687E-03
    2.4305400046E-03    2.4064717288E-03    2.3826399230E-03    2.3590422910E-03
    2.3356765586E-03    2.3125404733E-03    2.2896318041E-03    2.2669483411E-03
    2.2444878959E-03    2.2222483006E-03    2.2002274083E-03    2.1784230924E-03
    2.1568332469E-03    2.1354557856E-03    2.1142886425E-03    2.0933297714E-03
    2.0725771453E-03    2.0520287572E-03    2.0316826187E-03    2.0115367609E-03
    1.9915892336E-03    1.9718381051E-03    1.9522814625E-03    1.9329174111E-03
    1.9137440743E-03    1.8947595937E-03    1.8759621284E-03    1.8573498556E-03
    1.8389209695E-03    1.8206736820E-03    1.8026062221E-03    1.7847168356E-03
    1.7670037853E-03    1.7494653508E-03    1.7320998281E-03    1.7149055294E-03
    1.6978807836E-03    1.6810239351E-03    1.6643333447E-03    1.6478073886E-03
    1.6314444590E-03    1.6152429632E-03    1.5992013240E-03    1.5833179794E-03
    1.5675913824E-03    1.5520200010E-03    1.5366023179E-03    1.5213368302E-03
    1.5062220498E-03    1.4912565029E-03    1.4764387297E-03    1.4617672847E-03
    1.4472407362E-03    1.4328576664E-03    1.4186166711E-03    1.4045163598E-03
    1.3905553552E-03    1.3767322935E-03    1.3630458240E-03    1.3494946090E-03
    1.3360773238E-03    1.3227926564E-03    1.3096393076E-03    1.2966159907E-03
    1.2837214314E-03    1.2709543678E-03    1.2583135502E-03    1.2457977409E-03
    1.2334057142E-03    1.2211362565E-03    1.2089881656E-03    1.1969602511E-03
    1.1850513341E-03    1.1732602472E-03    1.1615858342E-03    1.1500269501E-03
    1.1385824611E-03    1.1272512444E-03    1.1160321879E-03    1.1049241904E-03
    1.0939261615E-03    1.0830370212E-03    1.0722556999E-03    1.0615811387E-03
    1.0510122887E-03    1.0405481113E-03    1.0301875779E-03    1.0199296700E-03
    1.0097733789E-03    9.9971770572E-04    9.8976166134E-04    9.7990426618E-04
    9.7014455021E-04    9.6048155282E-04    9.5091432276E-04    9.4144191799E-04
    9.3206340568E-04    9.2277786204E-04    9.1358437227E-04    9.0448203048E-04
    8.9546993961E-04    8.8654721129E-04    8.7771296584E-04    8.6896633212E-04
    8.6030644750E-04    8.5173245771E-04    8.4324351683E-04    8.3483878719E-04
    8.2651743925E-04    8.1827865160E-04    8.1012161079E-04    8.0204551133E-04
    7.9404955557E-04    7.8613295365E-04    7.7829492341E-04    7.7053469032E-04
    7.6285148740E-04    7.5524455515E-04    7.4771314151E-04    7.4025650174E-04
    7.3287389837E-04    7.2556460113E-04    7.1832788689E-04    7.1116303959E-04
    7.0406935013E-04    6.9704611638E-04    6.9009264305E-04    6.8320824164E-04
    6.7639223040E-04    6.6964393422E-04    6.6296268460E-04    6.5634781958E-04
    6.4979868369E-04    6.4331462783E-04    6.3689500928E-04    6.3053919161E-04
    6.2424654461E-04    6.1801644423E-04    6.1184827254E-04    6.0574141765E-04
    5.9969527368E-04    5.9370924065E-04    5.8778272448E-04    5.8191513691E-04
    5.7610589543E-04    5.7035442325E-04    5.6466014922E-04    5.5902250779E-04
    5.5344093895E-04    5.4791488820E-04    5.4244380645E-04    5.3702715001E-04
    5.3166438052E-04    5.2635496488E-04    5.2109837525E-04    5.1589408895E-04
    5.1074158844E-04    5.0564036124E-04    5.0058989991E-04    4.9558970199E-04
    4.9063926996E-04    4.8573811118E-04    4.8088573783E-04    4.7608166691E-04
    4.7132542013E-04    4.6661652394E-04    4.6195450940E-04    4.5733891220E-04
    4.5276927259E-04    4.4824513534E-04    4.4376604968E-04    4.3933156928E-04
    4.3494125221E-04    4.3059466087E-04    4.2629136195E-04    4.2203092644E-04
    4.1781292951E-04    4.1363695054E-04    4.0950257302E-04    4.0540938455E-04
    4.0135697680E-04    3.9734494543E-04    3.9337289012E-04    3.8944041444E-04
    3.8554712591E-04    3.8169263589E-04    3.7787655956E-04    3.7409851590E-04
    3.7035812765E-04    3.6665502125E-04    3.6298882683E-04    3.5935917816E-04
    3.5576571262E-04    3.5220807115E-04    3.4868589826E-04    3.4519884193E-04
    3.4174655363E-04    3.3832868825E-04    3.3494490410E-04    3.3159486285E-04
    3.2827822950E-04    3.2499467237E-04    3.2174386304E-04    3.1852547631E-04
    3.1533919024E-04    3.1218468601E-04    3.0906164799E-04    3.0596976363E-04
    3.0290872348E-04    2.9987822116E-04    2.9687795327E-04    2.9390761946E-04
    2.9096692230E-04    2.8805556732E-04    2.8517326296E-04    2.8231972051E-04
    2.7949465415E-04    2.7669778087E-04    2.7392882043E-04    2.7118749540E-04
    2.6847353105E-04    2.6578665540E-04    2.6312659914E-04    2.6049309563E-04
    2.5788588084E-04    2.5530469338E-04    2.5274927444E-04    2.5021936775E-04
    2.4771471959E-04    2.4523507874E-04    2.4278019648E-04    2.4034982652E-04
    2.3794372503E-04    2.3556165059E-04    2.3320336416E-04    2.3086862907E-04
    2.2855721099E-04    2.2626887790E-04    2.2400340009E-04    2.2176055012E-04
    2.1954010279E-04    2.1734183515E-04    2.1516552644E-04    2.1301095808E-04
    2.1087791368E-04    2.0876617896E-04    2.0667554179E-04    2.0460579212E-04
    2.0255672199E-04    2.0052812550E-04    1.9851979879E-04    1.9653154002E-04
    1.9456314934E-04    1.9261442889E-04    1.9068518276E-04    1.8877521700E-04
    1.8688433957E-04    1.8501236032E-04    1.8315909102E-04    1.8132434526E-04
    1.7950793852E-04    1.7770968808E-04    1.7592941305E-04    1.7416693432E-04
    1.7242207456E-04    1.7069465822E-04    1.6898451144E-04    1.6729146214E-04
    1.6561533992E-04    1.6395597606E-04    1.6231320353E-04    1.6068685697E-04
    1.5907677262E-04    1.5748278839E-04    1.5590474376E-04    1.5434247983E-04
    1.5279583926E-04    1.5126466628E-04    1.4974880668E-04    1.4824810774E-04
    1.4676241830E-04    1.4529158868E-04    1.4383547068E-04    1.4239391759E-04
    1.4096678414E-04    1.3955392650E-04    1.3815520229E-04    1.3677047053E-04
    1.3539959164E-04    1.3404242743E-04    1.3269884107E-04    1.3136869711E-04
    1.3005186144E-04    1.2874820126E-04    1.2745758513E-04    1.2617988287E-04
    1.2491496563E-04    1.2366270583E-04    1.2242297715E-04    1.2119565454E-04
    1.1998061417E-04    1.1877773346E-04    1.1758689105E-04    1.1640796677E-04
    1.1524084166E-04    1.1408539794E-04    1.1294151899E-04    1.1180908937E-04
    1.1068799476E-04    1.0957812201E-04    1.0847935907E-04    1.0739159501E-04
    1.0631472002E-04    1.0524862535E-04    1.0419320336E-04    1.0314834747E-04
    1.0211395216E-04    1.0108991296E-04    1.0007612645E-04    9.9072490220E-05
    9.8078902894E-05    9.7095264100E-05    9.6121474463E-05    9.5157435600E-05
    9.4203050106E-05    9.3258221547E-05    9.2322854446E-05    9.1396854278E-05
    9.0480127461E-05    8.9572581342E-05    8.8674124192E-05    8.7784665194E-05
    8.6904114437E-05    8.6032382903E-05    8.5169382464E-05    8.4315025867E-05
    8.3469226728E-05    8.2631899524E-05    8.1802959585E-05    8.0982323083E-05
    8.0169907025E-05    7.9365629246E-05    7.8569408398E-05    7.7781163945E-05
    7.7000816152E-05    7.6228286080E-05    7.5463495575E-05    7.4706367263E-05
    7.3956824542E-05    7.3214791570E-05    7.2480193264E-05    7.1752955288E-05
    7.1033004048E-05    7.0320266682E-05    6.9614671057E-05    6.8916145755E-05
    6.8224620074E-05    6.7540024014E-05    6.6862288275E-05    6.6191344247E-05
    6.5527124003E-05    6.4869560296E-05    6.4218586548E-05    6.3574136844E-05
    6.2936145929E-05    6.2304549195E-05    6.1679282683E-05    6.1060283068E-05
    6.0447487660E-05    5.9840834390E-05    5.9240261813E-05    5.8645709094E-05
    5.8057116005E-05    5.7474422920E-05    5.6897570808E-05    5.6326501226E-05
    5.5761156314E-05    5.5201478791E-05    5.4647411946E-05    5.4098899634E-05
    5.3555886272E-05    5.3018316829E-05    5.2486136826E-05    5.1959292326E-05
    5.1437729931E-05    5.0921396776E-05    5.0410240523E-05    4.9904209358E-05
    4.9403251983E-05    4.8907317611E-05    4.8416355966E-05    4.7930317270E-05
    4.7449152243E-05    4.6972812098E-05    4.6501248536E-05    4.6034413737E-05
    4.5572260361E-05    4.5114741540E-05    4.4661810876E-05    4.4213422431E-05
    4.3769530728E-05    4.3330090743E-05    4.2895057904E-05    4.2464388082E-05
    4.2038037588E-05    4.1615963173E-05    4.1198122016E-05    4.0784471728E-05
    4.0374970339E-05    3.9969576301E-05    3.9568248482E-05    3.9170946157E-05
    3.8777629013E-05    3.8388257136E-05    3.8002791012E-05    3.7621191523E-05
    3.7243419940E-05    3.6869437923E-05    3.6499207512E-05    3.6132691131E-05
    3.5769851575E-05    3.5410652015E-05    3.5055055986E-05    3.4703027390E-05
    3.4354530491E-05    3.4009529906E-05    3.3667990610E-05    3.3329877926E-05
    3.2995157524E-05    3.2663795417E-05    3.2335757959E-05    3.2011011838E-05
    3.1689524078E-05    3.1371262031E-05    3.1056193375E-05    3.0744286112E-05
    3.0435508565E-05    3.0129829371E-05    2.9827217484E-05    2.9527642166E-05
    2.9231072987E-05    2.8937479821E-05    2.8646832845E-05    2.8359102533E-05
    2.8074259653E-05    2.7792275269E-05    2.7513120730E-05    2.7236767676E-05
    2.6963188027E-05    2.6692353986E-05    2.6424238034E-05    2.6158812926E-05
    2.5896051690E-05    2.5635927626E-05    2.5378414298E-05    2.5123485536E-05
    2.4871115432E-05    2.4621278337E-05    2.4373948858E-05    2.4129101858E-05
    2.3886712449E-05    2.3646755994E-05    2.3409208101E-05    2.3174044624E-05
   </PP_CHI.1>
   <PP_CHI.2
       type="real"
       size="1300"
       columns="4"
       index="2"
       occupation=" 3.000"
       pseudo_energy="   -0.4027538412E+00"
       label="3P"
       l="1" >
    9.5949771566E-12    5.1944229034E-05    2.0775867325E-04    4.6738884096E-04
    8.3074469804E-04    1.2977018260E-03    1.8681030039E-03    2.5417601743E-03
    3.3184567470E-03    4.1979501820E-03    5.1799747882E-03    6.2642446686E-03
    7.4504567364E-03    8.7382937266E-03    1.0127427124E-02    1.1617519929E-02
    1.3208229194E-02    1.4899208244E-02    1.6690108536E-02    1.8580581084E-02
    2.0570277409E-02    2.2658849970E-02    2.4845952052E-02    2.7131237087E-02
    2.9514357409E-02    3.1994962448E-02    3.4572696381E-02    3.7247195264E-02
    4.0018083710E-02    4.2884971132E-02    4.5847447643E-02    4.8905079668E-02
    5.2057405351E-02    5.5303929841E-02    5.8644120532E-02    6.2077402370E-02
    6.5603153289E-02    6.9220699884E-02    7.2929313391E-02    7.6728206055E-02
    8.0616527970E-02    8.4593364430E-02    8.8657733864E-02    9.2808586384E-02
    9.7044802986E-02    1.0136519541E-01    1.0576850667E-01    1.1025341222E-01
    1.1481852182E-01    1.1946238188E-01    1.2418347848E-01    1.2898024079E-01
    1.3385104495E-01    1.3879421828E-01    1.4380804372E-01    1.4889076445E-01
    1.5404058859E-01    1.5925569387E-01    1.6453423212E-01    1.6987433360E-01
    1.7527411099E-01    1.8073166302E-01    1.8624507762E-01    1.9181243449E-01
    1.9743180721E-01    2.0310126462E-01    2.0881887158E-01    2.1458268917E-01
    2.2039077408E-01    2.2624117752E-01    2.3213194343E-01    2.3806110621E-01
    2.4402668794E-01    2.5002669520E-01    2.5605911554E-01    2.6212191378E-01
    2.6821302814E-01    2.7433036636E-01    2.8047180199E-01    2.8663517076E-01
    2.9281826741E-01    2.9901884285E-01    3.0523460193E-01    3.1146320181E-01
    3.1770225101E-01    3.2394930927E-01    3.3020188828E-01    3.3645745326E-01
    3.4271342539E-01    3.4896718528E-01    3.5521607721E-01    3.6145741432E-01
    3.6768848461E-01    3.7390655763E-01    3.8010889197E-01    3.8629274320E-01
    3.9245537235E-01    3.9859405471E-01    4.0470608886E-01    4.1078880573E-01
    4.1683957766E-01    4.2285582714E-01    4.2883503530E-01    4.3477474979E-01
    4.4067259212E-01    4.4652626418E-01    4.5233355388E-01    4.5809233985E-01
    4.6380059505E-01    4.6945638930E-01    4.7505789061E-01    4.8060336535E-01
    4.8609117718E-01    4.9151978491E-01    4.9688773914E-01    5.0219367793E-01
    5.0743632141E-01    5.1261446557E-01    5.1772697535E-01    5.2277277709E-01
    5.2775085045E-01    5.3266022024E-01    5.3749994793E-01    5.4226912337E-01
    5.4696685668E-01    5.5159227057E-01    5.5614449325E-01    5.6062265212E-01
    5.6502586831E-01    5.6935325231E-01    5.7360390069E-01    5.7777689417E-01
    5.8187129699E-01    5.8588615759E-01    5.8982051087E-01    5.9367338171E-01
    5.9744379007E-01    6.0113075724E-01    6.0473331359E-01    6.0825050734E-01
    6.1168141450E-01    6.1502514965E-01    6.1828087760E-01    6.2144782550E-01
    6.2452529548E-01    6.2751267742E-01    6.3040946169E-01    6.3321525178E-01
    6.3592977642E-01    6.3855290116E-01    6.4108463929E-01    6.4352516156E-01
    6.4587480445E-01    6.4813407734E-01    6.5030366803E-01    6.5238444703E-01
    6.5437746712E-01    6.5628392000E-01    6.5810503235E-01    6.5984201457E-01
    6.6149607601E-01    6.6306842197E-01    6.6456025180E-01    6.6597275914E-01
    6.6730713144E-01    6.6856454965E-01    6.6974618785E-01    6.7085321303E-01
    6.7188678475E-01    6.7284805486E-01    6.7373816726E-01    6.7455825764E-01
    6.7530945326E-01    6.7599287272E-01    6.7660962574E-01    6.7716081298E-01
    6.7764752583E-01    6.7807084630E-01    6.7843184676E-01    6.7873158987E-01
    6.7897112842E-01    6.7915150517E-01    6.7927375277E-01    6.7933889366E-01
    6.7934793990E-01    6.7930189317E-01    6.7920174464E-01    6.7904847490E-01
    6.7884305393E-01    6.7858644100E-01    6.7827958468E-01    6.7792342275E-01
    6.7751888220E-01    6.7706687920E-01    6.7656831909E-01    6.7602409637E-01
    6.7543509469E-01    6.7480218687E-01    6.7412623488E-01    6.7340808989E-01
    6.7264859230E-01    6.7184857171E-01    6.7100884699E-01    6.7013022635E-01
    6.6921350731E-01    6.6825947678E-01    6.6726891114E-01    6.6624257623E-01
    6.6518122746E-01    6.6408560985E-01    6.6295645809E-01    6.6179449660E-01
    6.6060043963E-01    6.5937499132E-01    6.5811884573E-01    6.5683268701E-01
    6.5551718938E-01    6.5417301729E-01    6.5280082544E-01    6.5140125892E-01
    6.4997495326E-01    6.4852253456E-01    6.4704461950E-01    6.4554181552E-01
    6.4401472088E-01    6.4246392471E-01    6.4089000718E-01    6.3929353954E-01
    6.3767508422E-01    6.3603519497E-01    6.3437441688E-01    6.3269328657E-01
    6.3099233220E-01    6.2927207362E-01    6.2753302247E-01    6.2577568224E-01
    6.2400054839E-01    6.2220810846E-01    6.2039884216E-01    6.1857322144E-01
    6.1673171063E-01    6.1487476652E-01    6.1300283843E-01    6.1111636836E-01
    6.0921579105E-01    6.0730153406E-01    6.0537401792E-01    6.0343365617E-01
    6.0148085549E-01    5.9951601578E-01    5.9753953023E-01    5.9555178548E-01
    5.9355316162E-01    5.9154403235E-01    5.8952476505E-01    5.8749572086E-01
    5.8545725478E-01    5.8340971576E-01    5.8135344675E-01    5.7928878486E-01
    5.7721606137E-01    5.7513560186E-01    5.7304772627E-01    5.7095274900E-01
    5.6885097898E-01    5.6674271978E-01    5.6462826961E-01    5.6250792152E-01
    5.6038196336E-01    5.5825067794E-01    5.5611434306E-01    5.5397323162E-01
    5.5182761165E-01    5.4967774644E-01    5.4752389456E-01    5.4536630995E-01
    5.4320524203E-01    5.4104093569E-01    5.3887363143E-01    5.3670356539E-01
    5.3453096944E-01    5.3235607123E-01    5.3017909426E-01    5.2800025792E-01
    5.2581977762E-01    5.2363786478E-01    5.2145472693E-01    5.1927056775E-01
    5.1708558717E-01    5.1489998137E-01    5.1271394288E-01    5.1052766062E-01
    5.0834131997E-01    5.0615510281E-01    5.0396918759E-01    5.0178374936E-01
    4.9959895984E-01    4.9741498747E-01    4.9523199748E-01    4.9305015188E-01
    4.9086960959E-01    4.8869052642E-01    4.8651305517E-01    4.8433734562E-01
    4.8216354464E-01    4.7999179620E-01    4.7782224141E-01    4.7565501857E-01
    4.7349026324E-01    4.7132810823E-01    4.6916868369E-01    4.6701211713E-01
    4.6485853346E-01    4.6270805504E-01    4.6056080169E-01    4.5841689078E-01
    4.5627643722E-01    4.5413955353E-01    4.5200634982E-01    4.4987693393E-01
    4.4775141135E-01    4.4562988534E-01    4.4351245691E-01    4.4139922488E-01
    4.3929028593E-01    4.3718573457E-01    4.3508566324E-01    4.3299016230E-01
    4.3089932010E-01    4.2881322294E-01    4.2673195518E-01    4.2465559921E-01
    4.2258423552E-01    4.2051794270E-01    4.1845679748E-01    4.1640087474E-01
    4.1435024758E-01    4.1230498730E-01    4.1026516344E-01    4.0823084383E-01
    4.0620209457E-01    4.0417898010E-01    4.0216156319E-01    4.0014990498E-01
    3.9814406502E-01    3.9614410126E-01    3.9415007008E-01    3.9216202633E-01
    3.9018002335E-01    3.8820411297E-01    3.8623434556E-01    3.8427077003E-01
    3.8231343386E-01    3.8036238313E-01    3.7841766251E-01    3.7647931532E-01
    3.7454738351E-01    3.7262190772E-01    3.7070292727E-01    3.6879048018E-01
    3.6688460322E-01    3.6498533187E-01    3.6309270041E-01    3.6120674189E-01
    3.5932748815E-01    3.5745496985E-01    3.5558921650E-01    3.5373025646E-01
    3.5187811694E-01    3.5003282406E-01    3.4819440283E-01    3.4636287718E-01
    3.4453826999E-01    3.4272060308E-01    3.4090989724E-01    3.3910617225E-01
    3.3730944689E-01    3.3551973895E-01    3.3373706525E-01    3.3196144166E-01
    3.3019288312E-01    3.2843140364E-01    3.2667701630E-01    3.2492973332E-01
    3.2318956602E-01    3.2145652486E-01    3.1973061945E-01    3.1801185856E-01
    3.1630025012E-01    3.1459580129E-01    3.1289851840E-01    3.1120840700E-01
    3.0952547189E-01    3.0784971709E-01    3.0618114590E-01    3.0451976088E-01
    3.0286556386E-01    3.0121855599E-01    2.9957873770E-01    2.9794610878E-01
    2.9632066831E-01    2.9470241474E-01    2.9309134587E-01    2.9148745888E-01
    2.8989075031E-01    2.8830121612E-01    2.8671885165E-01    2.8514365167E-01
    2.8357561037E-01    2.8201472140E-01    2.8046097783E-01    2.7891437220E-01
    2.7737489654E-01    2.7584254234E-01    2.7431730060E-01    2.7279916182E-01
    2.7128811601E-01    2.6978415270E-01    2.6828726097E-01    2.6679742944E-01
    2.6531464628E-01    2.6383889924E-01    2.6237017562E-01    2.6090846233E-01
    2.5945374586E-01    2.5800601231E-01    2.5656524739E-01    2.5513143644E-01
    2.5370456442E-01    2.5228461593E-01    2.5087157523E-01    2.4946542624E-01
    2.4806615253E-01    2.4667373737E-01    2.4528816368E-01    2.4390941411E-01
    2.4253747098E-01    2.4117231634E-01    2.3981393194E-01    2.3846229926E-01
    2.3711739951E-01    2.3577921366E-01    2.3444772239E-01    2.3312290616E-01
    2.3180474519E-01    2.3049321947E-01    2.2918830876E-01    2.2788999259E-01
    2.2659825032E-01    2.2531306106E-01    2.2403440376E-01    2.2276225716E-01
    2.2149659983E-01    2.2023741014E-01    2.1898466633E-01    2.1773834643E-01
    2.1649842834E-01    2.1526488981E-01    2.1403770841E-01    2.1281686162E-01
    2.1160232673E-01    2.1039408095E-01    2.0919210133E-01    2.0799636482E-01
    2.0680684826E-01    2.0562352835E-01    2.0444638174E-01    2.0327538493E-01
    2.0211051435E-01    2.0095174635E-01    1.9979905718E-01    1.9865242302E-01
    1.9751181996E-01    1.9637722405E-01    1.9524861125E-01    1.9412595747E-01
    1.9300923855E-01    1.9189843028E-01    1.9079350842E-01    1.8969444866E-01
    1.8860122666E-01    1.8751381805E-01    1.8643219841E-01    1.8535634330E-01
    1.8428622825E-01    1.8322182876E-01    1.8216312034E-01    1.8111007844E-01
    1.8006267853E-01    1.7902089606E-01    1.7798470646E-01    1.7695408518E-01
    1.7592900765E-01    1.7490944932E-01    1.7389538562E-01    1.7288679201E-01
    1.7188364394E-01    1.7088591690E-01    1.6989358638E-01    1.6890662788E-01
    1.6792501693E-01    1.6694872908E-01    1.6597773992E-01    1.6501202504E-01
    1.6405156009E-01    1.6309632071E-01    1.6214628263E-01    1.6120142156E-01
    1.6026171329E-01    1.5932713363E-01    1.5839765843E-01    1.5747326360E-01
    1.5655392507E-01    1.5563961883E-01    1.5473032094E-01    1.5382600747E-01
    1.5292665456E-01    1.5203223843E-01    1.5114273530E-01    1.5025812149E-01
    1.4937837337E-01    1.4850346735E-01    1.4763337993E-01    1.4676808763E-01
    1.4590756708E-01    1.4505179494E-01    1.4420074796E-01    1.4335440292E-01
    1.4251273671E-01    1.4167572626E-01    1.4084334858E-01    1.4001558074E-01
    1.3919239990E-01    1.3837378328E-01    1.3755970817E-01    1.3675015193E-01
    1.3594509202E-01    1.3514450594E-01    1.3434837130E-01    1.3355666575E-01
    1.3276936705E-01    1.3198645302E-01    1.3120790157E-01    1.3043369067E-01
    1.2966379839E-01    1.2889820288E-01    1.2813688234E-01    1.2737981510E-01
    1.2662697952E-01    1.2587835408E-01    1.2513391734E-01    1.2439364791E-01
    1.2365752452E-01    1.2292552596E-01    1.2219763111E-01    1.2147381895E-01
    1.2075406852E-01    1.2003835895E-01    1.1932666947E-01    1.1861897938E-01
    1.1791526807E-01    1.1721551501E-01    1.1651969976E-01    1.1582780196E-01
    1.1513980136E-01    1.1445567775E-01    1.1377541106E-01    1.1309898126E-01
    1.1242636842E-01    1.1175755271E-01    1.1109251438E-01    1.1043123375E-01
    1.0977369124E-01    1.0911986736E-01    1.0846974269E-01    1.0782329792E-01
    1.0718051380E-01    1.0654137118E-01    1.0590585099E-01    1.0527393425E-01
    1.0464560206E-01    1.0402083562E-01    1.0339961620E-01    1.0278192516E-01
    1.0216774394E-01    1.0155705407E-01    1.0094983717E-01    1.0034607494E-01
    9.9745749152E-02    9.9148841686E-02    9.8555334491E-02    9.7965209601E-02
    9.7378449136E-02    9.6795035299E-02    9.6214950377E-02    9.5638176738E-02
    9.5064696835E-02    9.4494493203E-02    9.3927548459E-02    9.3363845302E-02
    9.2803366514E-02    9.2246094958E-02    9.1692013578E-02    9.1141105399E-02
    9.0593353529E-02    9.0048741155E-02    8.9507251544E-02    8.8968868045E-02
    8.8433574084E-02    8.7901353169E-02    8.7372188886E-02    8.6846064902E-02
    8.6322964960E-02    8.5802872883E-02    8.5285772573E-02    8.4771648008E-02
    8.4260483244E-02    8.3752262415E-02    8.3246969732E-02    8.2744589483E-02
    8.2245106030E-02    8.1748503815E-02    8.1254767353E-02    8.0763881235E-02
    8.0275830128E-02    7.9790598772E-02    7.9308171985E-02    7.8828534655E-02
    7.8351671748E-02    7.7877568301E-02    7.7406209425E-02    7.6937580305E-02
    7.6471666197E-02    7.6008452430E-02    7.5547924407E-02    7.5090067601E-02
    7.4634867556E-02    7.4182309888E-02    7.3732380284E-02    7.3285064502E-02
    7.2840348369E-02    7.2398217783E-02    7.1958658711E-02    7.1521657190E-02
    7.1087199325E-02    7.0655271291E-02    7.0225859329E-02    6.9798949752E-02
    6.9374528938E-02    6.8952583332E-02    6.8533099449E-02    6.8116063868E-02
    6.7701463235E-02    6.7289284265E-02    6.6879513736E-02    6.6472138492E-02
    6.6067145445E-02    6.5664521568E-02    6.5264253902E-02    6.4866329551E-02
    6.4470735684E-02    6.4077459533E-02    6.3686488395E-02    6.3297809629E-02
    6.2911410657E-02    6.2527278965E-02    6.2145402099E-02    6.1765767671E-02
    6.1388363352E-02    6.1013176874E-02    6.0640196033E-02    6.0269408684E-02
    5.9900802743E-02    5.9534366188E-02    5.9170087055E-02    5.8807953441E-02
    5.8447953503E-02    5.8090075456E-02    5.7734307576E-02    5.7380638197E-02
    5.7029055710E-02    5.6679548567E-02    5.6332105276E-02    5.5986714404E-02
    5.5643364573E-02    5.5302044467E-02    5.4962742821E-02    5.4625448432E-02
    5.4290150151E-02    5.3956836884E-02    5.3625497595E-02    5.3296121302E-02
    5.2968697081E-02    5.2643214061E-02    5.2319661425E-02    5.1998028413E-02
    5.1678304318E-02    5.1360478489E-02    5.1044540325E-02    5.0730479283E-02
    5.0418284871E-02    5.0107946650E-02    4.9799454235E-02    4.9492797294E-02
    4.9187965545E-02    4.8884948762E-02    4.8583736768E-02    4.8284319438E-02
    4.7986686699E-02    4.7690828531E-02    4.7396734962E-02    4.7104396072E-02
    4.6813801993E-02    4.6524942906E-02    4.6237809041E-02    4.5952390680E-02
    4.5668678153E-02    4.5386661842E-02    4.5106332174E-02    4.4827679629E-02
    4.4550694734E-02    4.4275368065E-02    4.4001690245E-02    4.3729651946E-02
    4.3459243890E-02    4.3190456843E-02    4.2923281620E-02    4.2657709085E-02
    4.2393730146E-02    4.2131335760E-02    4.1870516929E-02    4.1611264704E-02
    4.1353570179E-02    4.1097424496E-02    4.0842818842E-02    4.0589744450E-02
    4.0338192599E-02    4.0088154611E-02    3.9839621855E-02    3.9592585743E-02
    3.9347037735E-02    3.9102969331E-02    3.8860372078E-02    3.8619237565E-02
    3.8379557427E-02    3.8141323341E-02    3.7904527028E-02    3.7669160252E-02
    3.7435214819E-02    3.7202682580E-02    3.6971555426E-02    3.6741825292E-02
    3.6513484156E-02    3.6286524036E-02    3.6060936992E-02    3.5836715128E-02
    3.5613850587E-02    3.5392335554E-02    3.5172162255E-02    3.4953322957E-02
    3.4735809969E-02    3.4519615637E-02    3.4304732352E-02    3.4091152541E-02
    3.3878868674E-02    3.3667873258E-02    3.3458158843E-02    3.3249718015E-02
    3.3042543401E-02    3.2836627668E-02    3.2631963520E-02    3.2428543701E-02
    3.2226360992E-02    3.2025408214E-02    3.1825678226E-02    3.1627163925E-02
    3.1429858244E-02    3.1233754156E-02    3.1038844671E-02    3.0845122835E-02
    3.0652581734E-02    3.0461214487E-02    3.0271014253E-02    3.0081974227E-02
    2.9894087639E-02    2.9707347757E-02    2.9521747885E-02    2.9337281361E-02
    2.9153941563E-02    2.8971721899E-02    2.8790615817E-02    2.8610616799E-02
    2.8431718362E-02    2.8253914057E-02    2.8077197472E-02    2.7901562227E-02
    2.7727001979E-02    2.7553510418E-02    2.7381081269E-02    2.7209708290E-02
    2.7039385273E-02    2.6870106046E-02    2.6701864466E-02    2.6534654428E-02
    2.6368469858E-02    2.6203304715E-02    2.6039152992E-02    2.5876008713E-02
    2.5713865937E-02    2.5552718754E-02    2.5392561285E-02    2.5233387687E-02
    2.5075192146E-02    2.4917968879E-02    2.4761712138E-02    2.4606416205E-02
    2.4452075392E-02    2.4298684045E-02    2.4146236538E-02    2.3994727279E-02
    2.3844150705E-02    2.3694501284E-02    2.3545773515E-02    2.3397961926E-02
    2.3251061077E-02    2.3105065557E-02    2.2959969986E-02    2.2815769013E-02
    2.2672457315E-02    2.2530029603E-02    2.2388480612E-02    2.2247805111E-02
    2.2107997894E-02    2.1969053788E-02    2.1830967644E-02    2.1693734347E-02
    2.1557348806E-02    2.1421805962E-02    2.1287100781E-02    2.1153228259E-02
    2.1020183420E-02    2.0887961315E-02    2.0756557024E-02    2.0625965653E-02
    2.0496182336E-02    2.0367202235E-02    2.0239020538E-02    2.0111632461E-02
    1.9985033247E-02    1.9859218164E-02    1.9734182510E-02    1.9609921605E-02
    1.9486430800E-02    1.9363705469E-02    1.9241741013E-02    1.9120532859E-02
    1.9000076461E-02    1.8880367296E-02    1.8761400870E-02    1.8643172712E-02
    1.8525678377E-02    1.8408913446E-02    1.8292873523E-02    1.8177554239E-02
    1.8062951250E-02    1.7949060234E-02    1.7835876897E-02    1.7723396968E-02
    1.7611616199E-02    1.7500530368E-02    1.7390135277E-02    1.7280426751E-02
    1.7171400640E-02    1.7063052816E-02    1.6955379176E-02    1.6848375640E-02
    1.6742038152E-02    1.6636362679E-02    1.6531345210E-02    1.6426981758E-02
    1.6323268359E-02    1.6220201072E-02    1.6117775978E-02    1.6015989179E-02
    1.5914836804E-02    1.5814314999E-02    1.5714419936E-02    1.5615147807E-02
    1.5516494827E-02    1.5418457233E-02    1.5321031282E-02    1.5224213254E-02
    1.5127999452E-02    1.5032386197E-02    1.4937369834E-02    1.4842946727E-02
    1.4749113264E-02    1.4655865851E-02    1.4563200917E-02    1.4471114909E-02
    1.4379604299E-02    1.4288665575E-02    1.4198295248E-02    1.4108489848E-02
    1.4019245927E-02    1.3930560055E-02    1.3842428824E-02    1.3754848844E-02
    1.3667816745E-02    1.3581329178E-02    1.3495382813E-02    1.3409974338E-02
    1.3325100463E-02    1.3240757916E-02    1.3156943443E-02    1.3073653810E-02
    1.2990885802E-02    1.2908636224E-02    1.2826901897E-02    1.2745679663E-02
    1.2664966383E-02    1.2584758933E-02    1.2505054210E-02    1.2425849130E-02
    1.2347140625E-02    1.2268925646E-02    1.2191201162E-02    1.2113964160E-02
    1.2037211645E-02    1.1960940638E-02    1.1885148180E-02    1.1809831328E-02
    1.1734987156E-02    1.1660612756E-02    1.1586705238E-02    1.1513261727E-02
    1.1440279367E-02    1.1367755318E-02    1.1295686757E-02    1.1224070877E-02
    1.1152904889E-02    1.1082186020E-02    1.1011911513E-02    1.0942078627E-02
    1.0872684639E-02    1.0803726840E-02    1.0735202539E-02    1.0667109060E-02
    1.0599443743E-02    1.0532203944E-02    1.0465387035E-02    1.0398990403E-02
    1.0333011451E-02    1.0267447597E-02    1.0202296276E-02    1.0137554936E-02
    1.0073221042E-02    1.0009292073E-02    9.9457655230E-03    9.8826389027E-03
    9.8199097361E-03    9.7575755622E-03    9.6956339352E-03    9.6340824234E-03
    9.5729186102E-03    9.5121400932E-03    9.4517444843E-03    9.3917294099E-03
    9.3320925106E-03    9.2728314411E-03    9.2139438704E-03    9.1554274811E-03
    9.0972799701E-03    9.0394990479E-03    8.9820824390E-03    8.9250278813E-03
    8.8683331265E-03    8.8119959398E-03    8.7560140999E-03    8.7003853988E-03
    8.6451076418E-03    8.5901786475E-03    8.5355962477E-03    8.4813582871E-03
    8.4274626236E-03    8.3739071279E-03    8.3206896836E-03    8.2678081871E-03
    8.2152605476E-03    8.1630446868E-03    8.1111585391E-03    8.0596000512E-03
    8.0083671823E-03    7.9574579042E-03    7.9068702007E-03    7.8566020679E-03
    7.8066515140E-03    7.7570165595E-03    7.7076952366E-03    7.6586855896E-03
    7.6099856746E-03    7.5615935597E-03    7.5135073244E-03    7.4657250601E-03
    7.4182448698E-03    7.3710648680E-03    7.3241831806E-03    7.2775979449E-03
    7.2313073096E-03    7.1853094346E-03    7.1396024912E-03    7.0941846616E-03
    7.0490541392E-03    7.0042091282E-03    6.9596478442E-03    6.9153685132E-03
    6.8713693723E-03    6.8276486693E-03    6.7842046627E-03    6.7410356215E-03
    6.6981398255E-03    6.6555155648E-03    6.6131611401E-03    6.5710748624E-03
    6.5292550530E-03    6.4877000437E-03    6.4464081762E-03    6.4053778025E-03
    6.3646072847E-03    6.3240949948E-03    6.2838393150E-03    6.2438386372E-03
    6.2040913633E-03    6.1645959048E-03    6.1253506832E-03    6.0863541296E-03
    6.0476046845E-03    6.0091007983E-03    5.9708409307E-03    5.9328235509E-03
    5.8950471376E-03    5.8575101787E-03    5.8202111716E-03    5.7831486226E-03
    5.7463210474E-03    5.7097269710E-03    5.6733649271E-03    5.6372334587E-03
    5.6013311176E-03    5.5656564646E-03    5.5302080694E-03    5.4949845105E-03
    5.4599843750E-03    5.4252062588E-03    5.3906487666E-03    5.3563105116E-03
    5.3221901153E-03    5.2882862082E-03    5.2545974289E-03    5.2211224244E-03
    5.1878598501E-03    5.1548083700E-03    5.1219666558E-03    5.0893333879E-03
    5.0569072545E-03    5.0246869521E-03    4.9926711852E-03    4.9608586664E-03
    4.9292481161E-03    4.8978382627E-03    4.8666278424E-03    4.8356155994E-03
    4.8048002856E-03    4.7741806604E-03    4.7437554912E-03    4.7135235528E-03
    4.6834836277E-03    4.6536345060E-03    4.6239749853E-03    4.5945038704E-03
    4.5652199737E-03    4.5361221151E-03    4.5072091216E-03    4.4784798276E-03
    4.4499330746E-03    4.4215677114E-03    4.3933825940E-03    4.3653765853E-03
    4.3375485555E-03    4.3098973817E-03    4.2824219479E-03    4.2551211451E-03
    4.2279938714E-03    4.2010390313E-03    4.1742555366E-03    4.1476423055E-03
    4.1211982631E-03    4.0949223411E-03    4.0688134780E-03    4.0428706187E-03
    4.0170927149E-03    3.9914787246E-03    3.9660276124E-03    3.9407383493E-03
    3.9156099129E-03    3.8906412868E-03    3.8658314613E-03    3.8411794328E-03
    3.8166842040E-03    3.7923447838E-03    3.7681601873E-03    3.7441294358E-03
    3.7202515565E-03    3.6965255829E-03    3.6729505545E-03    3.6495255166E-03
    3.6262495207E-03    3.6031216241E-03    3.5801408900E-03    3.5573063874E-03
    3.5346171913E-03    3.5120723822E-03    3.4896710466E-03    3.4674122765E-03
    3.4452951698E-03    3.4233188298E-03    3.4014823657E-03    3.3797848919E-03
    3.3582255286E-03    3.3368034015E-03    3.3155176416E-03    3.2943673855E-03
    3.2733517751E-03    3.2524699579E-03    3.2317210863E-03    3.2111043184E-03
    3.1906188174E-03    3.1702637518E-03    3.1500382953E-03    3.1299416267E-03
    3.1099729300E-03    3.0901313944E-03    3.0704162140E-03    3.0508265881E-03
    3.0313617210E-03    3.0120208219E-03    2.9928031050E-03    2.9737077896E-03
    2.9547340995E-03    2.9358812638E-03    2.9171485162E-03    2.8985350953E-03
    2.8800402443E-03    2.8616632115E-03    2.8434032495E-03    2.8252596159E-03
    2.8072315728E-03    2.7893183871E-03    2.7715193301E-03    2.7538336779E-03
    2.7362607109E-03    2.7187997142E-03    2.7014499773E-03    2.6842107942E-03
    2.6670814635E-03    2.6500612878E-03    2.6331495746E-03    2.6163456353E-03
    2.5996487859E-03    2.5830583466E-03    2.5665736419E-03    2.5501940006E-03
    2.5339187556E-03    2.5177472442E-03    2.5016788076E-03    2.4857127913E-03
    2.4698485450E-03    2.4540854223E-03    2.4384227811E-03    2.4228599831E-03
    2.4073963942E-03    2.3920313842E-03    2.3767643269E-03    2.3615946001E-03
    2.3465215854E-03    2.3315446684E-03    2.3166632385E-03    2.3018766890E-03
    2.2871844171E-03    2.2725858235E-03    2.2580803131E-03    2.2436672942E-03
    2.2293461790E-03    2.2151163834E-03    2.2009773269E-03    2.1869284329E-03
    2.1729691280E-03    2.1590988429E-03    2.1453170116E-03    2.1316230716E-03
    2.1180164643E-03    2.1044966343E-03    2.0910630299E-03    2.0777151028E-03
    2.0644523080E-03    2.0512741043E-03    2.0381799537E-03    2.0251693216E-03
    2.0122416767E-03    1.9993964914E-03    1.9866332409E-03    1.9739514042E-03
    1.9613504634E-03    1.9488299037E-03    1.9363892140E-03    1.9240278859E-03
    1.9117454146E-03    1.8995412983E-03    1.8874150384E-03    1.8753661396E-03
    1.8633941096E-03    1.8514984591E-03    1.8396787021E-03    1.8279343557E-03
    1.8162649398E-03    1.8046699775E-03    1.7931489950E-03    1.7817015214E-03
    1.7703270886E-03    1.7590252319E-03    1.7477954891E-03    1.7366374012E-03
    1.7255505120E-03    1.7145343682E-03    1.7035885193E-03    1.6927125178E-03
    1.6819059190E-03    1.6711682809E-03    1.6604991644E-03    1.6498981331E-03
    1.6393647535E-03    1.6288985948E-03    1.6184992287E-03    1.6081662300E-03
    1.5978991759E-03    1.5876976465E-03    1.5775612242E-03    1.5674894945E-03
    1.5574820453E-03    1.5475384670E-03    1.5376583528E-03    1.5278412983E-03
    1.5180869019E-03    1.5083947644E-03    1.4987644890E-03    1.4891956817E-03
    1.4796879508E-03    1.4702409071E-03    1.4608541639E-03    1.4515273371E-03
    1.4422600447E-03    1.4330519074E-03    1.4239025482E-03    1.4148115926E-03
    1.4057786683E-03    1.3968034055E-03    1.3878854366E-03    1.3790243966E-03
    1.3702199225E-03    1.3614716538E-03    1.3527792322E-03    1.3441423018E-03
    1.3355605088E-03    1.3270335017E-03    1.3185609314E-03    1.3101424507E-03
    1.3017777148E-03    1.2934663811E-03    1.2852081091E-03    1.2770025605E-03
    1.2688493992E-03    1.2607482911E-03    1.2526989043E-03    1.2447009091E-03
    1.2367539777E-03    1.2288577846E-03    1.2210120061E-03    1.2132163208E-03
    1.2054704093E-03    1.1977739541E-03    1.1901266398E-03    1.1825281531E-03
    1.1749781825E-03    1.1674764185E-03    1.1600225538E-03    1.1526162828E-03
    1.1452573020E-03    1.1379453097E-03    1.1306800063E-03    1.1234610938E-03
   </PP_CHI.2>
 </PP_PSWFC>
 <PP_NLCC type="real"  size="1300" columns="4">
    4.8209510856E-01    4.8197892568E-01    4.8163053433E-01    4.8105040609E-01
    4.8023932581E-01    4.7919838993E-01    4.7792900420E-01    4.7643288069E-01
    4.7471203415E-01    4.7276877783E-01    4.7060571853E-01    4.6822575118E-01
    4.6563205275E-01    4.6282807560E-01    4.5981754029E-01    4.5660442783E-01
    4.5319297141E-01    4.4958764768E-01    4.4579316750E-01    4.4181446629E-01
    4.3765669392E-01    4.3332520429E-01    4.2882554441E-01    4.2416344329E-01
    4.1934480043E-01    4.1437567409E-01    4.0926226927E-01    4.0401092552E-01
    3.9862810454E-01    3.9312037766E-01    3.8749441320E-01    3.8175696370E-01
    3.7591485318E-01    3.6997496431E-01    3.6394422564E-01    3.5782959884E-01
    3.5163806606E-01    3.4537661733E-01    3.3905223818E-01    3.3267189734E-01
    3.2624253471E-01    3.1977104950E-01    3.1326428865E-01    3.0672903547E-01
    3.0017199869E-01    2.9359980169E-01    2.8701897217E-01    2.8043593220E-01
    2.7385698853E-01    2.6728832346E-01    2.6073598604E-01    2.5420588370E-01
    2.4770377436E-01    2.4123525900E-01    2.3480577471E-01    2.2842058814E-01
    2.2208478961E-01    2.1580328752E-01    2.0958080339E-01    2.0342186739E-01
    1.9733081432E-01    1.9131178014E-01    1.8536869900E-01    1.7950530078E-01
    1.7372510910E-01    1.6803143987E-01    1.6242740028E-01    1.5691588828E-01
    1.5149959258E-01    1.4618099306E-01    1.4096236160E-01    1.3584576345E-01
    1.3083305893E-01    1.2592590559E-01    1.2112576071E-01    1.1643388425E-01
    1.1185134212E-01    1.0737900977E-01    1.0301757619E-01    9.8767548115E-02
    9.4629254581E-02    9.0602851746E-02    8.6688327945E-02    8.2885508977E-02
    7.9194063614E-02    7.5613509285E-02    7.2143217937E-02    6.8782422050E-02
    6.5530220766E-02    6.2385586148E-02    5.9347369510E-02    5.6414307828E-02
    5.3585030203E-02    5.0858064349E-02    4.8231843101E-02    4.5704710921E-02
    4.3274930380E-02    4.0940688604E-02    3.8700103670E-02    3.6551230927E-02
    3.4492069241E-02    3.2520567139E-02    3.0634628844E-02    2.8832120187E-02
    2.7110874384E-02    2.5468697672E-02    2.3903374779E-02    2.2412674244E-02
    2.0994353550E-02    1.9646164088E-02    1.8365855923E-02    1.7151182376E-02
    1.5999904398E-02    1.4909794750E-02    1.3878641967E-02    1.2904254121E-02
    1.1984462368E-02    1.1117124278E-02    1.0300126962E-02    9.5313899773E-03
    8.8088680184E-03    8.1305534053E-03    7.4944783543E-03    6.8987170462E-03
    6.3413874890E-03    5.8206531820E-03    5.3347245828E-03    4.8818603839E-03
    4.4603686030E-03    4.0686074923E-03    3.7049862731E-03    3.3679657013E-03
    3.0560584703E-03    2.7678294587E-03    2.5018958279E-03    2.2569269786E-03
    2.0316443719E-03    1.8248212232E-03    1.6352820755E-03    1.4619022607E-03
    1.3036072551E-03    1.1593719367E-03    1.0282197532E-03    9.0922180631E-04
    8.0149586005E-04    7.0420528137E-04    6.1655791866E-04    5.3780492602E-04
    4.6723953960E-04    4.0419581287E-04    3.4804731699E-04    2.9820581246E-04
    2.5411989814E-04    2.1527364315E-04    1.8118520720E-04    1.5140545451E-04
    1.2551656630E-04    1.0313065642E-04    8.3888394589E-05    6.7457641296E-05
    5.3532098251E-05    4.1829977883E-05    3.2092695202E-05    2.4083584999E-05
    1.7586647126E-05    1.2405322311E-05    8.3613006897E-06    5.2933650090E-06
    3.0562701635E-06    1.5196605216E-06    5.6702623212E-07    9.4699490703E-08
    1.0891520417E-08    2.3477081274E-07    6.9558297729E-07    1.3318123590E-06
    2.0903854036E-06    2.9259155863E-06    3.7999895604E-06    4.6804940398E-06
    5.5409827946E-06    6.3600830153E-06    7.1209401913E-06    7.8107005479E-06
    8.4200299948E-06    8.9426684609E-06    9.3750184220E-06    9.7157663652E-06
    9.9655358884E-06    1.0126571090E-05    1.0202448877E-05    1.0197818783E-05
    1.0118168907E-05    9.9696165218E-06    9.7587219598E-06    9.4923243550E-06
    9.1773978378E-06    8.8209268109E-06    8.4297989477E-06    8.0107145900E-06
    7.5701112519E-06    7.1141019778E-06    6.6484263420E-06    6.1784129224E-06
    5.7089521258E-06    5.2444782949E-06    4.7889600746E-06    4.3458980702E-06
    3.9183288797E-06    3.5088346416E-06    3.1195572862E-06    2.7522167407E-06
    2.4081323856E-06    2.0882471181E-06    1.7931534258E-06    1.5231209273E-06
    1.2781248886E-06    1.0578752681E-06    8.6184589443E-07    6.8930342063E-07
    5.3933574639E-07    4.1087963911E-07    3.0274732371E-07    2.1365184582E-07
    1.4223104950E-07    8.7070043213E-08    4.6722056682E-08    1.9727617463E-08
    4.6320029916E-09    9.4763205307E-13    4.4346041730E-09    1.6579775533E-08
    3.5140453107E-08    5.8886710387E-08    8.6662013931E-08    1.1738902174E-07
    1.5007395286E-07    1.8380961551E-07    2.1777718721E-07    2.5124684584E-07
    2.8357735254E-07    3.1421468833E-07    3.4268984796E-07    3.6861589282E-07
    3.9168436261E-07    4.1166114496E-07    4.2838189692E-07    4.4174710824E-07
    4.5171689411E-07    4.5830559826E-07    4.6157628099E-07    4.6163516433E-07
    4.5862609876E-07    4.5272510809E-07    4.4413506748E-07    4.3308056082E-07
    4.1980295588E-07    4.0455573493E-07    3.8760010891E-07    3.6920093654E-07
    3.4962297036E-07    3.2912744063E-07    3.0796898440E-07    2.8639292787E-07
    2.6463291812E-07    2.4290890150E-07    2.2142544369E-07    2.0037037791E-07
    1.7991377060E-07    1.6020718925E-07    1.4138325372E-07    1.2355545417E-07
    1.0681821395E-07    9.1247176867E-08    7.6899697212E-08    6.3815509643E-08
    5.2017557203E-08    4.1512954291E-08    3.2294063801E-08    2.4339665361E-08
    1.7616195286E-08    1.2079037859E-08    7.6738480652E-09    4.3378905507E-09
    2.0013747246E-09    5.8877413930E-10    2.0114406770E-11    2.1221691569E-10
    1.0798899609E-09    2.5370533805E-09    4.4977934468E-09    6.8773373180E-09
    9.5929439588E-09    1.2564707459E-08    1.5716268024E-08    1.8975432920E-08
    2.2274702262E-08    2.5551704970E-08    2.8749543065E-08    3.1817048875E-08
    3.4708957919E-08    3.7386000925E-08    3.9814921128E-08    4.1968420025E-08
    4.3825039236E-08    4.5368982615E-08    4.6589886090E-08    4.7482540655E-08
    4.8046575510E-08    4.8286107217E-08    4.8209361857E-08    4.7828275410E-08
    4.7158079794E-08    4.6216878339E-08    4.5025218701E-08    4.3605665443E-08
    4.1982380121E-08    4.0180710313E-08    3.8226794244E-08    3.6147182275E-08
    3.3968480206E-08    3.1717015705E-08    2.9418530958E-08    2.7097902956E-08
    2.4778892675E-08    2.2483924639E-08    2.0233896489E-08    1.8048019955E-08
    1.5943691587E-08    1.3936394335E-08    1.2039627462E-08    1.0264865405E-08
    8.6215425747E-09    7.1170640917E-09    5.7568393272E-09    4.5443375342E-09
    3.4811626126E-09    2.5672237756E-09    1.8004842379E-09    1.1777761530E-09
    6.9411798298E-10    3.4142945359E-10    1.1799828667E-10    1.7971605872E-11
   -1.7368813638E-12    6.9215828965E-13    8.8285142715E-13    3.6337385569E-13
    2.0450101841E-13   -1.5606407948E-13   -1.4656778396E-13    0.0000000000E+00
    0.0000000000E+00    0.0000000000E+00    0.0000000000E+00    0.0000000000E+00
    0.0000000000E+00    0.0000000000E+00    0.0000000000E+00    0.0000000000E+00
    0.0000000000E+00    0.0000000000E+00    0.0000000000E+00    0.0000000000E+00
    0.0000000000E+00    0.0000000000E+00    0.0000000000E+00    0.0000000000E+00
    0.0000000000E+00    0.0000000000E+00    0.0000000000E+00    0.0000000000E+00
    0.0000000000E+00    0.0000000000E+00    0.0000000000E+00    0.0000000000E+00
    0.0000000000E+00    0.0000000000E+00    0.0000000000E+00    0.0000000000E+00
    0.0000000000E+00    0.0000000000E+00    0.0000000000E+00    0.0000000000E+00
    0.0000000000E+00    0.0000000000E+00    0.0000000000E+00    0.0000000000E+00
    0.0000000000E+00    0.0000000000E+00    0.0000000000E+00    0.0000000000E+00
    0.0000000000E+00    0.0000000000E+00    0.0000000000E+00    0.0000000000E+00
    0.0000000000E+00    0.0000000000E+00    0.0000000000E+00    0.0000000000E+00
    0.0000000000E+00    0.0000000000E+00    0.0000000000E+00    0.0000000000E+00
    0.0000000000E+00    0.0000000000E+00    0.0000000000E+00    0.0000000000E+00
    0.0000000000E+00    0.0000000000E+00    0.0000000000E+00    0.0000000000E+00
    0.0000000000E+00    0.0000000000E+00    0.0000000000E+00    0.0000000000E+00
    0.0000000000E+00    0.0000000000E+00    0.0000000000E+00    0.0000000000E+00
    0.0000000000E+00    0.0000000000E+00    0.0000000000E+00    0.0000000000E+00
    0.0000000000E+00    0.0000000000E+00    0.0000000000E+00    0.0000000000E+00
    0.0000000000E+00    0.0000000000E+00    0.0000000000E+00    0.0000000000E+00
    0.0000000000E+00    0.0000000000E+00    0.0000000000E+00    0.0000000000E+00
    0.0000000000E+00    0.0000000000E+00    0.0000000000E+00    0.0000000000E+00
    0.0000000000E+00    0.0000000000E+00    0.0000000000E+00    0.0000000000E+00
    0.0000000000E+00    0.0000000000E+00    0.0000000000E+00    0.0000000000E+00
    0.0000000000E+00    0.0000000000E+00    0.0000000000E+00    0.0000000000E+00
    0.0000000000E+00    0.0000000000E+00    0.0000000000E+00    0.0000000000E+00
    0.0000000000E+00    0.0000000000E+00    0.0000000000E+00    0.0000000000E+00
    0.0000000000E+00    0.0000000000E+00    0.0000000000E+00    0.0000000000E+00
    0.0000000000E+00    0.0000000000E+00    0.0000000000E+00    0.0000000000E+00
    0.0000000000E+00    0.0000000000E+00    0.0000000000E+00    0.0000000000E+00
    0.0000000000E+00    0.0000000000E+00    0.0000000000E+00    0.0000000000E+00
    0.0000000000E+00    0.0000000000E+00    0.0000000000E+00    0.0000000000E+00
    0.0000000000E+00    0.0000000000E+00    0.0000000000E+00    0.0000000000E+00
    0.0000000000E+00    0.0000000000E+00    0.0000000000E+00    0.0000000000E+00
    0.0000000000E+00    0.0000000000E+00    0.0000000000E+00    0.0000000000E+00
    0.0000000000E+00    0.0000000000E+00    0.0000000000E+00    0.0000000000E+00
    0.0000000000E+00    0.0000000000E+00    0.0000000000E+00    0.0000000000E+00
    0.0000000000E+00    0.0000000000E+00    0.0000000000E+00    0.0000000000E+00
    0.0000000000E+00    0.0000000000E+00    0.0000000000E+00    0.0000000000E+00
    0.0000000000E+00    0.0000000000E+00    0.0000000000E+00    0.0000000000E+00
    0.0000000000E+00    0.0000000000E+00    0.0000000000E+00    0.0000000000E+00
    0.0000000000E+00    0.0000000000E+00    0.0000000000E+00    0.0000000000E+00
    0.0000000000E+00    0.0000000000E+00    0.0000000000E+00    0.0000000000E+00
    0.0000000000E+00    0.0000000000E+00    0.0000000000E+00    0.0000000000E+00
    0.0000000000E+00    0.0000000000E+00    0.0000000000E+00    0.0000000000E+00
    0.0000000000E+00    0.0000000000E+00    0.0000000000E+00    0.0000000000E+00
    0.0000000000E+00    0.0000000000E+00    0.0000000000E+00    0.0000000000E+00
    0.0000000000E+00    0.0000000000E+00    0.0000000000E+00    0.0000000000E+00
    0.0000000000E+00    0.0000000000E+00    0.0000000000E+00    0.0000000000E+00
    0.0000000000E+00    0.0000000000E+00    0.0000000000E+00    0.0000000000E+00
    0.0000000000E+00    0.0000000000E+00    0.0000000000E+00    0.0000000000E+00
    0.0000000000E+00    0.0000000000E+00    0.0000000000E+00    0.0000000000E+00
    0.0000000000E+00    0.0000000000E+00    0.0000000000E+00    0.0000000000E+00
    0.0000000000E+00    0.0000000000E+00    0.0000000000E+00    0.0000000000E+00
    0.0000000000E+00    0.0000000000E+00    0.0000000000E+00    0.0000000000E+00
    0.0000000000E+00    0.0000000000E+00    0.0000000000E+00    0.0000000000E+00
    0.0000000000E+00    0.0000000000E+00    0.0000000000E+00    0.0000000000E+00
    0.0000000000E+00    0.0000000000E+00    0.0000000000E+00    0.0000000000E+00
    0.0000000000E+00    0.0000000000E+00    0.0000000000E+00    0.0000000000E+00
    0.0000000000E+00    0.0000000000E+00    0.0000000000E+00    0.0000000000E+00
    0.0000000000E+00    0.0000000000E+00    0.0000000000E+00    0.0000000000E+00
    0.0000000000E+00    0.0000000000E+00    0.0000000000E+00    0.0000000000E+00
    0.0000000000E+00    0.0000000000E+00    0.0000000000E+00    0.0000000000E+00
    0.0000000000E+00    0.0000000000E+00    0.0000000000E+00    0.0000000000E+00
    0.0000000000E+00    0.0000000000E+00    0.0000000000E+00    0.0000000000E+00
    0.0000000000E+00    0.0000000000E+00    0.0000000000E+00    0.0000000000E+00
    0.0000000000E+00    0.0000000000E+00    0.0000000000E+00    0.0000000000E+00
    0.0000000000E+00    0.0000000000E+00    0.0000000000E+00    0.0000000000E+00
    0.0000000000E+00    0.0000000000E+00    0.0000000000E+00    0.0000000000E+00
    0.0000000000E+00    0.0000000000E+00    0.0000000000E+00    0.0000000000E+00
    0.0000000000E+00    0.0000000000E+00    0.0000000000E+00    0.0000000000E+00
    0.0000000000E+00    0.0000000000E+00    0.0000000000E+00    0.0000000000E+00
    0.0000000000E+00    0.0000000000E+00    0.0000000000E+00    0.0000000000E+00
    0.0000000000E+00    0.0000000000E+00    0.0000000000E+00    0.0000000000E+00
    0.0000000000E+00    0.0000000000E+00    0.0000000000E+00    0.0000000000E+00
    0.0000000000E+00    0.0000000000E+00    0.0000000000E+00    0.0000000000E+00
    0.0000000000E+00    0.0000000000E+00    0.0000000000E+00    0.0000000000E+00
    0.0000000000E+00    0.0000000000E+00    0.0000000000E+00    0.0000000000E+00
    0.0000000000E+00    0.0000000000E+00    0.0000000000E+00    0.0000000000E+00
    0.0000000000E+00    0.0000000000E+00    0.0000000000E+00    0.0000000000E+00
    0.0000000000E+00    0.0000000000E+00    0.0000000000E+00    0.0000000000E+00
    0.0000000000E+00    0.0000000000E+00    0.0000000000E+00    0.0000000000E+00
    0.0000000000E+00    0.0000000000E+00    0.0000000000E+00    0.0000000000E+00
    0.0000000000E+00    0.0000000000E+00    0.0000000000E+00    0.0000000000E+00
    0.0000000000E+00    0.0000000000E+00    0.0000000000E+00    0.0000000000E+00
    0.0000000000E+00    0.0000000000E+00    0.0000000000E+00    0.0000000000E+00
    0.0000000000E+00    0.0000000000E+00    0.0000000000E+00    0.0000000000E+00
    0.0000000000E+00    0.0000000000E+00    0.0000000000E+00    0.0000000000E+00
    0.0000000000E+00    0.0000000000E+00    0.0000000000E+00    0.0000000000E+00
    0.0000000000E+00    0.0000000000E+00    0.0000000000E+00    0.0000000000E+00
    0.0000000000E+00    0.0000000000E+00    0.0000000000E+00    0.0000000000E+00
    0.0000000000E+00    0.0000000000E+00    0.0000000000E+00    0.0000000000E+00
    0.0000000000E+00    0.0000000000E+00    0.0000000000E+00    0.0000000000E+00
    0.0000000000E+00    0.0000000000E+00    0.0000000000E+00    0.0000000000E+00
    0.0000000000E+00    0.0000000000E+00    0.0000000000E+00    0.0000000000E+00
    0.0000000000E+00    0.0000000000E+00    0.0000000000E+00    0.0000000000E+00
    0.0000000000E+00    0.0000000000E+00    0.0000000000E+00    0.0000000000E+00
    0.0000000000E+00    0.0000000000E+00    0.0000000000E+00    0.0000000000E+00
    0.0000000000E+00    0.0000000000E+00    0.0000000000E+00    0.0000000000E+00
    0.0000000000E+00    0.0000000000E+00    0.0000000000E+00    0.0000000000E+00
    0.0000000000E+00    0.0000000000E+00    0.0000000000E+00    0.0000000000E+00
    0.0000000000E+00    0.0000000000E+00    0.0000000000E+00    0.0000000000E+00
    0.0000000000E+00    0.0000000000E+00    0.0000000000E+00    0.0000000000E+00
    0.0000000000E+00    0.0000000000E+00    0.0000000000E+00    0.0000000000E+00
    0.0000000000E+00    0.0000000000E+00    0.0000000000E+00    0.0000000000E+00
    0.0000000000E+00    0.0000000000E+00    0.0000000000E+00    0.0000000000E+00
    0.0000000000E+00    0.0000000000E+00    0.0000000000E+00    0.0000000000E+00
    0.0000000000E+00    0.0000000000E+00    0.0000000000E+00    0.0000000000E+00
    0.0000000000E+00    0.0000000000E+00    0.0000000000E+00    0.0000000000E+00
    0.0000000000E+00    0.0000000000E+00    0.0000000000E+00    0.0000000000E+00
    0.0000000000E+00    0.0000000000E+00    0.0000000000E+00    0.0000000000E+00
    0.0000000000E+00    0.0000000000E+00    0.0000000000E+00    0.0000000000E+00
    0.0000000000E+00    0.0000000000E+00    0.0000000000E+00    0.0000000000E+00
    0.0000000000E+00    0.0000000000E+00    0.0000000000E+00    0.0000000000E+00
    0.0000000000E+00    0.0000000000E+00    0.0000000000E+00    0.0000000000E+00
    0.0000000000E+00    0.0000000000E+00    0.0000000000E+00    0.0000000000E+00
    0.0000000000E+00    0.0000000000E+00    0.0000000000E+00    0.0000000000E+00
    0.0000000000E+00    0.0000000000E+00    0.0000000000E+00    0.0000000000E+00
    0.0000000000E+00    0.0000000000E+00    0.0000000000E+00    0.0000000000E+00
    0.0000000000E+00    0.0000000000E+00    0.0000000000E+00    0.0000000000E+00
    0.0000000000E+00    0.0000000000E+00    0.0000000000E+00    0.0000000000E+00
    0.0000000000E+00    0.0000000000E+00    0.0000000000E+00    0.0000000000E+00
    0.0000000000E+00    0.0000000000E+00    0.0000000000E+00    0.0000000000E+00
    0.0000000000E+00    0.0000000000E+00    0.0000000000E+00    0.0000000000E+00
    0.0000000000E+00    0.0000000000E+00    0.0000000000E+00    0.0000000000E+00
    0.0000000000E+00    0.0000000000E+00    0.0000000000E+00    0.0000000000E+00
    0.0000000000E+00    0.0000000000E+00    0.0000000000E+00    0.0000000000E+00
    0.0000000000E+00    0.0000000000E+00    0.0000000000E+00    0.0000000000E+00
    0.0000000000E+00    0.0000000000E+00    0.0000000000E+00    0.0000000000E+00
    0.0000000000E+00    0.0000000000E+00    0.0000000000E+00    0.0000000000E+00
    0.0000000000E+00    0.0000000000E+00    0.0000000000E+00    0.0000000000E+00
    0.0000000000E+00    0.0000000000E+00    0.0000000000E+00    0.0000000000E+00
    0.0000000000E+00    0.0000000000E+00    0.0000000000E+00    0.0000000000E+00
    0.0000000000E+00    0.0000000000E+00    0.0000000000E+00    0.0000000000E+00
    0.0000000000E+00    0.0000000000E+00    0.0000000000E+00    0.0000000000E+00
    0.0000000000E+00    0.0000000000E+00    0.0000000000E+00    0.0000000000E+00
    0.0000000000E+00    0.0000000000E+00    0.0000000000E+00    0.0000000000E+00
    0.0000000000E+00    0.0000000000E+00    0.0000000000E+00    0.0000000000E+00
    0.0000000000E+00    0.0000000000E+00    0.0000000000E+00    0.0000000000E+00
    0.0000000000E+00    0.0000000000E+00    0.0000000000E+00    0.0000000000E+00
    0.0000000000E+00    0.0000000000E+00    0.0000000000E+00    0.0000000000E+00
    0.0000000000E+00    0.0000000000E+00    0.0000000000E+00    0.0000000000E+00
    0.0000000000E+00    0.0000000000E+00    0.0000000000E+00    0.0000000000E+00
    0.0000000000E+00    0.0000000000E+00    0.0000000000E+00    0.0000000000E+00
    0.0000000000E+00    0.0000000000E+00    0.0000000000E+00    0.0000000000E+00
    0.0000000000E+00    0.0000000000E+00    0.0000000000E+00    0.0000000000E+00
    0.0000000000E+00    0.0000000000E+00    0.0000000000E+00    0.0000000000E+00
    0.0000000000E+00    0.0000000000E+00    0.0000000000E+00    0.0000000000E+00
    0.0000000000E+00    0.0000000000E+00    0.0000000000E+00    0.0000000000E+00
    0.0000000000E+00    0.0000000000E+00    0.0000000000E+00    0.0000000000E+00
    0.0000000000E+00    0.0000000000E+00    0.0000000000E+00    0.0000000000E+00
    0.0000000000E+00    0.0000000000E+00    0.0000000000E+00    0.0000000000E+00
    0.0000000000E+00    0.0000000000E+00    0.0000000000E+00    0.0000000000E+00
    0.0000000000E+00    0.0000000000E+00    0.0000000000E+00    0.0000000000E+00
    0.0000000000E+00    0.0000000000E+00    0.0000000000E+00    0.0000000000E+00
    0.0000000000E+00    0.0000000000E+00    0.0000000000E+00    0.0000000000E+00
    0.0000000000E+00    0.0000000000E+00    0.0000000000E+00    0.0000000000E+00
    0.0000000000E+00    0.0000000000E+00    0.0000000000E+00    0.0000000000E+00
    0.0000000000E+00    0.0000000000E+00    0.0000000000E+00    0.0000000000E+00
    0.0000000000E+00    0.0000000000E+00    0.0000000000E+00    0.0000000000E+00
    0.0000000000E+00    0.0000000000E+00    0.0000000000E+00    0.0000000000E+00
    0.0000000000E+00    0.0000000000E+00    0.0000000000E+00    0.0000000000E+00
    0.0000000000E+00    0.0000000000E+00    0.0000000000E+00    0.0000000000E+00
    0.0000000000E+00    0.0000000000E+00    0.0000000000E+00    0.0000000000E+00
    0.0000000000E+00    0.0000000000E+00    0.0000000000E+00    0.0000000000E+00
    0.0000000000E+00    0.0000000000E+00    0.0000000000E+00    0.0000000000E+00
    0.0000000000E+00    0.0000000000E+00    0.0000000000E+00    0.0000000000E+00
    0.0000000000E+00    0.0000000000E+00    0.0000000000E+00    0.0000000000E+00
    0.0000000000E+00    0.0000000000E+00    0.0000000000E+00    0.0000000000E+00
    0.0000000000E+00    0.0000000000E+00    0.0000000000E+00    0.0000000000E+00
    0.0000000000E+00    0.0000000000E+00    0.0000000000E+00    0.0000000000E+00
    0.0000000000E+00    0.0000000000E+00    0.0000000000E+00    0.0000000000E+00
    0.0000000000E+00    0.0000000000E+00    0.0000000000E+00    0.0000000000E+00
    0.0000000000E+00    0.0000000000E+00    0.0000000000E+00    0.0000000000E+00
    0.0000000000E+00    0.0000000000E+00    0.0000000000E+00    0.0000000000E+00
    0.0000000000E+00    0.0000000000E+00    0.0000000000E+00    0.0000000000E+00
    0.0000000000E+00    0.0000000000E+00    0.0000000000E+00    0.0000000000E+00
    0.0000000000E+00    0.0000000000E+00    0.0000000000E+00    0.0000000000E+00
    0.0000000000E+00    0.0000000000E+00    0.0000000000E+00    0.0000000000E+00
    0.0000000000E+00    0.0000000000E+00    0.0000000000E+00    0.0000000000E+00
    0.0000000000E+00    0.0000000000E+00    0.0000000000E+00    0.0000000000E+00
    0.0000000000E+00    0.0000000000E+00    0.0000000000E+00    0.0000000000E+00
    0.0000000000E+00    0.0000000000E+00    0.0000000000E+00    0.0000000000E+00
    0.0000000000E+00    0.0000000000E+00    0.0000000000E+00    0.0000000000E+00
    0.0000000000E+00    0.0000000000E+00    0.0000000000E+00    0.0000000000E+00
    0.0000000000E+00    0.0000000000E+00    0.0000000000E+00    0.0000000000E+00
    0.0000000000E+00    0.0000000000E+00    0.0000000000E+00    0.0000000000E+00
    0.0000000000E+00    0.0000000000E+00    0.0000000000E+00    0.0000000000E+00
    0.0000000000E+00    0.0000000000E+00    0.0000000000E+00    0.0000000000E+00
    0.0000000000E+00    0.0000000000E+00    0.0000000000E+00    0.0000000000E+00
    0.0000000000E+00    0.0000000000E+00    0.0000000000E+00    0.0000000000E+00
    0.0000000000E+00    0.0000000000E+00    0.0000000000E+00    0.0000000000E+00
    0.0000000000E+00    0.0000000000E+00    0.0000000000E+00    0.0000000000E+00
    0.0000000000E+00    0.0000000000E+00    0.0000000000E+00    0.0000000000E+00
    0.0000000000E+00    0.0000000000E+00    0.0000000000E+00    0.0000000000E+00
    0.0000000000E+00    0.0000000000E+00    0.0000000000E+00    0.0000000000E+00
    0.0000000000E+00    0.0000000000E+00    0.0000000000E+00    0.0000000000E+00
    0.0000000000E+00    0.0000000000E+00    0.0000000000E+00    0.0000000000E+00
    0.0000000000E+00    0.0000000000E+00    0.0000000000E+00    0.0000000000E+00
    0.0000000000E+00    0.0000000000E+00    0.0000000000E+00    0.0000000000E+00
    0.0000000000E+00    0.0000000000E+00    0.0000000000E+00    0.0000000000E+00
    0.0000000000E+00    0.0000000000E+00    0.0000000000E+00    0.0000000000E+00
    0.0000000000E+00    0.0000000000E+00    0.0000000000E+00    0.0000000000E+00
    0.0000000000E+00    0.0000000000E+00    0.0000000000E+00    0.0000000000E+00
    0.0000000000E+00    0.0000000000E+00    0.0000000000E+00    0.0000000000E+00
    0.0000000000E+00    0.0000000000E+00    0.0000000000E+00    0.0000000000E+00
    0.0000000000E+00    0.0000000000E+00    0.0000000000E+00    0.0000000000E+00
    0.0000000000E+00    0.0000000000E+00    0.0000000000E+00    0.0000000000E+00
    0.0000000000E+00    0.0000000000E+00    0.0000000000E+00    0.0000000000E+00
    0.0000000000E+00    0.0000000000E+00    0.0000000000E+00    0.0000000000E+00
    0.0000000000E+00    0.0000000000E+00    0.0000000000E+00    0.0000000000E+00
    0.0000000000E+00    0.0000000000E+00    0.0000000000E+00    0.0000000000E+00
    0.0000000000E+00    0.0000000000E+00    0.0000000000E+00    0.0000000000E+00
    0.0000000000E+00    0.0000000000E+00    0.0000000000E+00    0.0000000000E+00
    0.0000000000E+00    0.0000000000E+00    0.0000000000E+00    0.0000000000E+00
    0.0000000000E+00    0.0000000000E+00    0.0000000000E+00    0.0000000000E+00
    0.0000000000E+00    0.0000000000E+00    0.0000000000E+00    0.0000000000E+00
    0.0000000000E+00    0.0000000000E+00    0.0000000000E+00    0.0000000000E+00
    0.0000000000E+00    0.0000000000E+00    0.0000000000E+00    0.0000000000E+00
    0.0000000000E+00    0.0000000000E+00    0.0000000000E+00    0.0000000000E+00
    0.0000000000E+00    0.0000000000E+00    0.0000000000E+00    0.0000000000E+00
    0.0000000000E+00    0.0000000000E+00    0.0000000000E+00    0.0000000000E+00
    0.0000000000E+00    0.0000000000E+00    0.0000000000E+00    0.0000000000E+00
    0.0000000000E+00    0.0000000000E+00    0.0000000000E+00    0.0000000000E+00
    0.0000000000E+00    0.0000000000E+00    0.0000000000E+00    0.0000000000E+00
    0.0000000000E+00    0.0000000000E+00    0.0000000000E+00    0.0000000000E+00
    0.0000000000E+00    0.0000000000E+00    0.0000000000E+00    0.0000000000E+00
    0.0000000000E+00    0.0000000000E+00    0.0000000000E+00    0.0000000000E+00
    0.0000000000E+00    0.0000000000E+00    0.0000000000E+00    0.0000000000E+00
    0.0000000000E+00    0.0000000000E+00    0.0000000000E+00    0.0000000000E+00
    0.0000000000E+00    0.0000000000E+00    0.0000000000E+00    0.0000000000E+00
    0.0000000000E+00    0.0000000000E+00    0.0000000000E+00    0.0000000000E+00
    0.0000000000E+00    0.0000000000E+00    0.0000000000E+00    0.0000000000E+00
    0.0000000000E+00    0.0000000000E+00    0.0000000000E+00    0.0000000000E+00
    0.0000000000E+00    0.0000000000E+00    0.0000000000E+00    0.0000000000E+00
    0.0000000000E+00    0.0000000000E+00    0.0000000000E+00    0.0000000000E+00
    0.0000000000E+00    0.0000000000E+00    0.0000000000E+00    0.0000000000E+00
 </PP_NLCC>
 <PP_RHOATOM type="real"  size="1300" columns="4">
    0.0000000000E+00    1.5776530257E-06    6.4480579496E-06    1.5024005684E-05
    2.7994993204E-05    4.6329494502E-05    7.1278144401E-05    1.0437783722E-04
    1.4745673945E-04    2.0264021052E-04    2.7235761771E-04    3.5935002084E-04
    4.6667868895E-04    5.9773439456E-04    7.5624741296E-04    9.4629813270E-04
    1.1723281612E-03    1.4391517860E-03    1.7519676290E-03    2.1163703063E-03
    2.5383618884E-03    3.0243629311E-03    3.5812228362E-03    4.2162292861E-03
    4.9371164896E-03    5.7520719746E-03    6.6697416670E-03    7.6992330028E-03
    8.8501158399E-03    1.0132420954E-02    1.1556635934E-02    1.3133698320E-02
    1.4874985874E-02    1.6792303900E-02    1.8897869589E-02    2.1204293401E-02
    2.3724557535E-02    2.6471991598E-02    2.9460245624E-02    3.2703260602E-02
    3.6215236756E-02    4.0010599800E-02    4.4103965447E-02    4.8510102436E-02
    5.3243894369E-02    5.8320300633E-02    6.3754316684E-02    6.9560933925E-02
    7.5755099428E-02    8.2351675679E-02    8.9365400497E-02    9.6810847266E-02
    1.0470238552E-01    1.1305414197E-01    1.2187996181E-01    1.3119337054E-01
    1.4100753581E-01    1.5133522954E-01    1.6218878992E-01    1.7358008324E-01
    1.8552046532E-01    1.9802074245E-01    2.1109113153E-01    2.2474121947E-01
    2.3897992157E-01    2.5381543901E-01    2.6925521521E-01    2.8530589137E-01
    3.0197326109E-01    3.1926222448E-01    3.3717674182E-01    3.5571978727E-01
    3.7489330299E-01    3.9469815414E-01    4.1513408535E-01    4.3619967928E-01
    4.5789231779E-01    4.8020814665E-01    5.0314204420E-01    5.2668759484E-01
    5.5083706799E-01    5.7558140313E-01    6.0091020156E-01    6.2681172535E-01
    6.5327290396E-01    6.8027934884E-01    7.0781537626E-01    7.3586403845E-01
    7.6440716296E-01    7.9342540018E-01    8.2289827861E-01    8.5280426737E-01
    8.8312084551E-01    9.1382457728E-01    9.4489119241E-01    9.7629567076E-01
    1.0080123299E+00    1.0400149150E+00    1.0722766889E+00    1.1047705232E+00
    1.1374689863E+00    1.1703444299E+00    1.2033690713E+00    1.2365150712E+00
    1.2697546060E+00    1.3030599329E+00    1.3364034487E+00    1.3697577408E+00
    1.4030956301E+00    1.4363902060E+00    1.4696148531E+00    1.5027432706E+00
    1.5357494836E+00    1.5686078482E+00    1.6012930502E+00    1.6337800986E+00
    1.6660443149E+00    1.6980613196E+00    1.7298070165E+00    1.7612575772E+00
    1.7923894255E+00    1.8231792244E+00    1.8536038667E+00    1.8836404700E+00
    1.9132663774E+00    1.9424591655E+00    1.9711966595E+00    1.9994569576E+00
    2.0272184640E+00    2.0544599312E+00    2.0811605122E+00    2.1072998219E+00
    2.1328580083E+00    2.1578158315E+00    2.1821547514E+00    2.2058570221E+00
    2.2289057920E+00    2.2512852093E+00    2.2729805296E+00    2.2939782257E+00
    2.3142660979E+00    2.3338333819E+00    2.3526708529E+00    2.3707709242E+00
    2.3881277391E+00    2.4047372546E+00    2.4205973059E+00    2.4357074497E+00
    2.4500683993E+00    2.4636817196E+00    2.4765499438E+00    2.4886765829E+00
    2.5000661483E+00    2.5107241720E+00    2.5206572205E+00    2.5298729034E+00
    2.5383798622E+00    2.5461875906E+00    2.5533060111E+00    2.5597452536E+00
    2.5655156948E+00    2.5706279280E+00    2.5750927359E+00    2.5789210742E+00
    2.5821240524E+00    2.5847129152E+00    2.5866990258E+00    2.5880938491E+00
    2.5889089356E+00    2.5891559059E+00    2.5888464369E+00    2.5879922465E+00
    2.5866050814E+00    2.5846967034E+00    2.5822788777E+00    2.5793633613E+00
    2.5759618915E+00    2.5720861758E+00    2.5677478819E+00    2.5629586280E+00
    2.5577299742E+00    2.5520734139E+00    2.5460003657E+00    2.5395221665E+00
    2.5326500635E+00    2.5253952087E+00    2.5177686518E+00    2.5097813352E+00
    2.5014440881E+00    2.4927676218E+00    2.4837625251E+00    2.4744392599E+00
    2.4648081574E+00    2.4548794147E+00    2.4446630912E+00    2.4341691059E+00
    2.4234072345E+00    2.4123871076E+00    2.4011182078E+00    2.3896098684E+00
    2.3778712716E+00    2.3659114472E+00    2.3537392714E+00    2.3413634658E+00
    2.3287925968E+00    2.3160350751E+00    2.3030991550E+00    2.2899929347E+00
    2.2767243559E+00    2.2633012042E+00    2.2497311091E+00    2.2360215447E+00
    2.2221798301E+00    2.2082131301E+00    2.1941284561E+00    2.1799326668E+00
    2.1656324693E+00    2.1512344204E+00    2.1367449274E+00    2.1221702497E+00
    2.1075165000E+00    2.0927896458E+00    2.0779955107E+00    2.0631397762E+00
    2.0482279833E+00    2.0332655337E+00    2.0182576923E+00    2.0032095881E+00
    1.9881262167E+00    1.9730124415E+00    1.9578729961E+00    1.9427124859E+00
    1.9275353897E+00    1.9123460624E+00    1.8971487362E+00    1.8819475229E+00
    1.8667464158E+00    1.8515492916E+00    1.8363599125E+00    1.8211819281E+00
    1.8060188774E+00    1.7908741909E+00    1.7757511922E+00    1.7606531007E+00
    1.7455830325E+00    1.7305440036E+00    1.7155389309E+00    1.7005706344E+00
    1.6856418395E+00    1.6707551785E+00    1.6559131926E+00    1.6411183338E+00
    1.6263729670E+00    1.6116793713E+00    1.5970397427E+00    1.5824561949E+00
    1.5679307619E+00    1.5534653995E+00    1.5390619869E+00    1.5247223287E+00
    1.5104481564E+00    1.4962411304E+00    1.4821028412E+00    1.4680348115E+00
    1.4540384976E+00    1.4401152908E+00    1.4262665195E+00    1.4124934502E+00
    1.3987972896E+00    1.3851791855E+00    1.3716402286E+00    1.3581814539E+00
    1.3448038423E+00    1.3315083216E+00    1.3182957683E+00    1.3051670086E+00
    1.2921228201E+00    1.2791639327E+00    1.2662910302E+00    1.2535047514E+00
    1.2408056914E+00    1.2281944028E+00    1.2156713968E+00    1.2032371444E+00
    1.1908920778E+00    1.1786365909E+00    1.1664710411E+00    1.1543957499E+00
    1.1424110041E+00    1.1305170568E+00    1.1187141285E+00    1.1070024079E+00
    1.0953820531E+00    1.0838531923E+00    1.0724159247E+00    1.0610703218E+00
    1.0498164278E+00    1.0386542607E+00    1.0275838132E+00    1.0166050533E+00
    1.0057179252E+00    9.9492235020E-01    9.8421822730E-01    9.7360543402E-01
    9.6308382715E-01    9.5265324340E-01    9.4231350014E-01    9.3206439606E-01
    9.2190571183E-01    9.1183721075E-01    9.0185863937E-01    8.9196972813E-01
    8.8217019192E-01    8.7245973067E-01    8.6283802996E-01    8.5330476151E-01
    8.4385958376E-01    8.3450214240E-01    8.2523207086E-01    8.1604899083E-01
    8.0695251270E-01    7.9794223611E-01    7.8901775034E-01    7.8017863480E-01
    7.7142445945E-01    7.6275478523E-01    7.5416916446E-01    7.4566714128E-01
    7.3724825200E-01    7.2891202549E-01    7.2065798357E-01    7.1248564136E-01
    7.0439450761E-01    6.9638408508E-01    6.8845387083E-01    6.8060335659E-01
    6.7283202901E-01    6.6513937003E-01    6.5752485712E-01    6.4998796359E-01
    6.4252815890E-01    6.3514490885E-01    6.2783767595E-01    6.2060591956E-01
    6.1344909624E-01    6.0636665992E-01    5.9935806216E-01    5.9242275239E-01
    5.8556017809E-01    5.7876978505E-01    5.7205101754E-01    5.6540331853E-01
    5.5882612986E-01    5.5231889247E-01    5.4588104655E-01    5.3951203170E-01
    5.3321128716E-01    5.2697825192E-01    5.2081236490E-01    5.1471306512E-01
    5.0867979181E-01    5.0271198461E-01    4.9680908366E-01    4.9097052977E-01
    4.8519576453E-01    4.7948423045E-01    4.7383537107E-01    4.6824863109E-01
    4.6272345650E-01    4.5725929464E-01    4.5185559436E-01    4.4651180608E-01
    4.4122738192E-01    4.3600177579E-01    4.3083444347E-01    4.2572484270E-01
    4.2067243328E-01    4.1567667713E-01    4.1073703838E-01    4.0585298346E-01
    4.0102398115E-01    3.9624950265E-01    3.9152902166E-01    3.8686201445E-01
    3.8224795989E-01    3.7768633955E-01    3.7317663772E-01    3.6871834148E-01
    3.6431094075E-01    3.5995392836E-01    3.5564680003E-01    3.5138905450E-01
    3.4718019351E-01    3.4301972187E-01    3.3890714749E-01    3.3484198139E-01
    3.3082373780E-01    3.2685193412E-01    3.2292609099E-01    3.1904573230E-01
    3.1521038523E-01    3.1141958027E-01    3.0767285125E-01    3.0396973532E-01
    3.0030977305E-01    2.9669250836E-01    2.9311748861E-01    2.8958426455E-01
    2.8609239039E-01    2.8264142378E-01    2.7923092584E-01    2.7586046113E-01
    2.7252959772E-01    2.6923790715E-01    2.6598496446E-01    2.6277034816E-01
    2.5959364029E-01    2.5645442638E-01    2.5335229544E-01    2.5028684003E-01
    2.4725765617E-01    2.4426434340E-01    2.4130650477E-01    2.3838374679E-01
    2.3549567949E-01    2.3264191639E-01    2.2982207446E-01    2.2703577418E-01
    2.2428263946E-01    2.2156229769E-01    2.1887437970E-01    2.1621851976E-01
    2.1359435557E-01    2.1100152824E-01    2.0843968230E-01    2.0590846565E-01
    2.0340752958E-01    2.0093652876E-01    1.9849512119E-01    1.9608296823E-01
    1.9369973454E-01    1.9134508811E-01    1.8901870020E-01    1.8672024537E-01
    1.8444940140E-01    1.8220584936E-01    1.7998927351E-01    1.7779936132E-01
    1.7563580345E-01    1.7349829373E-01    1.7138652915E-01    1.6930020981E-01
    1.6723903893E-01    1.6520272281E-01    1.6319097086E-01    1.6120349548E-01
    1.5924001215E-01    1.5730023934E-01    1.5538389851E-01    1.5349071407E-01
    1.5162041340E-01    1.4977272681E-01    1.4794738747E-01    1.4614413148E-01
    1.4436269776E-01    1.4260282809E-01    1.4086426706E-01    1.3914676205E-01
    1.3745006319E-01    1.3577392340E-01    1.3411809829E-01    1.3248234617E-01
    1.3086642807E-01    1.2927010762E-01    1.2769315113E-01    1.2613532750E-01
    1.2459640822E-01    1.2307616735E-01    1.2157438149E-01    1.2009082977E-01
    1.1862529381E-01    1.1717755770E-01    1.1574740798E-01    1.1433463364E-01
    1.1293902606E-01    1.1156037901E-01    1.1019848862E-01    1.0885315336E-01
    1.0752417402E-01    1.0621135367E-01    1.0491449768E-01    1.0363341365E-01
    1.0236791141E-01    1.0111780300E-01    9.9882902649E-02    9.8663026737E-02
    9.7457993791E-02    9.6267624458E-02    9.5091741481E-02    9.3930169679E-02
    9.2782735925E-02    9.1649269127E-02    9.0529600205E-02    8.9423562068E-02
    8.8330989599E-02    8.7251719628E-02    8.6185590917E-02    8.5132444134E-02
    8.4092121836E-02    8.3064468450E-02    8.2049330249E-02    8.1046555335E-02
    8.0055993618E-02    7.9077496797E-02    7.8110918340E-02    7.7156113465E-02
    7.6212939121E-02    7.5281253966E-02    7.4360918354E-02    7.3451794310E-02
    7.2553745517E-02    7.1666637291E-02    7.0790336569E-02    6.9924711887E-02
    6.9069633364E-02    6.8224972682E-02    6.7390603070E-02    6.6566399286E-02
    6.5752237598E-02    6.4947995771E-02    6.4153553045E-02    6.3368790120E-02
    6.2593589141E-02    6.1827833677E-02    6.1071408710E-02    6.0324200614E-02
    5.9586097141E-02    5.8856987405E-02    5.8136761865E-02    5.7425312311E-02
    5.6722531845E-02    5.6028314872E-02    5.5342557077E-02    5.4665155416E-02
    5.3996008097E-02    5.3335014568E-02    5.2682075500E-02    5.2037092775E-02
    5.1399969470E-02    5.0770609841E-02    5.0148919313E-02    4.9534804465E-02
    4.8928173014E-02    4.8328933801E-02    4.7736996782E-02    4.7152273011E-02
    4.6574674628E-02    4.6004114843E-02    4.5440507929E-02    4.4883769204E-02
    4.4333815022E-02    4.3790562757E-02    4.3253930793E-02    4.2723838511E-02
    4.2200206279E-02    4.1682955435E-02    4.1172008282E-02    4.0667288069E-02
    4.0168718986E-02    3.9676226149E-02    3.9189735589E-02    3.8709174240E-02
    3.8234469933E-02    3.7765551378E-02    3.7302348158E-02    3.6844790717E-02
    3.6392810348E-02    3.5946339187E-02    3.5505310196E-02    3.5069657159E-02
    3.4639314669E-02    3.4214218119E-02    3.3794303690E-02    3.3379508346E-02
    3.2969769819E-02    3.2565026603E-02    3.2165217943E-02    3.1770283828E-02
    3.1380164979E-02    3.0994802842E-02    3.0614139577E-02    3.0238118053E-02
    2.9866681834E-02    2.9499775176E-02    2.9137343014E-02    2.8779330956E-02
    2.8425685275E-02    2.8076352898E-02    2.7731281400E-02    2.7390418999E-02
    2.7053714541E-02    2.6721117499E-02    2.6392577960E-02    2.6068046623E-02
    2.5747474785E-02    2.5430814339E-02    2.5118017764E-02    2.4809038120E-02
    2.4503829036E-02    2.4202344709E-02    2.3904539893E-02    2.3610369893E-02
    2.3319790560E-02    2.3032758281E-02    2.2749229976E-02    2.2469163087E-02
    2.2192515578E-02    2.1919245921E-02    2.1649313095E-02    2.1382676579E-02
    2.1119296344E-02    2.0859132849E-02    2.0602147032E-02    2.0348300309E-02
    2.0097554563E-02    1.9849872140E-02    1.9605215847E-02    1.9363548939E-02
    1.9124835121E-02    1.8889038536E-02    1.8656123766E-02    1.8426055820E-02
    1.8198800134E-02    1.7974322563E-02    1.7752589376E-02    1.7533567254E-02
    1.7317223279E-02    1.7103524934E-02    1.6892440099E-02    1.6683937039E-02
    1.6477984408E-02    1.6274551239E-02    1.6073606938E-02    1.5875121287E-02
    1.5679064430E-02    1.5485406876E-02    1.5294119488E-02    1.5105173487E-02
    1.4918540437E-02    1.4734192252E-02    1.4552101183E-02    1.4372239817E-02
    1.4194581076E-02    1.4019098207E-02    1.3845764781E-02    1.3674554692E-02
    1.3505442146E-02    1.3338401665E-02    1.3173408077E-02    1.3010436515E-02
    1.2849462415E-02    1.2690461506E-02    1.2533409816E-02    1.2378283658E-02
    1.2225059635E-02    1.2073714632E-02    1.1924225813E-02    1.1776570620E-02
    1.1630726764E-02    1.1486672231E-02    1.1344385268E-02    1.1203844388E-02
    1.1065028363E-02    1.0927916221E-02    1.0792487246E-02    1.0658720969E-02
    1.0526597171E-02    1.0396095876E-02    1.0267197349E-02    1.0139882096E-02
    1.0014130856E-02    9.8899246018E-03    9.7672445362E-03    9.6460720889E-03
    9.5263889141E-03    9.4081768876E-03    9.2914181042E-03    9.1760948752E-03
    9.0621897253E-03    8.9496853906E-03    8.8385648157E-03    8.7288111511E-03
    8.6204077511E-03    8.5133381710E-03    8.4075861647E-03    8.3031356825E-03
    8.1999708684E-03    8.0980760582E-03    7.9974357767E-03    7.8980347359E-03
    7.7998578324E-03    7.7028901451E-03    7.6071169334E-03    7.5125236347E-03
    7.4190958624E-03    7.3268194036E-03    7.2356802172E-03    7.1456644319E-03
    7.0567583438E-03    6.9689484147E-03    6.8822212699E-03    6.7965636965E-03
    6.7119626412E-03    6.6284052083E-03    6.5458786583E-03    6.4643704054E-03
    6.3838680159E-03    6.3043592067E-03    6.2258318430E-03    6.1482739365E-03
    6.0716736443E-03    5.9960192663E-03    5.9212992440E-03    5.8475021588E-03
    5.7746167300E-03    5.7026318134E-03    5.6315363996E-03    5.5613196124E-03
    5.4919707071E-03    5.4234790690E-03    5.3558342119E-03    5.2890257765E-03
    5.2230435286E-03    5.1578773582E-03    5.0935172774E-03    5.0299534194E-03
    4.9671760367E-03    4.9051754998E-03    4.8439422959E-03    4.7834670272E-03
    4.7237404100E-03    4.6647532728E-03    4.6064965552E-03    4.5489613067E-03
    4.4921386851E-03    4.4360199554E-03    4.3805964884E-03    4.3258597596E-03
    4.2718013476E-03    4.2184129332E-03    4.1656862983E-03    4.1136133239E-03
    4.0621859900E-03    4.0113963735E-03    3.9612366476E-03    3.9116990802E-03
    3.8627760334E-03    3.8144599616E-03    3.7667434110E-03    3.7196190181E-03
    3.6730795089E-03    3.6271176976E-03    3.5817264858E-03    3.5368988612E-03
    3.4926278966E-03    3.4489067490E-03    3.4057286586E-03    3.3630869477E-03
    3.3209750196E-03    3.2793863580E-03    3.2383145256E-03    3.1977531635E-03
    3.1576959900E-03    3.1181367998E-03    3.0790694632E-03    3.0404879250E-03
    3.0023862035E-03    2.9647583899E-03    2.9275986475E-03    2.8909012103E-03
    2.8546603827E-03    2.8188705384E-03    2.7835261195E-03    2.7486216359E-03
    2.7141516644E-03    2.6801108477E-03    2.6464938940E-03    2.6132955758E-03
    2.5805107294E-03    2.5481342540E-03    2.5161611110E-03    2.4845863232E-03
    2.4534049742E-03    2.4226122075E-03    2.3922032259E-03    2.3621732905E-03
    2.3325177206E-03    2.3032318923E-03    2.2743112384E-03    2.2457512472E-03
    2.2175474623E-03    2.1896954818E-03    2.1621909572E-03    2.1350295934E-03
    2.1082071478E-03    2.0817194296E-03    2.0555622991E-03    2.0297316674E-03
    2.0042234955E-03    1.9790337937E-03    1.9541586213E-03    1.9295940857E-03
    1.9053363418E-03    1.8813815918E-03    1.8577260843E-03    1.8343661136E-03
    1.8112980198E-03    1.7885181873E-03    1.7660230452E-03    1.7438090662E-03
    1.7218727661E-03    1.7002107036E-03    1.6788194794E-03    1.6576957359E-03
    1.6368361568E-03    1.6162374663E-03    1.5958964288E-03    1.5758098484E-03
    1.5559745685E-03    1.5363874712E-03    1.5170454767E-03    1.4979455431E-03
    1.4790846659E-03    1.4604598775E-03    1.4420682466E-03    1.4239068780E-03
    1.4059729121E-03    1.3882635244E-03    1.3707759250E-03    1.3535073584E-03
    1.3364551030E-03    1.3196164706E-03    1.3029888061E-03    1.2865694869E-03
    1.2703559229E-03    1.2543455556E-03    1.2385358583E-03    1.2229243351E-03
    1.2075085209E-03    1.1922859811E-03    1.1772543109E-03    1.1624111352E-03
    1.1477541080E-03    1.1332809125E-03    1.1189892601E-03    1.1048768907E-03
    1.0909415719E-03    1.0771810988E-03    1.0635932937E-03    1.0501760058E-03
    1.0369271108E-03    1.0238445106E-03    1.0109261330E-03    9.9816993132E-04
    9.8557388421E-04    9.7313599519E-04    9.6085429248E-04    9.4872682862E-04
    9.3675168020E-04    9.2492694756E-04    9.1325075453E-04    9.0172124808E-04
    8.9033659811E-04    8.7909499712E-04    8.6799465995E-04    8.5703382352E-04
    8.4621074653E-04    8.3552370921E-04    8.2497101310E-04    8.1455098070E-04
    8.0426195529E-04    7.9410230063E-04    7.8407040076E-04    7.7416465969E-04
    7.6438350120E-04    7.5472536858E-04    7.4518872441E-04    7.3577205030E-04
    7.2647384665E-04    7.1729263248E-04    7.0822694512E-04    6.9927534004E-04
    6.9043639063E-04    6.8170868793E-04    6.7309084047E-04    6.6458147404E-04
    6.5617923144E-04    6.4788277235E-04    6.3969077304E-04    6.3160192620E-04
    6.2361494078E-04    6.1572854172E-04    6.0794146979E-04    6.0025248140E-04
    5.9266034840E-04    5.8516385788E-04    5.7776181201E-04    5.7045302782E-04
    5.6323633704E-04    5.5611058594E-04    5.4907463509E-04    5.4212735924E-04
    5.3526764713E-04    5.2849440130E-04    5.2180653795E-04    5.1520298674E-04
    5.0868269067E-04    5.0224460585E-04    4.9588770141E-04    4.8961095928E-04
    4.8341337407E-04    4.7729395291E-04    4.7125171527E-04    4.6528569285E-04
    4.5939492937E-04    4.5357848049E-04    4.4783541361E-04    4.4216480777E-04
    4.3656575345E-04    4.3103735248E-04    4.2557871789E-04    4.2018897374E-04
    4.1486725502E-04    4.0961270750E-04    4.0442448761E-04    3.9930176227E-04
    3.9424370881E-04    3.8924951482E-04    3.8431837803E-04    3.7944950614E-04
    3.7464211677E-04    3.6989543730E-04    3.6520870474E-04    3.6058116563E-04
    3.5601207590E-04    3.5150070079E-04    3.4704631469E-04    3.4264820108E-04
    3.3830565237E-04    3.3401796980E-04    3.2978446335E-04    3.2560445162E-04
    3.2147726172E-04    3.1740222917E-04    3.1337869780E-04    3.0940601962E-04
    3.0548355477E-04    3.0161067136E-04    2.9778674542E-04    2.9401116078E-04
    2.9028330897E-04    2.8660258913E-04    2.8296840792E-04    2.7938017943E-04
    2.7583732505E-04    2.7233927345E-04    2.6888546043E-04    2.6547532884E-04
    2.6210832854E-04    2.5878391623E-04    2.5550155544E-04    2.5226071643E-04
    2.4906087606E-04    2.4590151776E-04    2.4278213144E-04    2.3970221337E-04
    2.3666126617E-04    2.3365879865E-04    2.3069432581E-04    2.2776736871E-04
    2.2487745442E-04    2.2202411592E-04    2.1920689208E-04    2.1642532751E-04
    2.1367897256E-04    2.1096738321E-04    2.0829012100E-04    2.0564675298E-04
    2.0303685162E-04    2.0045999478E-04    1.9791576557E-04    1.9540375237E-04
    1.9292354872E-04    1.9047475324E-04    1.8805696961E-04    1.8566980646E-04
    1.8331287737E-04    1.8098580074E-04    1.7868819977E-04    1.7641970239E-04
    1.7417994121E-04    1.7196855344E-04    1.6978518088E-04    1.6762946978E-04
    1.6550107087E-04    1.6339963927E-04    1.6132483440E-04    1.5927632000E-04
    1.5725376400E-04    1.5525683854E-04    1.5328521985E-04    1.5133858824E-04
    1.4941662806E-04    1.4751902759E-04    1.4564547906E-04    1.4379567856E-04
    1.4196932600E-04    1.4016612507E-04    1.3838578318E-04    1.3662801142E-04
    1.3489252454E-04    1.3317904083E-04    1.3148728218E-04    1.2981697394E-04
    1.2816784493E-04    1.2653962738E-04    1.2493205690E-04    1.2334487242E-04
    1.2177781615E-04    1.2023063356E-04    1.1870307332E-04    1.1719488726E-04
    1.1570583034E-04    1.1423566061E-04    1.1278413916E-04    1.1135103008E-04
    1.0993610045E-04    1.0853912029E-04    1.0715986248E-04    1.0579810282E-04
    1.0445361987E-04    1.0312619504E-04    1.0181561245E-04    1.0052165896E-04
    9.9244124130E-05    9.7982800144E-05    9.6737481826E-05    9.5507966580E-05
    9.4294054366E-05    9.3095547666E-05    9.1912251453E-05    9.0743973160E-05
    8.9590522648E-05    8.8451712176E-05    8.7327356373E-05    8.6217272204E-05
    8.5121278945E-05    8.4039198152E-05    8.2970853632E-05    8.1916071416E-05
    8.0874679729E-05    7.9846508966E-05    7.8831391661E-05    7.7829162462E-05
    7.6839658105E-05    7.5862717387E-05    7.4898181138E-05    7.3945892202E-05
    7.3005695402E-05    7.2077437524E-05    7.1160967288E-05    7.0256135324E-05
    6.9362794150E-05    6.8480798144E-05    6.7610003526E-05    6.6750268330E-05
    6.5901452386E-05    6.5063417294E-05    6.4236026400E-05    6.3419144781E-05
    6.2612639214E-05    6.1816378164E-05    6.1030231756E-05    6.0254071757E-05
    5.9487771555E-05    5.8731206137E-05    5.7984252072E-05    5.7246787486E-05
    5.6518692051E-05    5.5799846957E-05    5.5090134896E-05    5.4389440044E-05
    5.3697648041E-05    5.3014645975E-05    5.2340322359E-05    5.1674567118E-05
    5.1017271570E-05    5.0368328405E-05    4.9727631673E-05    4.9095076761E-05
    4.8470560384E-05    4.7853980559E-05    4.7245236597E-05    4.6644229080E-05
    4.6050859851E-05    4.5465031992E-05    4.4886649814E-05    4.4315618837E-05
    4.3751845779E-05    4.3195238535E-05    4.2645706170E-05    4.2103158897E-05
    4.1567508068E-05    4.1038666154E-05    4.0516546737E-05    4.0001064492E-05
    3.9492135174E-05    3.8989675605E-05    3.8493603662E-05    3.8003838257E-05
    3.7520299335E-05    3.7042907850E-05    3.6571585759E-05    3.6106256009E-05
    3.5646842520E-05    3.5193270177E-05    3.4745464817E-05    3.4303353215E-05
    3.3866863076E-05    3.3435923018E-05    3.3010462566E-05    3.2590412137E-05
    3.2175703029E-05    3.1766267410E-05    3.1362038309E-05    3.0962949604E-05
    3.0568936010E-05    3.0179933068E-05    2.9795877140E-05    2.9416705389E-05
    2.9042355780E-05    2.8672767060E-05    2.8307878755E-05    2.7947631157E-05
    2.7591965315E-05    2.7240823024E-05    2.6894146819E-05    2.6551879962E-05
    2.6213966436E-05    2.5880350932E-05    2.5550978844E-05    2.5225796259E-05
    2.4904749945E-05    2.4587787348E-05    2.4274856579E-05    2.3965906408E-05
    2.3660886252E-05    2.3359746174E-05    2.3062436867E-05    2.2768909651E-05
    2.2479116463E-05    2.2193009849E-05    2.1910542958E-05    2.1631669533E-05
    2.1356343905E-05    2.1084520982E-05    2.0816156247E-05    2.0551205745E-05
    2.0289626080E-05    2.0031374407E-05    1.9776408425E-05    1.9524686369E-05
    1.9276167004E-05    1.9030809618E-05    1.8788574017E-05    1.8549420515E-05
    1.8313309933E-05    1.8080203586E-05    1.7850063281E-05    1.7622851312E-05
    1.7398530447E-05    1.7177063932E-05    1.6958415475E-05    1.6742549248E-05
    1.6529429876E-05    1.6319022433E-05    1.6111292438E-05    1.5906205847E-05
    1.5703729048E-05    1.5503828855E-05    1.5306472505E-05    1.5111627651E-05
    1.4919262355E-05    1.4729345085E-05    1.4541844712E-05    1.4356730500E-05
    1.4173972102E-05    1.3993539560E-05    1.3815403294E-05    1.3639534100E-05
    1.3465903146E-05    1.3294481965E-05    1.3125242453E-05    1.2958156861E-05
    1.2793197794E-05    1.2630338204E-05    1.2469551388E-05    1.2310810981E-05
    1.2154090954E-05    1.1999365607E-05    1.1846609569E-05    1.1695797788E-05
    1.1546905533E-05    1.1399908388E-05    1.1254782243E-05    1.1111503299E-05
    1.0970048056E-05    1.0830393315E-05    1.0692516171E-05    1.0556394009E-05
    1.0422004503E-05    1.0289325609E-05    1.0158335566E-05    1.0029012886E-05
    9.9013363572E-06    9.7752850348E-06    9.6508382420E-06    9.5279755642E-06
    9.4066768463E-06    9.2869221894E-06    9.1686919475E-06    9.0519667243E-06
    8.9367273700E-06    8.8229549784E-06    8.7106308837E-06    8.5997366572E-06
    8.4902541045E-06    8.3821652625E-06    8.2754523967E-06    8.1700979975E-06
    8.0660847785E-06    7.9633956728E-06    7.8620138306E-06    7.7619226163E-06
    7.6631056058E-06    7.5655465838E-06    7.4692295412E-06    7.3741386724E-06
    7.2802583729E-06    7.1875732366E-06    7.0960680534E-06    7.0057278065E-06
    6.9165376699E-06    6.8284830065E-06    6.7415493649E-06    6.6557224779E-06
    6.5709882595E-06    6.4873328031E-06    6.4047423786E-06    6.3232034309E-06
    6.2427025769E-06    6.1632266042E-06    6.0847624678E-06    6.0072972892E-06
    5.9308183535E-06    5.8553131076E-06    5.7807691579E-06    5.7071742687E-06
    5.6345163596E-06    5.5627835042E-06    5.4919639274E-06    5.4220460045E-06
    5.3530182582E-06    5.2848693574E-06    5.2175881150E-06    5.1511634864E-06
    5.0855845674E-06    5.0208405923E-06    4.9569209329E-06    4.8938150958E-06
    4.8315127212E-06    4.7700035813E-06    4.7092775780E-06    4.6493247421E-06
    4.5901352311E-06    4.5316993274E-06    4.4740074377E-06    4.4170500902E-06
    4.3608179340E-06    4.3053017368E-06    4.2504923842E-06    4.1963808775E-06
    4.1429583325E-06    4.0902159781E-06    4.0381451548E-06    3.9867373134E-06
    3.9359840135E-06    3.8858769219E-06    3.8364078117E-06    3.7875685604E-06
 </PP_RHOATOM>
</UPF>

END_PSP
