<?xml version="1.0" encoding="UTF-8"?>
<UPF version="2.0.1">
  <PP_INFO><![CDATA[
Generated using "atomic" code by A. Dal Corso  v.6.3MaX
Author: ADC
Generation date: 22Oct2025
Pseudopotential type: PAW
Element: Al
Functional:  SLA  PW   PSX  PSC
    Suggested minimum cutoff for wavefunctions:  29. Ry
    Suggested minimum cutoff for charge density: 121. Ry
    The Pseudo was generated with a Scalar-Relativistic Calculation
    L component and cutoff radius for Local Potential:  2   1.9000
    Pseudopotential contains additional information for GIPAW reconstruction.
    Valence configuration:
    nl pn  l   occ       Rcut    Rcut US       E pseu
    3S  1  0  2.00      1.500      1.900    -0.567034
    3P  2  1  1.00      1.500      1.900    -0.197675
    Generation configuration:
    3S  1  0  2.00      1.500      1.900    -0.567032
    3S  1  0  0.00      1.500      1.900     6.000000
    3P  2  1  1.00      1.500      1.900    -0.197675
    3P  2  1  0.00      1.500      1.900     3.500000
    3D  3  2  0.00      1.900      1.900     1.000000
    Pseudization used: troullier-martins
]]>
    <PP_INPUTFILE><![CDATA[
 &input
   title='Al',
   zed=13.,
   rel=1,
   config='[Ne] 3s2 3p1 3d-1',
   iswitch=3,
   dft='PBESOL'
 /
 &inputp
   lpaw=.true.,
   pseudotype=3,
   file_pseudopw='Al.paw.pbesol.z_3.ld1.psl.v1.0.0-low.upf',
   author='ADC',
   lloc=2,
   which_augfun='PSQ',
   rmatch_augfun_nc=.true.,
   nlcc=.true.,
   new_core_ps=.true.,
   rcore=1.8,
   tm=.true.
 /
5
3S  1  0  2.00  0.00  1.50  1.90  0.0
3S  1  0  0.00  6.00  1.50  1.90  0.0
3P  2  1  1.00  0.00  1.50  1.90  0.0
3P  2  1  0.00  3.50  1.50  1.90  0.0
3D  3  2  0.00  1.00  1.90  1.90  0.0
]]></PP_INPUTFILE>
  </PP_INFO>
  <!--
 END OF HUMAN READABLE SECTION 
-->
  <PP_HEADER generated="Generated using &quot;atomic&quot; code by A. Dal Corso  v.6.3MaX" author="ADC" date="22Oct2025" comment="" element="Al" pseudo_type="PAW" relativistic="scalar" is_ultrasoft="true" is_paw="true" is_coulomb="false" has_so="false" has_wfc="true" has_gipaw="true" paw_as_gipaw="true" core_correction="true" functional=" SLA  PW   PSX  PSC" z_valence="3.000000000000e0" total_psenergy="-3.821512819842e1" wfc_cutoff="2.852304782214e1" rho_cutoff="1.205181119769e2" l_max="1" l_max_rho="2" l_local="2" mesh_size="1135" number_of_wfc="2" number_of_proj="4"/>
  <PP_MESH dx="1.250000000000e-2" mesh="1135" xmin="-7.000000000000e0" rmax="1.000000000000e2" zmesh="1.300000000000e1">
    <PP_R>
      7.014476658111662e-5 7.102707912838633e-5 7.192048980127554e-5 7.282513819701952e-5
      7.374116566877076e-5 7.466871534768529e-5 7.560793216528758e-5 7.655896287611625e-5
      7.752195608065464e-5 7.849706224855035e-5 7.948443374212593e-5 8.048422484018603e-5
      8.149659176212387e-5 8.252169269233054e-5 8.355968780491217e-5 8.461073928871679e-5
      8.567501137267717e-5 8.675267035147172e-5 8.784388461150828e-5 8.894882465723521e-5
      9.006766313778265e-5 9.120057487393945e-5 9.234773688546928e-5 9.350932841877036e-5
      9.468553097488314e-5 9.587652833784997e-5 9.708250660343188e-5 9.830365420818650e-5
      9.954016195891139e-5 1.007922230624585e-4 1.020600331559224e-4 1.033437903372098e-4
      1.046436951959918e-4 1.059599508450475e-4 1.072927629519999e-4 1.086423397714524e-4
      1.100088921775288e-4 1.113926336968227e-4 1.127937805417618e-4 1.142125516443913e-4
      1.156491686905825e-4 1.171038561546716e-4 1.185768413345346e-4 1.200683543871025e-4
      1.215786283643244e-4 1.231078992495819e-4 1.246564059945621e-4 1.262243905565943e-4
      1.278120979364564e-4 1.294197762166570e-4 1.310476766001980e-4 1.326960534498264e-4
      1.343651643277785e-4 1.360552700360247e-4 1.377666346570208e-4 1.394995255949704e-4
      1.412542136176083e-4 1.430309728985077e-4 1.448300810599213e-4 1.466518192161598e-4
      1.484964720175161e-4 1.503643276947436e-4 1.522556781040920e-4 1.541708187729107e-4
      1.561100489458257e-4 1.580736716314968e-4 1.600619936499638e-4 1.620753256805872e-4
      1.641139823105929e-4 1.661782820842273e-4 1.682685475525296e-4 1.703851053237321e-4
      1.725282861142925e-4 1.746984248005698e-4 1.768958604711489e-4 1.791209364798241e-4
      1.813740004992487e-4 1.836554045752595e-4 1.859655051818849e-4 1.883046632770449e-4
      1.906732443589506e-4 1.930716185232153e-4 1.955001605206814e-4 1.979592498159769e-4
      2.004492706468076e-4 2.029706120839940e-4 2.055236680922654e-4 2.081088375918174e-4
      2.107265245206437e-4 2.133771378976530e-4 2.160610918865779e-4 2.187788058606898e-4
      2.215307044683264e-4 2.243172176992437e-4 2.271387809518036e-4 2.299958351010047e-4
      2.328888265673704e-4 2.358182073867033e-4 2.387844352807161e-4 2.417879737285523e-4
      2.448292920392052e-4 2.479088654248482e-4 2.510271750750883e-4 2.541847082321524e-4
      2.573819582670209e-4 2.606194247565163e-4 2.638976135613642e-4 2.672170369052349e-4
      2.705782134547791e-4 2.739816684006715e-4 2.774279335396716e-4 2.809175473577187e-4
      2.844510551140717e-4 2.880290089265062e-4 2.916519678575852e-4 2.953204980020125e-4
      2.990351725750870e-4 3.027965720022680e-4 3.066052840098685e-4 3.104619037168892e-4
      3.143670337280051e-4 3.183212842277259e-4 3.223252730757369e-4 3.263796259034415e-4
      3.304849762117184e-4 3.346419654699053e-4 3.388512432160312e-4 3.431134671583078e-4
      3.474293032778974e-4 3.517994259329749e-4 3.562245179640958e-4 3.607052708008931e-4
      3.652423845701136e-4 3.698365682050143e-4 3.744885395561357e-4 3.791990255034655e-4
      3.839687620700167e-4 3.887984945368318e-4 3.936889775594348e-4 3.986409752857481e-4
      4.036552614754911e-4 4.087326196210828e-4 4.138738430700631e-4 4.190797351490557e-4
      4.243511092892901e-4 4.296887891537000e-4 4.350936087656237e-4 4.405664126391219e-4
      4.461080559109340e-4 4.517194044740963e-4 4.574013351132381e-4 4.631547356415815e-4
      4.689805050396644e-4 4.748795535958078e-4 4.808528030483510e-4 4.869011867296729e-4
      4.930256497120294e-4 4.992271489552220e-4 5.055066534561240e-4 5.118651444000903e-4
      5.183036153142667e-4 5.248230722228328e-4 5.314245338041948e-4 5.381090315501547e-4
      5.448776099270864e-4 5.517313265391306e-4 5.586712522934532e-4 5.656984715675720e-4
      5.728140823787953e-4 5.800191965557905e-4 5.873149399123046e-4 5.947024524230824e-4
      6.021828884019826e-4 6.097574166823456e-4 6.174272207996277e-4 6.251934991763239e-4
      6.330574653092331e-4 6.410203479590622e-4 6.490833913424254e-4 6.572478553262574e-4
      6.655150156246642e-4 6.738861639982636e-4 6.823626084560198e-4 6.909456734596242e-4
      6.996367001304479e-4 7.084370464590877e-4 7.173480875175635e-4 7.263712156741702e-4
      7.355078408110388e-4 7.447593905444380e-4 7.541273104478329e-4 7.636130642777703e-4
      7.732181342025834e-4 7.829440210339898e-4 7.927922444615961e-4 8.027643432903465e-4
      8.128618756809736e-4 8.230864193934561e-4 8.334395720335500e-4 8.439229513024221e-4
      8.545381952494081e-4 8.652869625279742e-4 8.761709326548752e-4 8.871918062725861e-4
      8.983513054150350e-4 9.096511737766628e-4 9.210931769848941e-4 9.326791028760075e-4
      9.444107617744951e-4 9.562899867759301e-4 9.683186340333844e-4 9.804985830474669e-4
      9.928317369599903e-4 1.005320022851345e-3 1.017965392041611e-3 1.030769820395448e-3
      1.043735308630841e-3 1.056863882631703e-3 1.070157593764432e-3 1.083618519198441e-3
      1.097248762230712e-3 1.111050452614452e-3 1.125025746891863e-3 1.139176828731107e-3
      1.153505909267517e-3 1.168015227449073e-3 1.182707050386264e-3 1.197583673706315e-3
      1.212647421911883e-3 1.227900648744279e-3 1.243345737551221e-3 1.258985101659263e-3
      1.274821184750866e-3 1.290856461246228e-3 1.307093436689930e-3 1.323534648142414e-3
      1.340182664576424e-3 1.357040087278397e-3 1.374109550254926e-3 1.391393720644332e-3
      1.408895299133399e-3 1.426617020379376e-3 1.444561653437262e-3 1.462732002192481e-3
      1.481130905798995e-3 1.499761239122923e-3 1.518625913191752e-3 1.537727875649187e-3
      1.557070111215722e-3 1.576655642155020e-3 1.596487528746134e-3 1.616568869761695e-3
      1.636902802952090e-3 1.657492505535752e-3 1.678341194695598e-3 1.699452128081727e-3
      1.720828604320431e-3 1.742473963529613e-3 1.764391587840687e-3 1.786584901927044e-3
      1.809057373539162e-3 1.831812514046452e-3 1.854853878985913e-3 1.878185068617695e-3
      1.901809728487646e-3 1.925731549996934e-3 1.949954270978842e-3 1.974481676282802e-3
      1.999317598365796e-3 2.024465917891178e-3 2.049930564335037e-3 2.075715516600191e-3
      2.101824803637890e-3 2.128262505077352e-3 2.155032751863217e-3 2.182139726901008e-3
      2.209587665710726e-3 2.237380857088652e-3 2.265523643777484e-3 2.294020423144901e-3
      2.322875647870654e-3 2.352093826642315e-3 2.381679524859761e-3 2.411637365348530e-3
      2.441972029082150e-3 2.472688255913544e-3 2.503790845315649e-3 2.535284657131336e-3
      2.567174612332775e-3 2.599465693790350e-3 2.632162947051233e-3 2.665271481127771e-3
      2.698796469295772e-3 2.732743149902843e-3 2.767116827186897e-3 2.801922872104941e-3
      2.837166723172309e-3 2.872853887312433e-3 2.908989940717314e-3 2.945580529718820e-3
      2.982631371670923e-3 3.020148255843063e-3 3.058137044324717e-3 3.096603672941373e-3
      3.135554152182017e-3 3.174994568138273e-3 3.214931083455378e-3 3.255369938295102e-3
      3.296317451310783e-3 3.337780020634645e-3 3.379764124877493e-3 3.422276324141040e-3
      3.465323261042910e-3 3.508911661754570e-3 3.553048337052317e-3 3.597740183381460e-3
      3.642994183933918e-3 3.688817409739344e-3 3.735217020769998e-3 3.782200267059507e-3
      3.829774489835688e-3 3.877947122667644e-3 3.926725692627263e-3 3.976117821465341e-3
      4.026131226802490e-3 4.076773723335061e-3 4.128053224056163e-3 4.179977741492115e-3
      4.232555388954403e-3 4.285794381807415e-3 4.339703038752105e-3 4.394289783125792e-3
      4.449563144218345e-3 4.505531758604889e-3 4.562204371495286e-3 4.619589838100611e-3
      4.677697125016768e-3 4.736535311625557e-3 4.796113591513343e-3 4.856441273907567e-3
      4.917527785131353e-3 4.979382670076350e-3 5.042015593694181e-3 5.105436342506588e-3
      5.169654826134597e-3 5.234681078846938e-3 5.300525261127891e-3 5.367197661264898e-3
      5.434708696956124e-3 5.503068916938247e-3 5.572289002634728e-3 5.642379769824780e-3
      5.713352170333376e-3 5.785217293742494e-3 5.857986369123871e-3 5.931670766793593e-3
      6.006282000088705e-3 6.081831727166207e-3 6.158331752824661e-3 6.235794030348711e-3
      6.314230663376831e-3 6.393653907792506e-3 6.474076173639263e-3 6.555510027059759e-3
      6.637968192259269e-3 6.721463553493876e-3 6.806009157083639e-3 6.891618213451133e-3
      6.978304099185582e-3 7.066080359132991e-3 7.154960708512576e-3 7.244959035059745e-3
      7.336089401196127e-3 7.428366046226835e-3 7.521803388565386e-3 7.616416027986639e-3
      7.712218747907979e-3 7.809226517699315e-3 7.907454495022033e-3 8.006918028197434e-3
      8.107632658604949e-3 8.209614123110477e-3 8.312878356525331e-3 8.417441494096076e-3
      8.523319874025690e-3 8.630530040026441e-3 8.739088743904905e-3 8.849012948179416e-3
      8.960319828730540e-3 9.073026777484813e-3 9.187151405132278e-3 9.302711543878209e-3
      9.419725250229382e-3 9.538210807815483e-3 9.658186730245948e-3 9.779671764002739e-3
      9.902684891369557e-3 1.002724533339783e-2 1.015337255291002e-2 1.028108625754081e-2
      1.041040640281636e-2 1.054135319527250e-2 1.067394709561194e-2 1.080820882190140e-2
      1.094415935280874e-2 1.108181993088102e-2 1.122121206586365e-2 1.136235753806130e-2
      1.150527840174116e-2 1.164999698857898e-2 1.179653591114834e-2 1.194491806645408e-2
      1.209516663950982e-2 1.224730510696080e-2 1.240135724075207e-2 1.255734711184295e-2
      1.271529909396820e-2 1.287523786744635e-2 1.303718842303617e-2 1.320117606584145e-2
      1.336722641926501e-2 1.353536542901242e-2 1.370561936714604e-2 1.387801483619007e-2
      1.405257877328729e-2 1.422933845440802e-2 1.440832149861208e-2 1.458955587236426e-2
      1.477306989390417e-2 1.495889223767105e-2 1.514705193878416e-2 1.533757839757963e-2
      1.553050138420426e-2 1.572585104326724e-2 1.592365789855021e-2 1.612395285777676e-2
      1.632676721744178e-2 1.653213266770159e-2 1.674008129732561e-2 1.695064559871031e-2
      1.716385847295614e-2 1.737975323500853e-2 1.759836361886327e-2 1.781972378283761e-2
      1.804386831490752e-2 1.827083223811216e-2 1.850065101602632e-2 1.873336055830160e-2
      1.896899722627743e-2 1.920759783866259e-2 1.944919967728819e-2 1.969384049293308e-2
      1.994155851122243e-2 2.019239243860057e-2 2.044638146837898e-2 2.070356528686029e-2
      2.096398407953944e-2 2.122767853738256e-2 2.149468986318519e-2 2.176505977801024e-2
      2.203883052770693e-2 2.231604488951195e-2 2.259674617873330e-2 2.288097825551852e-2
      2.316878553170787e-2 2.346021297777379e-2 2.375530612984769e-2 2.405411109683492e-2
      2.435667456761949e-2 2.466304381835930e-2 2.497326671987306e-2 2.528739174512032e-2
      2.560546797677536e-2 2.592754511489650e-2 2.625367348469184e-2 2.658390404438266e-2
      2.691828839316580e-2 2.725687877927607e-2 2.759972810815014e-2 2.794688995069319e-2
      2.829841855164941e-2 2.865436883807793e-2 2.901479642793516e-2 2.937975763876532e-2
      2.974930949650012e-2 3.012350974436915e-2 3.050241685192253e-2 3.088609002416668e-2
      3.127458921081534e-2 3.166797511565683e-2 3.206630920603910e-2 3.246965372247428e-2
      3.287807168836360e-2 3.329162691984519e-2 3.371038403576535e-2 3.413440846777537e-2
      3.456376647055551e-2 3.499852513216721e-2 3.543875238453586e-2 3.588451701406528e-2
      3.633588867238575e-2 3.679293788723724e-2 3.725573607348943e-2 3.772435554430049e-2
      3.819886952241614e-2 3.867935215161084e-2 3.916587850827302e-2 3.965852461313571e-2
      4.015736744315511e-2 4.066248494353829e-2 4.117395603992232e-2 4.169186065070670e-2
      4.221627969954051e-2 4.274729512796705e-2 4.328498990822739e-2 4.382944805622484e-2
      4.438075464465283e-2 4.493899581628739e-2 4.550425879744735e-2 4.607663191162352e-2
      4.665620459327950e-2 4.724306740182599e-2 4.783731203577080e-2 4.843903134704695e-2
      4.904831935552106e-2 4.966527126368400e-2 5.028998347152672e-2 5.092255359160262e-2
      5.156308046427998e-2 5.221166417318575e-2 5.286840606084402e-2 5.353340874451094e-2
      5.420677613220874e-2 5.488861343896176e-2 5.557902720323637e-2 5.627812530358782e-2
      5.698601697551676e-2 5.770281282853707e-2 5.842862486345915e-2 5.916356648989009e-2
      5.990775254395421e-2 6.066129930623667e-2 6.142432451995210e-2 6.219694740934253e-2
      6.297928869830636e-2 6.377147062926158e-2 6.457361698224673e-2 6.538585309426143e-2
      6.620830587885064e-2 6.704110384593527e-2 6.788437712189197e-2 6.873825746988583e-2
      6.960287831045844e-2 7.047837474237523e-2 7.136488356373488e-2 7.226254329334429e-2
      7.317149419236263e-2 7.409187828621709e-2 7.502383938679485e-2 7.596752311491400e-2
      7.692307692307693e-2 7.789065011851037e-2 7.887039388649455e-2 7.986246131398658e-2
      8.086700741354036e-2 8.188418914752765e-2 8.291416545266397e-2 8.395709726484245e-2
      8.501314754428064e-2 8.608248130098318e-2 8.716526562052509e-2 8.826166969015942e-2
      8.937186482525259e-2 9.049602449605317e-2 9.163432435479685e-2 9.278694226315237e-2
      9.395405832001307e-2 9.513585488963733e-2 9.633251663014347e-2 9.754423052236310e-2
      9.877118589905704e-2 1.000135744744993e-1 1.012715903744325e-1 1.025454301664003e-1
      1.038352928904618e-1 1.051413800902920e-1 1.064638958446732e-1 1.078030467993826e-1
      1.091590421994814e-1 1.105320939220096e-1 1.119224165090924e-1 1.133302272014628e-1
      1.147557459724054e-1 1.161991955621287e-1 1.176608015125677e-1 1.191407922026256e-1
      1.206393988838592e-1 1.221568557166111e-1 1.236933998065987e-1 1.252492712419624e-1
      1.268247131307791e-1 1.284199716390495e-1 1.300352960291609e-1 1.316709386988358e-1
      1.333271552205689e-1 1.350042043815614e-1 1.367023482241568e-1 1.384218520867853e-1
      1.401629846454238e-1 1.419260179555770e-1 1.437112274947863e-1 1.455188922056746e-1
      1.473492945395305e-1 1.492027205004427e-1 1.510794596899883e-1 1.529798053524840e-1
      1.549040544208059e-1 1.568525075627858e-1 1.588254692281914e-1 1.608232476962967e-1
      1.628461551240519e-1 1.648945075948584e-1 1.669686251679572e-1 1.690688319284387e-1
      1.711954560378822e-1 1.733488297856314e-1 1.755292896407157e-1 1.777371763044234e-1
      1.799728347635378e-1 1.822366143442417e-1 1.845288687666999e-1 1.868499562003299e-1
      1.892002393197654e-1 1.915800853615255e-1 1.939898661813961e-1 1.964299583125328e-1
      1.989007430242959e-1 2.014026063818232e-1 2.039359393063545e-1 2.065011376363132e-1
      2.090986021891573e-1 2.117287388240082e-1 2.143919585050655e-1 2.170886773658230e-1
      2.198193167740897e-1 2.225843033978278e-1 2.253840692718235e-1 2.282190518651899e-1
      2.310896941497255e-1 2.339964446691281e-1 2.369397576090793e-1 2.399200928682150e-1
      2.429379161299822e-1 2.459936989354057e-1 2.490879187567664e-1 2.522210590722056e-1
      2.553936094412732e-1 2.586060655814177e-1 2.618589294454475e-1 2.651527092999598e-1
      2.684879198047571e-1 2.718650820932672e-1 2.752847238539677e-1 2.787473794128416e-1
      2.822535898168651e-1 2.858039029185464e-1 2.893988734615318e-1 2.930390631672817e-1
      2.967250408228441e-1 3.004573823697273e-1 3.042366709938906e-1 3.080634972168715e-1
      3.119384589880520e-1 3.158621617780932e-1 3.198352186735392e-1 3.238582504726123e-1
      3.279318857822171e-1 3.320567611161573e-1 3.362335209945967e-1 3.404628180447645e-1
      3.447453131029281e-1 3.490816753176544e-1 3.534725822543608e-1 3.579187200011899e-1
      3.624207832762111e-1 3.669794755359694e-1 3.715955090854064e-1 3.762696051891543e-1
      3.810024941842395e-1 3.857949155941971e-1 3.906476182446216e-1 3.955613603801762e-1
      4.005369097830655e-1 4.055750438930069e-1 4.106765499287061e-1 4.158422250108590e-1
      4.210728762867081e-1 4.263693210561557e-1 4.317323868994735e-1 4.371629118066114e-1
      4.426617443081332e-1 4.482297436078061e-1 4.538677797168475e-1 4.595767335898709e-1
      4.653574972625346e-1 4.712109739909220e-1 4.771380783926825e-1 4.831397365899359e-1
      4.892168863539869e-1 4.953704772518511e-1 5.016014707946240e-1 5.079108405877257e-1
      5.142995724830209e-1 5.207686647328672e-1 5.273191281460909e-1 5.339519862459258e-1
      5.406682754299462e-1 5.474690451319998e-1 5.543553579861896e-1 5.613282899929105e-1
      5.683889306869732e-1 5.755383833078528e-1 5.827777649720653e-1 5.901082068477253e-1
      5.975308543312906e-1 6.050468672265302e-1 6.126574199257523e-1 6.203637015932982e-1
      6.281669163513575e-1 6.360682834681134e-1 6.440690375482512e-1 6.521704287258755e-1
      6.603737228598382e-1 6.686802017315385e-1 6.770911632452011e-1 6.856079216306721e-1
      6.942318076487793e-1 7.029641687992560e-1 7.118063695312991e-1 7.207597914567643e-1
      7.298258335660405e-1 7.390059124466547e-1 7.483014625046067e-1 7.577139361885062e-1
      7.672448042165174e-1 7.768955558061580e-1 7.866676989070007e-1 7.965627604362843e-1
      8.065822865175054e-1 8.167278427220008e-1 8.270010143135657e-1 8.374034064961652e-1
      8.479366446647388e-1 8.586023746591819e-1 8.694022630215070e-1 8.803379972562400e-1
      8.914112860941080e-1 9.026238597590163e-1 9.139774702384150e-1 9.254738915570416e-1
      9.371149200541133e-1 9.489023746640205e-1 9.608380972005241e-1 9.729239526445555e-1
      9.851618294356186e-1 9.975536397668565e-1 1.010101319883848e0 1.022806830387138e0
      1.035672156538593e0 1.048699308571597e0 1.061890322005161e0 1.075247257961973e0
      1.088772203490447e0 1.102467271890842e0 1.116334603045456e0 1.130376363752996e0
      1.144594748067142e0 1.158991977639369e0 1.173570302066091e0 1.188331999240156e0
      1.203279375706782e0 1.218414767023956e0 1.233740538127360e0 1.249259083699912e0
      1.264972828545928e0 1.280884227970011e0 1.296995768160696e0 1.313309966578912e0
      1.329829372351359e0 1.346556566668792e0 1.363494163189357e0 1.380644808446974e0
      1.398011182264851e0 1.415595998174236e0 1.433402003838386e0 1.451431981481914e0
      1.469688748325513e0 1.488175157026140e0 1.506894096122771e0 1.525848490487718e0
      1.545041301783667e0 1.564475528926433e0 1.584154208553541e0 1.604080415498726e0
      1.624257263272356e0 1.644687904547949e0 1.665375531654775e0 1.686323377076652e0
      1.707534713957051e0 1.729012856610510e0 1.750761161040518e0 1.772783025463892e0
      1.795081890841748e0 1.817661241417173e0 1.840524605259627e0 1.863675554816229e0
      1.887117707469952e0 1.910854726104835e0 1.934890319678338e0 1.959228243800854e0
      1.983872301322543e0 2.008826342927538e0 2.034094267735600e0 2.059680023911397e0
      2.085587609281378e0 2.111821071958469e0 2.138384510974592e0 2.165282076921127e0
      2.192517972597486e0 2.220096453667772e0 2.248021829325765e0 2.276298462968229e0
      2.304930772876694e0 2.333923232907843e0 2.363280373192533e0 2.393006780843666e0
      2.423107100672921e0 2.453586035916500e0 2.484448348970056e0 2.515698862132782e0
      2.547342458360947e0 2.579384082030844e0 2.611828739711350e0 2.644681500946248e0
      2.677947499046311e0 2.711631931891426e0 2.745740062742762e0 2.780277221065149e0
      2.815248803359849e0 2.850660274007738e0 2.886517166123154e0 2.922825082418446e0
      2.959589696079395e0 2.996816751651694e0 3.034512065938504e0 3.072681528909380e0
      3.111331104620572e0 3.150466832146908e0 3.190094826525447e0 3.230221279710924e0
      3.270852461543291e0 3.311994720727382e0 3.353654485824885e0 3.395838266258868e0
      3.438552653330835e0 3.481804321250674e0 3.525600028179501e0 3.569946617285614e0
      3.614851017813796e0 3.660320246167977e0 3.706361407007601e0 3.752981694357728e0
      3.800188392733091e0 3.847988878276370e0 3.896390619910667e0 3.945401180506593e0
      3.995028218063961e0 4.045279486908343e0 4.096162838902746e0 4.147686224674429e0
      4.199857694857249e0 4.252685401349575e0 4.306177598588012e0 4.360342644837221e0
      4.415189003495865e0 4.470725244419076e0 4.526960045257497e0 4.583902192813153e0
      4.641560584412466e0 4.699944229296413e0 4.759062250028299e0 4.818923883919147e0
      4.879538484471026e0 4.940915522838612e0 5.003064589309001e0 5.065995394800284e0
      5.129717772378863e0 5.194241678795858e0 5.259577196042940e0 5.325734532927588e0
      5.392724026668296e0 5.460556144509765e0 5.529241485358390e0 5.598790781438442e0
      5.669214899968911e0 5.740524844861609e0 5.812731758440514e0 5.885846923182760e0
      5.959881763481613e0 6.034847847431474e0 6.110756888635487e0 6.187620748035793e0
      6.265451435766780e0 6.344261113031778e0 6.424062094003175e0 6.504866847746616e0
      6.586688000169281e0 6.669538335992685e0 6.753430800750379e0 6.838378502810641e0
      6.924394715424754e0 7.011492878800957e0 7.099686602204453e0 7.188989666083980e0
      7.279416024224934e0 7.370979805929760e0 7.463695318225650e0 7.557577048100005e0
      7.652639664764150e0 7.748898021945317e0 7.846367160207668e0 7.945062309302373e0
      8.044998890547248e0 8.146192519236463e0 8.248659007080350e0 8.352414364676124e0
      8.457474804009509e0 8.563856740987873e0 8.671576798005333e0 8.780651806539925e0
      8.891098809783667e0 9.002935065305532e0 9.116178047747949e0 9.230845451557350e0
      9.346955193748844e0 9.464525416705888e0 9.583574491015035e0 9.704121018336322e0
      9.826183834309926e0 9.949782011499151e0 1.007493486237066e1 1.020166194231205e1
      1.032998305268735e1 1.045991824393116e1 1.059148781868144e1 1.072471233495194e1
      1.085961260934438e1 1.099620972030108e1 1.113452501139855e1 1.127458009468240e1
      1.141639685404436e1 1.155999744864161e1 1.170540431635920e1 1.185264017731607e1
      1.200172803741501e1 1.215269119193750e1 1.230555322918359e1 1.246033803415757e1
      1.261706979230016e1 1.277577299326739e1 1.293647243475734e1 1.309919322638470e1
      1.326396079360418e1 1.343080088168342e1 1.359973955972557e1 1.377080322474282e1
      1.394401860578087e1 1.411941276809539e1 1.429701311738110e1 1.447684740405388e1
      1.465894372758692e1 1.484333054090128e1 1.503003665481161e1 1.521909124252813e1
      1.541052384421476e1 1.560436437160499e1 1.580064311267564e1 1.599939073637928e1
      1.620063829743652e1 1.640441724118816e1 1.661075940850878e1 1.681969704078186e1
      1.703126278493747e1 1.724548969855364e1 1.746241125502140e1 1.768206134877530e1
      1.790447430058941e1 1.812968486293989e1 1.835772822543538e1 1.858864002031514e1
      1.882245632801695e1 1.905921368281464e1 1.929894907852651e1 1.954169997429594e1
      1.978750430044423e1 2.003640046439745e1 2.028842735668764e1 2.054362435702939e1
      2.080203134047331e1 2.106368868363620e1 2.132863727101030e1 2.159691850135150e1
      2.186857429414776e1 2.214364709616949e1 2.242217988810155e1 2.270421619125941e1
      2.298980007438927e1 2.327897616055384e1 2.357178963410497e1 2.386828624774357e1
      2.416851232966879e1 2.447251479081678e1 2.478034113219051e1 2.509203945228218e1
      2.540765845458838e1 2.572724745522039e1 2.605085639060981e1 2.637853582531111e1
      2.671033695990270e1 2.704631163898683e1 2.738651235929070e1 2.773099227786906e1
      2.807980522040992e1 2.843300568964533e1 2.879064887386710e1 2.915279065555043e1
      2.951948762008556e1 2.989079706461914e1 3.026677700700742e1 3.064748619488123e1
      3.103298411482578e1 3.142333100167543e1 3.181858784792530e1 3.221881641326187e1
      3.262407923421266e1 3.303443963391799e1 3.344996173202528e1 3.387071045470761e1
      3.429675154480904e1 3.472815157211658e1 3.516497794376223e1 3.560729891475535e1
      3.605518359864746e1 3.650870197833177e1 3.696792491697765e1 3.743292416910363e1
      3.790377239178898e1 3.838054315602632e1 3.886331095821765e1 3.935215123181417e1
      3.984714035910323e1 4.034835568314311e1 4.085587551984778e1 4.136977917022442e1
      4.189014693276381e1 4.241706011598760e1 4.295060105115277e1 4.349085310511579e1
      4.403790069335938e1 4.459182929318203e1 4.515272545705453e1 4.572067682614371e1
      4.629577214400633e1 4.687810127045601e1 4.746775519560336e1 4.806482605407393e1
      4.866940713940416e1 4.928159291861853e1 4.990147904699070e1 5.052916238298922e1
      5.116474100341245e1 5.180831421871304e1 5.245998258851504e1 5.311984793732726e1
      5.378801337045275e1 5.446458329009996e1 5.514966341169538e1 5.584336078040164e1
      5.654578378784414e1 5.725704218904670e1 5.797724711958164e1 5.870651111293475e1
      5.944494811808846e1 6.019267351732744e1 6.094980414426631e1 6.171645830210608e1
      6.249275578211877e1 6.327881788236481e1 6.407476742664683e1 6.488072878370028e1
      6.569682788662705e1 6.652319225257244e1 6.735995100264970e1 6.820723488211610e1
      6.906517628080142e1 6.993390925379479e1 7.081356954239086e1 7.170429459529911e1
      7.260622359012152e1 7.351949745509827e1 7.444425889112897e1 7.538065239406956e1
      7.632882427730971e1 7.728892269463554e1 7.826109766337779e1 7.924550108785337e1
      8.024228678310031e1 8.125161049891117e1 8.227362994417033e1 8.330850481149509e1
      8.435639680218911e1 8.541746965150809e1 8.649188915424313e1 8.757982319062778e1
      8.868144175256836e1 8.979691697020657e1 9.092642313881477e1 9.207013674602951e1
      9.322823649942910e1 9.440090335445591e1 9.558832054269200e1 9.679067360048897e1
      9.800815039795800e1 9.924094116832604e1 1.004892385376587e2
      </PP_R>
    <PP_RAB>
      8.768095822639578e-7 8.878384891048292e-7 8.990061225159442e-7 9.103142274627443e-7
      9.217645708596345e-7 9.333589418460665e-7 9.450991520660947e-7 9.569870359514532e-7
      9.690244510081831e-7 9.812132781068794e-7 9.935554217765741e-7 1.006052810502325e-6
      1.018707397026548e-6 1.031521158654132e-6 1.044496097561402e-6 1.057634241108960e-6
      1.070937642158465e-6 1.084408379393397e-6 1.098048557643853e-6 1.111860308215440e-6
      1.125845789222283e-6 1.140007185924243e-6 1.154346711068366e-6 1.168866605234629e-6
      1.183569137186039e-6 1.198456604223125e-6 1.213531332542898e-6 1.228795677602331e-6
      1.244252024486392e-6 1.259902788280731e-6 1.275750414449031e-6 1.291797379215122e-6
      1.308046189949898e-6 1.324499385563094e-6 1.341159536899999e-6 1.358029247143155e-6
      1.375111152219110e-6 1.392407921210284e-6 1.409922256772022e-6 1.427656895554891e-6
      1.445614608632281e-6 1.463798201933395e-6 1.482210516681683e-6 1.500854429838781e-6
      1.519732854554055e-6 1.538848740619773e-6 1.558205074932026e-6 1.577804881957429e-6
      1.597651224205705e-6 1.617747202708213e-6 1.638095957502475e-6 1.658700668122830e-6
      1.679564554097231e-6 1.700690875450309e-6 1.722082933212760e-6 1.743744069937130e-6
      1.765677670220103e-6 1.787887161231347e-6 1.810376013249017e-6 1.833147740201997e-6
      1.856205900218951e-6 1.879554096184295e-6 1.903195976301151e-6 1.927135234661384e-6
      1.951375611822821e-6 1.975920895393711e-6 2.000774920624547e-6 2.025941571007341e-6
      2.051424778882412e-6 2.077228526052841e-6 2.103356844406620e-6 2.129813816546651e-6
      2.156603576428657e-6 2.183730310007123e-6 2.211198255889361e-6 2.239011705997802e-6
      2.267175006240609e-6 2.295692557190743e-6 2.324568814773561e-6 2.353808290963061e-6
      2.383415554486883e-6 2.413395231540191e-6 2.443752006508517e-6 2.474490622699711e-6
      2.505615883085095e-6 2.537132651049925e-6 2.569045851153318e-6 2.601360469897718e-6
      2.634081556508047e-6 2.667214223720662e-6 2.700763648582224e-6 2.734735073258623e-6
      2.769133805854080e-6 2.803965221240546e-6 2.839234761897545e-6 2.874947938762558e-6
      2.911110332092131e-6 2.947727592333792e-6 2.984805441008951e-6 3.022349671606905e-6
      3.060366150490065e-6 3.098860817810603e-6 3.137839688438604e-6 3.177308852901906e-6
      3.217274478337762e-6 3.257742809456454e-6 3.298720169517052e-6 3.340212961315436e-6
      3.382227668184739e-6 3.424770855008394e-6 3.467849169245895e-6 3.511469341971484e-6
      3.555638188925896e-6 3.600362611581327e-6 3.645649598219816e-6 3.691506225025157e-6
      3.737939657188587e-6 3.784957150028350e-6 3.832566050123356e-6 3.880773796461115e-6
      3.929587921600064e-6 3.979016052846575e-6 4.029065913446711e-6 4.079745323793019e-6
      4.131062202646481e-6 4.183024568373817e-6 4.235640540200391e-6 4.288918339478847e-6
      4.342866290973718e-6 4.397492824162185e-6 4.452806474551197e-6 4.508815885011164e-6
      4.565529807126421e-6 4.622957102562680e-6 4.681106744451696e-6 4.739987818793319e-6
      4.799609525875209e-6 4.859981181710399e-6 4.921112219492935e-6 4.983012191071851e-6
      5.045690768443639e-6 5.109157745263535e-6 5.173423038375789e-6 5.238496689363198e-6
      5.304388866116127e-6 5.371109864421251e-6 5.438670109570296e-6 5.507080157989025e-6
      5.576350698886675e-6 5.646492555926205e-6 5.717516688915476e-6 5.789434195519769e-6
      5.862256312995806e-6 5.935994419947598e-6 6.010660038104387e-6 6.086264834120911e-6
      6.162820621400368e-6 6.240339361940275e-6 6.318833168201550e-6 6.398314305001129e-6
      6.478795191428333e-6 6.560288402785410e-6 6.642806672552435e-6 6.726362894376933e-6
      6.810970124088580e-6 6.896641581739132e-6 6.983390653668166e-6 7.071230894594650e-6
      7.160176029734941e-6 7.250239956947381e-6 7.341436748903808e-6 7.433780655288530e-6
      7.527286105024783e-6 7.621967708529320e-6 7.717840259995347e-6 7.814918739704049e-6
      7.913218316365417e-6 8.012754349488279e-6 8.113542391780317e-6 8.215598191578216e-6
      8.318937695308303e-6 8.423577049978299e-6 8.529532605700251e-6 8.636820918245302e-6
      8.745458751630599e-6 8.855463080738597e-6 8.966851093969545e-6 9.079640195927128e-6
      9.193848010137986e-6 9.309492381805475e-6 9.426591380597911e-6 9.545163303472128e-6
      9.665226677532292e-6 9.786800262924872e-6 9.909903055769950e-6 1.003455429112933e-5
      1.016077344601217e-5 1.028858024241820e-5 1.041799465041938e-5 1.054903689128028e-5
      1.068172744061760e-5 1.081608703159968e-5 1.095213665818594e-5 1.108989757840733e-5
      1.122939131768794e-5 1.137063967220829e-5 1.151366471231118e-5 1.165848878595010e-5
      1.180513452218119e-5 1.195362483469913e-5 1.210398292541730e-5 1.225623228809334e-5
      1.241039671199988e-5 1.256650028564181e-5 1.272456740052013e-5 1.288462275494310e-5
      1.304669135788551e-5 1.321079853289629e-5 1.337696992205540e-5 1.354523148998051e-5
      1.371560952788390e-5 1.388813065768065e-5 1.406282183614829e-5 1.423971035913884e-5
      1.441882386584396e-5 1.460019034311341e-5 1.478383812982830e-5 1.496979592132893e-5
      1.515809277389854e-5 1.534875810930348e-5 1.554182171939027e-5 1.573731377074079e-5
      1.593526480938583e-5 1.613570576557785e-5 1.633866795862412e-5 1.654418310178018e-5
      1.675228330720530e-5 1.696300109097996e-5 1.717636937818657e-5 1.739242150805415e-5
      1.761119123916748e-5 1.783271275474220e-5 1.805702066796577e-5 1.828415002740602e-5
      1.851413632248743e-5 1.874701548903654e-5 1.898282391489691e-5 1.922159844561484e-5
      1.946337639019653e-5 1.970819552693775e-5 1.995609410932668e-5 2.020711087202118e-5
      2.046128503690113e-5 2.071865631919690e-5 2.097926493369498e-5 2.124315160102158e-5
      2.151035755400539e-5 2.178092454412016e-5 2.205489484800859e-5 2.233231127408805e-5
      2.261321716923953e-5 2.289765642558065e-5 2.318567348732392e-5 2.347731335772119e-5
      2.377262160609558e-5 2.407164437496168e-5 2.437442838723552e-5 2.468102095353503e-5
      2.499146997957244e-5 2.530582397363974e-5 2.562413205418796e-5 2.594644395750239e-5
      2.627281004547362e-5 2.660328131346690e-5 2.693790939829021e-5 2.727674658626260e-5
      2.761984582138407e-5 2.796726071360816e-5 2.831904554721855e-5 2.867525528931126e-5
      2.903594559838318e-5 2.940117283302894e-5 2.977099406074701e-5 3.014546706685662e-5
      3.052465036352687e-5 3.090860319891930e-5 3.129738556644561e-5 3.169105821414171e-5
      3.208968265415969e-5 3.249332117237938e-5 3.290203683814041e-5 3.331589351409714e-5
      3.373495586619715e-5 3.415928937378554e-5 3.458896033983621e-5 3.502403590131177e-5
      3.546458403965386e-5 3.591067359140542e-5 3.636237425896644e-5 3.681975662148526e-5
      3.728289214588654e-5 3.775185319803829e-5 3.822671305405896e-5 3.870754591176717e-5
      3.919442690227521e-5 3.968743210172842e-5 4.018663854319222e-5 4.069212422868878e-5
      4.120396814138479e-5 4.172225025793306e-5 4.224705156096867e-5 4.277845405176301e-5
      4.331654076303638e-5 4.386139577193212e-5 4.441310421315396e-5 4.497175229226825e-5
      4.553742729917397e-5 4.611021762174181e-5 4.669021275962498e-5 4.727750333824384e-5
      4.787218112294610e-5 4.847433903334557e-5 4.908407115784080e-5 4.970147276831676e-5
      5.032664033503113e-5 5.095967154168829e-5 5.160066530070204e-5 5.224972176865144e-5
      5.290694236193004e-5 5.357242977259270e-5 5.424628798440131e-5 5.492862228907240e-5
      5.561953930272932e-5 5.631914698256111e-5 5.702755464369108e-5 5.774487297625765e-5
      5.847121406270960e-5 5.920669139531947e-5 5.995141989391679e-5 6.070551592384459e-5
      6.146909731414191e-5 6.224228337595438e-5 6.302519492117726e-5 6.381795428133236e-5
      6.462068532668247e-5 6.543351348558673e-5 6.625656576409864e-5 6.708997076581122e-5
      6.793385871195156e-5 6.878836146172809e-5 6.965361253293411e-5 7.052974712280975e-5
      7.141690212916720e-5 7.231521617178118e-5 7.322482961404839e-5 7.414588458491993e-5
      7.507852500110880e-5 7.602289658957759e-5 7.697914691030827e-5 7.794742537935889e-5
      7.892788329221039e-5 7.992067384740632e-5 8.092595217049078e-5 8.194387533824699e-5
      8.297460240324085e-5 8.401829441867347e-5 8.507511446354552e-5 8.614522766813916e-5
      8.722880123981978e-5 8.832600448916240e-5 8.943700885640720e-5 9.056198793824681e-5
      9.170111751495160e-5 9.285457557783545e-5 9.402254235706737e-5 9.520520034983299e-5
      9.640273434884975e-5 9.761533147124144e-5 9.884318118777541e-5 1.000864753524679e-4
      1.013454082325619e-4 1.026201765388810e-4 1.039109794565666e-4 1.052180186762010e-4
      1.065414984253211e-4 1.078816255003305e-4 1.092386092988113e-4 1.106126618522427e-4
      1.120039978591318e-4 1.134128347185602e-4 1.148393925641535e-4 1.162838942984776e-4
      1.177465656278673e-4 1.192276350976935e-4 1.207273341280743e-4 1.222458970500342e-4
      1.237835611421195e-4 1.253405666674728e-4 1.269171569113753e-4 1.285135782192601e-4
      1.301300800352045e-4 1.317669149409062e-4 1.334243386951493e-4 1.351026102737675e-4
      1.368019919101093e-4 1.385227491360128e-4 1.402651508232956e-4 1.420294692257662e-4
      1.438159800217645e-4 1.456249623572372e-4 1.474566988893543e-4 1.493114758306760e-4
      1.511895829938728e-4 1.530913138370099e-4 1.550169655094008e-4 1.569668388980369e-4
      1.589412386746025e-4 1.609404733430794e-4 1.629648552879521e-4 1.650147008230181e-4
      1.670903302408126e-4 1.691920678626553e-4 1.713202420893255e-4 1.734751854523758e-4
      1.756572346660911e-4 1.778667306801003e-4 1.801040187326510e-4 1.823694484045532e-4
      1.846633736738021e-4 1.869861529708881e-4 1.893381492348020e-4 1.917197299697454e-4
      1.941312673025533e-4 1.965731380408405e-4 1.990457237318777e-4 2.015494107222095e-4
      2.040845902180222e-4 2.066516583462699e-4 2.092510162165703e-4 2.118830699838789e-4
      2.145482309119517e-4 2.172469154376067e-4 2.199795452357908e-4 2.227465472854701e-4
      2.255483539363440e-4 2.283854029764020e-4 2.312581377003291e-4 2.341670069787700e-4
      2.371124653284679e-4 2.400949729832824e-4 2.431149959661024e-4 2.461730061616636e-4
      2.492694813902804e-4 2.524049054825071e-4 2.555797683547373e-4 2.587945660857537e-4
      2.620498009942430e-4 2.653459817172820e-4 2.686836232898148e-4 2.720632472251280e-4
      2.754853815963366e-4 2.789505611188994e-4 2.824593272341663e-4 2.860122281939815e-4
      2.896098191463484e-4 2.932526622221724e-4 2.969413266230961e-4 3.006763887104364e-4
      3.044584320952437e-4 3.082880477294912e-4 3.121658339984132e-4 3.160923968140041e-4
      3.200683497096920e-4 3.240943139362062e-4 3.281709185586480e-4 3.322988005547833e-4
      3.364786049145725e-4 3.407109847409509e-4 3.449966013518768e-4 3.493361243836648e-4
      3.537302318956177e-4 3.581796104759741e-4 3.626849553491895e-4 3.672469704845665e-4
      3.718663687062515e-4 3.765438718046144e-4 3.812802106490317e-4 3.860761253020835e-4
      3.909323651351917e-4 3.958496889457104e-4 4.008288650754888e-4 4.058706715309285e-4
      4.109758961045451e-4 4.161453364980649e-4 4.213798004470669e-4 4.266801058471922e-4
      4.320470808819438e-4 4.374815641520902e-4 4.429844048066983e-4 4.485564626758160e-4
      4.541986084048219e-4 4.599117235904655e-4 4.656967009186179e-4 4.715544443037561e-4
      4.774858690302017e-4 4.834919018951355e-4 4.895734813534128e-4 4.957315576641966e-4
      5.019670930394389e-4 5.082810617942287e-4 5.146744504990291e-4 5.211482581338338e-4
      5.277034962442563e-4 5.343411890995881e-4 5.410623738528423e-4 5.478681007028106e-4
      5.547594330581603e-4 5.617374477035924e-4 5.688032349680919e-4 5.759578988952940e-4
      5.832025574159937e-4 5.905383425228250e-4 5.979664004471350e-4 6.054878918380870e-4
      6.131039919440133e-4 6.208158907960501e-4 6.286247933940841e-4 6.365319198950329e-4
      6.445385058034997e-4 6.526458021648219e-4 6.608550757605503e-4 6.691676093063867e-4
      6.775847016526093e-4 6.861076679870220e-4 6.947378400404546e-4 7.034765662948478e-4
      7.123252121939596e-4 7.212851603567135e-4 7.303578107932394e-4 7.395445811236261e-4
      7.488469067994277e-4 7.582662413279585e-4 7.678040564994014e-4 7.774618426167816e-4
      7.872411087288294e-4 7.971433828657696e-4 8.071702122780842e-4 8.173231636782678e-4
      8.276038234856331e-4 8.380137980741909e-4 8.485547140236495e-4 8.592282183735730e-4
      8.700359788807305e-4 8.809796842796905e-4 8.920610445466860e-4 9.032817911668037e-4
      9.146436774045329e-4 9.261484785777137e-4 9.377979923349356e-4 9.495940389364250e-4
      9.615384615384615e-4 9.736331264813796e-4 9.858799235811821e-4 9.982807664248321e-4
      1.010837592669255e-3 1.023552364344096e-3 1.036427068158300e-3 1.049463715810531e-3
      1.062664344303508e-3 1.076031016262290e-3 1.089565820256564e-3 1.103270871126993e-3
      1.117148310315657e-3 1.131200306200665e-3 1.145429054434961e-3 1.159836778289405e-3
      1.174425729000164e-3 1.189198186120467e-3 1.204156457876793e-3 1.219302881529539e-3
      1.234639823738213e-3 1.250169680931242e-3 1.265894879680406e-3 1.281817877080003e-3
      1.297941161130773e-3 1.314267251128650e-3 1.330798698058415e-3 1.347538084992283e-3
      1.364488027493518e-3 1.381651174025121e-3 1.399030206363655e-3 1.416627840018284e-3
      1.434446824655068e-3 1.452489944526609e-3 1.470760018907096e-3 1.489259902532820e-3
      1.507992486048240e-3 1.526960696457639e-3 1.546167497582485e-3 1.565615890524530e-3
      1.585308914134739e-3 1.605249645488118e-3 1.625441200364511e-3 1.645886733735447e-3
      1.666589440257112e-3 1.687552554769518e-3 1.708779352801960e-3 1.730273151084816e-3
      1.752037308067798e-3 1.774075224444712e-3 1.796390343684829e-3 1.818986152570933e-3
      1.841866181744131e-3 1.865034006255534e-3 1.888493246124854e-3 1.912247566906050e-3
      1.936300680260074e-3 1.960656344534823e-3 1.985318365352392e-3 2.010290596203709e-3
      2.035576939050649e-3 2.061181344935731e-3 2.087107814599465e-3 2.113360399105483e-3
      2.139943200473528e-3 2.166860372320393e-3 2.194116120508946e-3 2.221714703805293e-3
      2.249660434544223e-3 2.277957679303021e-3 2.306610859583748e-3 2.335624452504124e-3
      2.365002991497068e-3 2.394751067019070e-3 2.424873327267452e-3 2.455374478906660e-3
      2.486259287803699e-3 2.517532579772790e-3 2.549199241329431e-3 2.581264220453916e-3
      2.613732527364467e-3 2.646609235300104e-3 2.679899481313319e-3 2.713608467072788e-3
      2.747741459676121e-3 2.782303792472848e-3 2.817300865897793e-3 2.852738148314874e-3
      2.888621176871569e-3 2.924955558364101e-3 2.961746970113492e-3 2.999001160852688e-3
      3.036723951624778e-3 3.074921236692572e-3 3.113598984459580e-3 3.152763238402571e-3
      3.192420118015915e-3 3.232575819767722e-3 3.273236618068094e-3 3.314408866249497e-3
      3.356098997559464e-3 3.398313526165841e-3 3.441059048174597e-3 3.484342242660520e-3
      3.528169872710814e-3 3.572548786481832e-3 3.617485918269148e-3 3.662988289591023e-3
      3.709063010285551e-3 3.755717279621591e-3 3.802958387423632e-3 3.850793715210894e-3
      3.899230737350650e-3 3.948277022226165e-3 3.997940233419240e-3 4.048228130907654e-3
      4.099148572277715e-3 4.150709513951966e-3 4.202919012432459e-3 4.255785225559555e-3
      4.309316413786601e-3 4.363520941470681e-3 4.418407278179510e-3 4.473984000014874e-3
      4.530259790952639e-3 4.587243444199618e-3 4.644943863567581e-3 4.703370064864429e-3
      4.762531177302993e-3 4.822436444927465e-3 4.883095228057771e-3 4.944517004752203e-3
      5.006711372288319e-3 5.069688048662587e-3 5.133456874108827e-3 5.198027812635737e-3
      5.263410953583851e-3 5.329616513201946e-3 5.396654836243418e-3 5.464536397582643e-3
      5.533271803851665e-3 5.602871795097577e-3 5.673347246460594e-3 5.744709169873387e-3
      5.816968715781683e-3 5.890137174886525e-3 5.964225979908530e-3 6.039246707374200e-3
      6.115211079424836e-3 6.192130965648138e-3 6.270018384932801e-3 6.348885507346571e-3
      6.428744656037764e-3 6.509608309160840e-3 6.591489101826137e-3 6.674399828074073e-3
      6.758353442874327e-3 6.843363064149997e-3 6.929441974827371e-3 7.016603624911381e-3
      7.104861633587165e-3 7.194229791348161e-3 7.284722062150816e-3 7.376352585596566e-3
      7.469135679141132e-3 7.563085840331627e-3 7.658217749071904e-3 7.754546269916228e-3
      7.852086454391969e-3 7.950853543351419e-3 8.050862969353140e-3 8.152130359073444e-3
      8.254671535747978e-3 8.358502521644231e-3 8.463639540565014e-3 8.570099020383402e-3
      8.677897595609743e-3 8.787052109990700e-3 8.897579619141240e-3 9.009497393209553e-3
      9.122822919575507e-3 9.237573905583185e-3 9.353768281307586e-3 9.471424202356328e-3
      9.590560052706468e-3 9.711194447576975e-3 9.833346236337510e-3 9.957034505453555e-3
      1.008227858146882e-2 1.020909803402501e-2 1.033751267891957e-2 1.046754258120207e-2
      1.059920805830924e-2 1.073252968323978e-2 1.086752828776884e-2 1.100422496570300e-2
      1.114264107617635e-2 1.128279824698770e-2 1.142471837798019e-2 1.156842364446302e-2
      1.171393650067642e-2 1.186127968330026e-2 1.201047621500655e-2 1.216154940805694e-2
      1.231452286794523e-2 1.246942049708571e-2 1.262626649854810e-2 1.278508537983922e-2
      1.294590195673242e-2 1.310874135714497e-2 1.327362902506452e-2 1.344059072452466e-2
      1.360965254363058e-2 1.378084089863553e-2 1.395418253806820e-2 1.412970454691245e-2
      1.430743435083928e-2 1.448739972049211e-2 1.466962877582614e-2 1.485414999050195e-2
      1.504099219633478e-2 1.523018458779945e-2 1.542175672659200e-2 1.561573854624890e-2
      1.581216035682410e-2 1.601105284962514e-2 1.621244710200870e-2 1.641637458223641e-2
      1.662286715439198e-2 1.683195708335989e-2 1.704367703986696e-2 1.725806010558717e-2
      1.747513977831064e-2 1.769494997717795e-2 1.791752504797983e-2 1.814289976852393e-2
      1.837110935406891e-2 1.860218946282675e-2 1.883617620153464e-2 1.907310613109647e-2
      1.931301627229584e-2 1.955594411158041e-2 1.980192760691926e-2 2.005100519373407e-2
      2.030321579090445e-2 2.055859880684937e-2 2.081719414568469e-2 2.107904221345815e-2
      2.134418392446314e-2 2.161266070763137e-2 2.188451451300647e-2 2.215978781829866e-2
      2.243852363552185e-2 2.272076551771467e-2 2.300655756574534e-2 2.329594443520286e-2
      2.358897134337440e-2 2.388568407631043e-2 2.418612899597923e-2 2.449035304751067e-2
      2.479840376653179e-2 2.511032928659422e-2 2.542617834669500e-2 2.574600029889246e-2
      2.606984511601722e-2 2.639776339948087e-2 2.672980638718240e-2 2.706602596151409e-2
      2.740647465746858e-2 2.775120567084715e-2 2.810027286657206e-2 2.845373078710287e-2
      2.881163466095868e-2 2.917404041134804e-2 2.954100466490667e-2 2.991258476054583e-2
      3.028883875841151e-2 3.066982544895625e-2 3.105560436212569e-2 3.144623577665978e-2
      3.184178072951184e-2 3.224230102538555e-2 3.264785924639187e-2 3.305851876182810e-2
      3.347434373807889e-2 3.389539914864282e-2 3.432175078428453e-2 3.475346526331436e-2
      3.519061004199812e-2 3.563325342509672e-2 3.608146457653943e-2 3.653531353023058e-2
      3.699487120099244e-2 3.746020939564617e-2 3.793140082423130e-2 3.840851911136725e-2
      3.889163880775715e-2 3.938083540183635e-2 3.987618533156809e-2 4.037776599638655e-2
      4.088565576929114e-2 4.139993400909228e-2 4.192068107281107e-2 4.244797832823585e-2
      4.298190816663544e-2 4.352255401563343e-2 4.407000035224376e-2 4.462433271607017e-2
      4.518563772267245e-2 4.575400307709971e-2 4.632951758759502e-2 4.691227117947160e-2
      4.750235490916364e-2 4.809986097845464e-2 4.870488274888334e-2 4.931751475633241e-2
      4.993785272579951e-2 5.056599358635428e-2 5.120203548628433e-2 5.184607780843036e-2
      5.249822118571561e-2 5.315856751686969e-2 5.382721998235017e-2 5.450428306046526e-2
      5.518986254369831e-2 5.588406555523845e-2 5.658700056571872e-2 5.729877741016441e-2
      5.801950730515583e-2 5.874930286620517e-2 5.948827812535374e-2 6.023654854898934e-2
      6.099423105588784e-2 6.176144403548265e-2 6.253830736636251e-2 6.332494243500355e-2
      6.412147215473578e-2 6.492802098494822e-2 6.574471495053675e-2 6.657168166159487e-2
      6.740905033335371e-2 6.825695180637206e-2 6.911551856697988e-2 6.998488476798053e-2
      7.086518624961140e-2 7.175656056077012e-2 7.265914698050643e-2 7.357308653978451e-2
      7.449852204352016e-2 7.543559809289341e-2 7.638446110794360e-2 7.734525935044743e-2
      7.831814294708474e-2 7.930326391289722e-2 8.030077617503970e-2 8.131083559683271e-2
      8.233360000211603e-2 8.336922919990856e-2 8.441788500937975e-2 8.547973128513302e-2
      8.655493394280944e-2 8.764366098501197e-2 8.874608252755568e-2 8.986237082604976e-2
      9.099270030281168e-2 9.213724757412201e-2 9.329619147782063e-2 9.446971310125008e-2
      9.565799580955188e-2 9.686122527431646e-2 9.807958950259586e-2 9.931327886627967e-2
      1.005624861318406e-1 1.018274064904558e-1 1.031082375885044e-1 1.044051795584515e-1
      1.057184350501189e-1 1.070482092623484e-1 1.083947099750667e-1 1.097581475817491e-1
      1.111387351222958e-1 1.125366883163192e-1 1.139522255968494e-1 1.153855681444669e-1
      1.168369399218605e-1 1.183065677088236e-1 1.197946811376879e-1 1.213015127292040e-1
      1.228272979288741e-1 1.243722751437394e-1 1.259366857796333e-1 1.275207742789006e-1
      1.291247881585919e-1 1.307489780491395e-1 1.323935977335180e-1 1.340589041868992e-1
      1.357451576168048e-1 1.374526215037635e-1 1.391815626424819e-1 1.409322511835300e-1
      1.427049606755544e-1 1.444999681080202e-1 1.463175539544900e-1 1.481580022164509e-1
      1.500216004676876e-1 1.519086398992187e-1 1.538194153647949e-1 1.557542254269696e-1
      1.577133724037519e-1 1.596971624158424e-1 1.617059054344668e-1 1.637399153298088e-1
      1.657995099200523e-1 1.678850110210428e-1 1.699967444965697e-1 1.721350403092853e-1
      1.743002325722609e-1 1.764926596011923e-1 1.787126639672638e-1 1.809605925506735e-1
      1.832367965948365e-1 1.855416317612660e-1 1.878754581851452e-1 1.902386405316017e-1
      1.926315480526845e-1 1.950545546450624e-1 1.975080389084455e-1 1.999923842047410e-1
      2.025079787179565e-1 2.050552155148520e-1 2.076344926063597e-1 2.102462130097733e-1
      2.128907848117184e-1 2.155686212319205e-1 2.182801406877674e-1 2.210257668596912e-1
      2.238059287573676e-1 2.266210607867487e-1 2.294716028179422e-1 2.323580002539392e-1
      2.352807041002119e-1 2.382401710351830e-1 2.412368634815814e-1 2.442712496786993e-1
      2.473438037555529e-1 2.504550058049681e-1 2.536053419585955e-1 2.567953044628674e-1
      2.600253917559163e-1 2.632961085454525e-1 2.666079658876288e-1 2.699614812668938e-1
      2.733571786768470e-1 2.767955887021186e-1 2.802772486012694e-1 2.838027023907426e-1
      2.873725009298660e-1 2.909872020069230e-1 2.946473704263121e-1 2.983535780967946e-1
      3.021064041208599e-1 3.059064348852097e-1 3.097542641523813e-1 3.136504931535273e-1
      3.175957306823547e-1 3.215905931902548e-1 3.256357048826227e-1 3.297316978163889e-1
      3.338792119987837e-1 3.380788954873354e-1 3.423314044911337e-1 3.466374034733632e-1
      3.509975652551240e-1 3.554125711205666e-1 3.598831109233387e-1 3.644098831943803e-1
      3.689935952510695e-1 3.736349633077393e-1 3.783347125875927e-1 3.830935774360153e-1
      3.879123014353222e-1 3.927916375209428e-1 3.977323480990662e-1 4.027352051657734e-1
      4.078009904276582e-1 4.129304954239749e-1 4.181245216503160e-1 4.233838806838451e-1
      4.287093943101130e-1 4.341018946514573e-1 4.395622242970278e-1 4.450912364344419e-1
      4.506897949830933e-1 4.563587747291471e-1 4.620990614622206e-1 4.679115521137954e-1
      4.737971548973623e-1 4.797567894503290e-1 4.857913869777207e-1 4.919018903976771e-1
      4.980892544887904e-1 5.043544460392889e-1 5.106984439980973e-1 5.171222396278052e-1
      5.236268366595476e-1 5.302132514498449e-1 5.368825131394096e-1 5.436356638139474e-1
      5.504737586669922e-1 5.573978661647754e-1 5.644090682131816e-1 5.715084603267964e-1
      5.786971518000791e-1 5.859762658807001e-1 5.933469399450421e-1 6.008103256759241e-1
      6.083675892425520e-1 6.160199114827316e-1 6.237684880873838e-1 6.316145297873652e-1
      6.395592625426556e-1 6.476039277339130e-1 6.557497823564380e-1 6.639980992165908e-1
      6.723501671306594e-1 6.808072911262495e-1 6.893707926461923e-1 6.980420097550205e-1
      7.068222973480518e-1 7.157130273630838e-1 7.247155889947705e-1 7.338313889116844e-1
      7.430618514761057e-1 7.524084189665929e-1 7.618725518033289e-1 7.714557287763260e-1
      7.811594472764847e-1 7.909852235295602e-1 8.009345928330854e-1 8.110091097962535e-1
      8.212103485828381e-1 8.315399031571555e-1 8.419993875331212e-1 8.525904360264512e-1
      8.633147035100176e-1 8.741738656724349e-1 8.851696192798856e-1 8.963036824412388e-1
      9.075777948765190e-1 9.189937181887284e-1 9.305532361391121e-1 9.422581549258695e-1
      9.541103034663713e-1 9.661115336829443e-1 9.782637207922223e-1 9.905687635981671e-1
      1.003028584788754e0 1.015645131236390e0 1.028420374302129e0 1.041356310143689e0
      1.054454960027364e0 1.067718370643851e0 1.081148614428039e0 1.094747789882847e0
      1.108518021907104e0 1.122461462127582e0 1.136580289235185e0 1.150876709325369e0
      1.165352956242864e0 1.180011291930699e0 1.194854006783650e0 1.209883420006112e0
      1.225101879974475e0 1.240511764604076e0 1.256115481720734e0
      </PP_RAB>
  </PP_MESH>
  <PP_NLCC columns="4">
    2.672863645487385e-1 2.672863645131750e-1 2.672863644767112e-1 2.672863644393244e-1
    2.672863644009910e-1 2.672863643616872e-1 2.672863643213885e-1 2.672863642800696e-1
    2.672863642377047e-1 2.672863641942673e-1 2.672863641497303e-1 2.672863641040660e-1
    2.672863640572454e-1 2.672863640092398e-1 2.672863639600187e-1 2.672863639095517e-1
    2.672863638578071e-1 2.672863638047527e-1 2.672863637503550e-1 2.672863636945802e-1
    2.672863636373937e-1 2.672863635787594e-1 2.672863635186408e-1 2.672863634570002e-1
    2.672863633937991e-1 2.672863633289983e-1 2.672863632625569e-1 2.672863631944336e-1
    2.672863631245857e-1 2.672863630529695e-1 2.672863629795405e-1 2.672863629042525e-1
    2.672863628270586e-1 2.672863627479106e-1 2.672863626667588e-1 2.672863625835528e-1
    2.672863624982404e-1 2.672863624107683e-1 2.672863623210819e-1 2.672863622291249e-1
    2.672863621348402e-1 2.672863620381685e-1 2.672863619390496e-1 2.672863618374215e-1
    2.672863617332207e-1 2.672863616263820e-1 2.672863615168387e-1 2.672863614045222e-1
    2.672863612893626e-1 2.672863611712876e-1 2.672863610502235e-1 2.672863609260945e-1
    2.672863607988234e-1 2.672863606683304e-1 2.672863605345339e-1 2.672863603973503e-1
    2.672863602566939e-1 2.672863601124767e-1 2.672863599646087e-1 2.672863598129975e-1
    2.672863596575481e-1 2.672863594981635e-1 2.672863593347441e-1 2.672863591671876e-1
    2.672863589953896e-1 2.672863588192423e-1 2.672863586386360e-1 2.672863584534575e-1
    2.672863582635913e-1 2.672863580689185e-1 2.672863578693176e-1 2.672863576646638e-1
    2.672863574548290e-1 2.672863572396824e-1 2.672863570190893e-1 2.672863567929118e-1
    2.672863565610085e-1 2.672863563232347e-1 2.672863560794415e-1 2.672863558294768e-1
    2.672863555731841e-1 2.672863553104034e-1 2.672863550409703e-1 2.672863547647164e-1
    2.672863544814693e-1 2.672863541910517e-1 2.672863538932821e-1 2.672863535879744e-1
    2.672863532749378e-1 2.672863529539767e-1 2.672863526248904e-1 2.672863522874733e-1
    2.672863519415144e-1 2.672863515867975e-1 2.672863512231008e-1 2.672863508501972e-1
    2.672863504678535e-1 2.672863500758307e-1 2.672863496738838e-1 2.672863492617616e-1
    2.672863488392064e-1 2.672863484059542e-1 2.672863479617342e-1 2.672863475062687e-1
    2.672863470392731e-1 2.672863465604554e-1 2.672863460695162e-1 2.672863455661490e-1
    2.672863450500390e-1 2.672863445208635e-1 2.672863439782920e-1 2.672863434219852e-1
    2.672863428515954e-1 2.672863422667661e-1 2.672863416671318e-1 2.672863410523177e-1
    2.672863404219395e-1 2.672863397756032e-1 2.672863391129048e-1 2.672863384334302e-1
    2.672863377367545e-1 2.672863370224424e-1 2.672863362900475e-1 2.672863355391118e-1
    2.672863347691661e-1 2.672863339797292e-1 2.672863331703076e-1 2.672863323403953e-1
    2.672863314894737e-1 2.672863306170110e-1 2.672863297224618e-1 2.672863288052670e-1
    2.672863278648533e-1 2.672863269006329e-1 2.672863259120031e-1 2.672863248983460e-1
    2.672863238590280e-1 2.672863227933997e-1 2.672863217007948e-1 2.672863205805306e-1
    2.672863194319066e-1 2.672863182542052e-1 2.672863170466901e-1 2.672863158086066e-1
    2.672863145391809e-1 2.672863132376196e-1 2.672863119031090e-1 2.672863105348152e-1
    2.672863091318828e-1 2.672863076934351e-1 2.672863062185729e-1 2.672863047063743e-1
    2.672863031558943e-1 2.672863015661637e-1 2.672862999361889e-1 2.672862982649511e-1
    2.672862965514057e-1 2.672862947944817e-1 2.672862929930810e-1 2.672862911460776e-1
    2.672862892523171e-1 2.672862873106159e-1 2.672862853197602e-1 2.672862832785059e-1
    2.672862811855770e-1 2.672862790396652e-1 2.672862768394296e-1 2.672862745834946e-1
    2.672862722704505e-1 2.672862698988514e-1 2.672862674672150e-1 2.672862649740213e-1
    2.672862624177124e-1 2.672862597966901e-1 2.672862571093162e-1 2.672862543539113e-1
    2.672862515287530e-1 2.672862486320755e-1 2.672862456620683e-1 2.672862426168750e-1
    2.672862394945923e-1 2.672862362932688e-1 2.672862330109033e-1 2.672862296454444e-1
    2.672862261947884e-1 2.672862226567788e-1 2.672862190292042e-1 2.672862153097969e-1
    2.672862114962326e-1 2.672862075861275e-1 2.672862035770376e-1 2.672861994664571e-1
    2.672861952518169e-1 2.672861909304827e-1 2.672861864997534e-1 2.672861819568598e-1
    2.672861772989622e-1 2.672861725231495e-1 2.672861676264366e-1 2.672861626057630e-1
    2.672861574579905e-1 2.672861521799015e-1 2.672861467681973e-1 2.672861412194951e-1
    2.672861355303271e-1 2.672861296971370e-1 2.672861237162793e-1 2.672861175840155e-1
    2.672861112965129e-1 2.672861048498414e-1 2.672860982399720e-1 2.672860914627729e-1
    2.672860845140084e-1 2.672860773893353e-1 2.672860700843004e-1 2.672860625943377e-1
    2.672860549147661e-1 2.672860470407854e-1 2.672860389674740e-1 2.672860306897859e-1
    2.672860222025475e-1 2.672860135004539e-1 2.672860045780660e-1 2.672859954298070e-1
    2.672859860499590e-1 2.672859764326593e-1 2.672859665718969e-1 2.672859564615083e-1
    2.672859460951744e-1 2.672859354664159e-1 2.672859245685895e-1 2.672859133948835e-1
    2.672859019383144e-1 2.672858901917214e-1 2.672858781477622e-1 2.672858657989093e-1
    2.672858531374442e-1 2.672858401554532e-1 2.672858268448221e-1 2.672858131972313e-1
    2.672857992041507e-1 2.672857848568344e-1 2.672857701463145e-1 2.672857550633969e-1
    2.672857395986541e-1 2.672857237424204e-1 2.672857074847849e-1 2.672856908155865e-1
    2.672856737244062e-1 2.672856562005615e-1 2.672856382330996e-1 2.672856198107904e-1
    2.672856009221192e-1 2.672855815552804e-1 2.672855616981689e-1 2.672855413383735e-1
    2.672855204631690e-1 2.672854990595074e-1 2.672854771140113e-1 2.672854546129637e-1
    2.672854315423012e-1 2.672854078876039e-1 2.672853836340869e-1 2.672853587665913e-1
    2.672853332695739e-1 2.672853071270989e-1 2.672852803228260e-1 2.672852528400023e-1
    2.672852246614501e-1 2.672851957695570e-1 2.672851661462650e-1 2.672851357730588e-1
    2.672851046309543e-1 2.672850727004869e-1 2.672850399616993e-1 2.672850063941289e-1
    2.672849719767952e-1 2.672849366881866e-1 2.672849005062468e-1 2.672848634083611e-1
    2.672848253713425e-1 2.672847863714173e-1 2.672847463842092e-1 2.672847053847256e-1
    2.672846633473407e-1 2.672846202457802e-1 2.672845760531048e-1 2.672845307416931e-1
    2.672844842832243e-1 2.672844366486611e-1 2.672843878082306e-1 2.672843377314070e-1
    2.672842863868908e-1 2.672842337425909e-1 2.672841797656035e-1 2.672841244221918e-1
    2.672840676777654e-1 2.672840094968578e-1 2.672839498431047e-1 2.672838886792217e-1
    2.672838259669801e-1 2.672837616671839e-1 2.672836957396443e-1 2.672836281431557e-1
    2.672835588354692e-1 2.672834877732663e-1 2.672834149121322e-1 2.672833402065274e-1
    2.672832636097601e-1 2.672831850739558e-1 2.672831045500291e-1 2.672830219876510e-1
    2.672829373352194e-1 2.672828505398251e-1 2.672827615472204e-1 2.672826703017837e-1
    2.672825767464856e-1 2.672824808228532e-1 2.672823824709334e-1 2.672822816292553e-1
    2.672821782347921e-1 2.672820722229213e-1 2.672819635273851e-1 2.672818520802478e-1
    2.672817378118544e-1 2.672816206507868e-1 2.672815005238184e-1 2.672813773558699e-1
    2.672812510699608e-1 2.672811215871621e-1 2.672809888265469e-1 2.672808527051399e-1
    2.672807131378652e-1 2.672805700374934e-1 2.672804233145871e-1 2.672802728774450e-1
    2.672801186320442e-1 2.672799604819825e-1 2.672797983284166e-1 2.672796320700019e-1
    2.672794616028280e-1 2.672792868203545e-1 2.672791076133441e-1 2.672789238697942e-1
    2.672787354748674e-1 2.672785423108195e-1 2.672783442569254e-1 2.672781411894046e-1
    2.672779329813434e-1 2.672777195026153e-1 2.672775006198002e-1 2.672772761961009e-1
    2.672770460912576e-1 2.672768101614599e-1 2.672765682592576e-1 2.672763202334681e-1
    2.672760659290821e-1 2.672758051871667e-1 2.672755378447663e-1 2.672752637348004e-1
    2.672749826859595e-1 2.672746945225982e-1 2.672743990646252e-1 2.672740961273907e-1
    2.672737855215713e-1 2.672734670530514e-1 2.672731405228029e-1 2.672728057267590e-1
    2.672724624556889e-1 2.672721104950653e-1 2.672717496249315e-1 2.672713796197634e-1
    2.672710002483288e-1 2.672706112735433e-1 2.672702124523214e-1 2.672698035354257e-1
    2.672693842673100e-1 2.672689543859608e-1 2.672685136227331e-1 2.672680617021826e-1
    2.672675983418935e-1 2.672671232523029e-1 2.672666361365188e-1 2.672661366901354e-1
    2.672656246010432e-1 2.672650995492330e-1 2.672645612065973e-1 2.672640092367247e-1
    2.672634432946898e-1 2.672628630268380e-1 2.672622680705645e-1 2.672616580540883e-1
    2.672610325962190e-1 2.672603913061202e-1 2.672597337830641e-1 2.672590596161823e-1
    2.672583683842085e-1 2.672576596552162e-1 2.672569329863482e-1 2.672561879235408e-1
    2.672554240012400e-1 2.672546407421109e-1 2.672538376567397e-1 2.672530142433280e-1
    2.672521699873800e-1 2.672513043613810e-1 2.672504168244680e-1 2.672495068220924e-1
    2.672485737856738e-1 2.672476171322449e-1 2.672466362640880e-1 2.672456305683615e-1
    2.672445994167181e-1 2.672435421649119e-1 2.672424581523970e-1 2.672413467019150e-1
    2.672402071190723e-1 2.672390386919076e-1 2.672378406904399e-1 2.672366123662422e-1
    2.672353529519278e-1 2.672340616606939e-1 2.672327376858868e-1 2.672313802003576e-1
    2.672299883561042e-1 2.672285612836302e-1 2.672270980914643e-1 2.672255978656168e-1
    2.672240596689251e-1 2.672224825405086e-1 2.672208654952560e-1 2.672192075230761e-1
    2.672175075883182e-1 2.672157646292420e-1 2.672139775570953e-1 2.672121452557370e-1
    2.672102665807143e-1 2.672083403586141e-1 2.672063653864341e-1 2.672043404306735e-1
    2.672022642266777e-1 2.672001354777543e-1 2.671979528545021e-1 2.671957149938797e-1
    2.671934204983066e-1 2.671910679349954e-1 2.671886558348013e-1 2.671861826915096e-1
    2.671836469608308e-1 2.671810470593851e-1 2.671783813637696e-1 2.671756482095981e-1
    2.671728458903592e-1 2.671699726564075e-1 2.671670267138764e-1 2.671640062235574e-1
    2.671609092997942e-1 2.671577340091765e-1 2.671544783695254e-1 2.671511403485034e-1
    2.671477178624608e-1 2.671442087750673e-1 2.671406108960034e-1 2.671369219796152e-1
    2.671331397235291e-1 2.671292617671403e-1 2.671252856902981e-1 2.671212090116000e-1
    2.671170291870539e-1 2.671127436083578e-1 2.671083496013265e-1 2.671038444242740e-1
    2.670992252661835e-1 2.670944892451530e-1 2.670896334064197e-1 2.670846547206692e-1
    2.670795500820487e-1 2.670743163063177e-1 2.670689501288309e-1 2.670634482025287e-1
    2.670578070958917e-1 2.670520232907120e-1 2.670460931800888e-1 2.670400130659789e-1
    2.670337791571229e-1 2.670273875664891e-1 2.670208343091096e-1 2.670141152993197e-1
    2.670072263485050e-1 2.670001631623543e-1 2.669929213382166e-1 2.669854963624485e-1
    2.669778836075825e-1 2.669700783294083e-1 2.669620756641788e-1 2.669538706254734e-1
    2.669454581012130e-1 2.669368328504637e-1 2.669279895002010e-1 2.669189225419968e-1
    2.669096263286370e-1 2.669000950706502e-1 2.668903228327363e-1 2.668803035300751e-1
    2.668700309246270e-1 2.668594986212682e-1 2.668487000638681e-1 2.668376285312744e-1
    2.668262771331420e-1 2.668146388057334e-1 2.668027063075620e-1 2.667904722149912e-1
    2.667779289176040e-1 2.667650686136045e-1 2.667518833050194e-1 2.667383647927642e-1
    2.667245046716773e-1 2.667102943253386e-1 2.666957249208254e-1 2.666807874032814e-1
    2.666654724904247e-1 2.666497706668508e-1 2.666336721782383e-1 2.666171670254162e-1
    2.666002449582374e-1 2.665828954693610e-1 2.665651077878559e-1 2.665468708726476e-1
    2.665281734058092e-1 2.665090037856721e-1 2.664893501198303e-1 2.664692002178782e-1
    2.664485415840548e-1 2.664273614096703e-1 2.664056465653645e-1 2.663833835931611e-1
    2.663605586983563e-1 2.663371577411726e-1 2.663131662282717e-1 2.662885693039871e-1
    2.662633517414100e-1 2.662374979332488e-1 2.662109918824289e-1 2.661838171925097e-1
    2.661559570578755e-1 2.661273942536606e-1 2.660981111254654e-1 2.660680895787970e-1
    2.660373110682977e-1 2.660057565866849e-1 2.659734066534494e-1 2.659402413032856e-1
    2.659062400742292e-1 2.658713819955533e-1 2.658356455753441e-1 2.657990087878094e-1
    2.657614490602731e-1 2.657229432598998e-1 2.656834676800609e-1 2.656429980264372e-1
    2.656015094027535e-1 2.655589762962263e-1 2.655153725626429e-1 2.654706714111222e-1
    2.654248453885130e-1 2.653778663634430e-1 2.653297055100011e-1 2.652803332910584e-1
    2.652297194411995e-1 2.651778329492796e-1 2.651246420405974e-1 2.650701141586400e-1
    2.650142159464617e-1 2.649569132276166e-1 2.648981709866783e-1 2.648379533493563e-1
    2.647762235621270e-1 2.647129439714715e-1 2.646480760026273e-1 2.645815801378935e-1
    2.645134158944704e-1 2.644435418018217e-1 2.643719153785553e-1 2.642984931088104e-1
    2.642232304181561e-1 2.641460816489742e-1 2.640670000353346e-1 2.639859376773550e-1
    2.639028455150240e-1 2.638176733014962e-1 2.637303695758426e-1 2.636408816352536e-1
    2.635491555066891e-1 2.634551359179538e-1 2.633587662682244e-1 2.632599885979834e-1
    2.631587435583814e-1 2.630549703800085e-1 2.629486068410759e-1 2.628395892349988e-1
    2.627278523373804e-1 2.626133293723814e-1 2.624959519784898e-1 2.623756501736661e-1
    2.622523523198792e-1 2.621259850870194e-1 2.619964734161909e-1 2.618637404823780e-1
    2.617277076564950e-1 2.615882944668055e-1 2.614454185597234e-1 2.612989956599893e-1
    2.611489395302352e-1 2.609951619299254e-1 2.608375725736947e-1 2.606760790890763e-1
    2.605105869736350e-1 2.603409995515065e-1 2.601672179293603e-1 2.599891409517876e-1
    2.598066651561322e-1 2.596196847267768e-1 2.594280914488989e-1 2.592317746617147e-1
    2.590306212112266e-1 2.588245154025004e-1 2.586133389514905e-1 2.583969709364402e-1
    2.581752877488817e-1 2.579481630442719e-1 2.577154676922903e-1 2.574770697268328e-1
    2.572328342957495e-1 2.569826236103551e-1 2.567262968947653e-1 2.564637103350998e-1
    2.561947170286100e-1 2.559191669327810e-1 2.556369068144694e-1 2.553477801991362e-1
    2.550516273202503e-1 2.547482850689228e-1 2.544375869438602e-1 2.541193630017067e-1
    2.537934398078759e-1 2.534596403879501e-1 2.531177841797567e-1 2.527676869862190e-1
    2.524091609290955e-1 2.520420144037221e-1 2.516660520348851e-1 2.512810746339512e-1
    2.508868791574002e-1 2.504832586668977e-1 2.500700022910733e-1 2.496468951891595e-1
    2.492137185166682e-1 2.487702493932868e-1 2.483162608731809e-1 2.478515219179109e-1
    2.473757973721719e-1 2.468888479425793e-1 2.463904301797351e-1 2.458802964638221e-1
    2.453581949939821e-1 2.448238697817503e-1 2.442770606488303e-1 2.437175032295051e-1
    2.431449289779971e-1 2.425590651811032e-1 2.419596349764439e-1 2.413463573766848e-1
    2.407189473000996e-1 2.400771156078645e-1 2.394205691484895e-1 2.387490108098056e-1
    2.380621395789501e-1 2.373596506108064e-1 2.366412353053736e-1 2.359065813945610e-1
    2.351553730389225e-1 2.343872909348597e-1 2.336020124328541e-1 2.327992116672914e-1
    2.319785596984804e-1 2.311397246674752e-1 2.302823719643326e-1 2.294061644104670e-1
    2.285107624557681e-1 2.275958243911868e-1 2.266610065774969e-1 2.257059636909756e-1
    2.247303489867544e-1 2.237338145806173e-1 2.227160117500405e-1 2.216765912552855e-1
    2.206152036813743e-1 2.195314998017934e-1 2.184251309647861e-1 2.172957495031080e-1
    2.161430091681317e-1 2.149665655891980e-1 2.137660767591184e-1 2.125412035467408e-1
    2.112916102374931e-1 2.100169651028202e-1 2.087169409994299e-1 2.073912159992540e-1
    2.060394740510232e-1 2.046614056743433e-1 2.032567086871371e-1 2.018250889672970e-1
    2.003662612493647e-1 1.988799499570162e-1 1.973658900720960e-1 1.958238280408919e-1
    1.942535227182834e-1 1.926547463503472e-1 1.910272855959106e-1 1.893709425874835e-1
    1.876855360318925e-1 1.859709023508462e-1 1.842268968615481e-1 1.824533949973415e-1
    1.806502935682406e-1 1.788175120610449e-1 1.769549939785642e-1 1.750627082173098e-1
    1.731406504827967e-1 1.711888447413952e-1 1.692073447074340e-1 1.671962353640010e-1
    1.651556345156257e-1 1.630856943707222e-1 1.609866031513721e-1 1.588585867276797e-1
    1.567019102735782e-1 1.545168799405900e-1 1.523038445456240e-1 1.500631972684805e-1
    1.477953773542658e-1 1.455008718154432e-1 1.431802171277467e-1 1.408340009136409e-1
    1.384628636064698e-1 1.360675000878462e-1 1.336486612902289e-1 1.312071557560175e-1
    1.287438511438324e-1 1.262596756719864e-1 1.237556194884674e-1 1.212327359560359e-1
    1.186921428403442e-1 1.161350233882349e-1 1.135626272826631e-1 1.109762714599408e-1
    1.083773407742716e-1 1.057672884938342e-1 1.031476366119482e-1 1.005199759561955e-1
    9.788596607770485e-2 9.524733490219809e-2 9.260587812385058e-2 8.996345832249887e-2
    8.732200378432536e-2 8.468350700579844e-2 8.205002286041008e-2 7.942366640764474e-2
    7.680661032360463e-2 7.420108193290204e-2 7.160935982173767e-2 6.903377001262388e-2
    6.647668168192910e-2 6.394050240238141e-2 6.142767289389673e-2 5.894066126757255e-2
    5.648195674950105e-2 5.405406287316757e-2 5.165949013167189e-2 4.930074808387282e-2
    4.698033691178493e-2 4.470073843025064e-2 4.246440655401419e-2 4.027375723191143e-2
    3.813115786296806e-2 3.603891621474953e-2 3.399926887040325e-2 3.201436923741949e-2
    3.008627515825494e-2 2.821693617060752e-2 2.640818047325117e-2 2.466170166197828e-2
    2.297904530926340e-2 2.136159547075550e-2 1.981056121156899e-2 1.832696325548433e-2
    1.691162087055311e-2 1.556513911508840e-2 1.428789657852418e-2 1.308003376201618e-2
    1.194144225375244e-2 1.087175486361458e-2 9.870336890845547e-3 8.936278706548046e-3
    8.068389839914653e-3 7.265194762799307e-3 6.524930571326115e-3 5.845546765358767e-3
    5.224707326519761e-3 4.659795292705980e-3 4.147920021329410e-3 3.685927324471297e-3
    3.270412646385123e-3 2.897737436959376e-3 2.564088435946207e-3 2.265782696026389e-3
    1.999438575873317e-3 1.761958367952498e-3 1.550508397654070e-3 1.362500181974806e-3
    1.195572609573681e-3 1.047575106866581e-3 9.165517568967571e-4 8.007263390526385e-4
    6.984882584238462e-4 6.083793338402309e-4 5.290814135773760e-4 4.594047874657375e-4
    3.982773638168651e-4 3.447345792608244e-4 2.979100093331320e-4 2.570266474974948e-4
    2.213888202664534e-4 1.903747061980666e-4 1.634294268061028e-4 1.400586778202521e-4
    1.198228697637900e-4 1.023317474677528e-4 8.723945890040836e-5 7.424004454497195e-5
    6.306331949325562e-5 5.347112142471481e-5 4.525389869599694e-5 3.822761386329154e-5
    3.223093908696919e-5 2.712272101452352e-5 2.277969389400201e-5 1.909442082708251e-5
    1.597344422083163e-5 1.333562763291638e-5 1.111067232041198e-5 9.237792891953333e-6
    7.664537522143590e-6 6.345739211922664e-6 5.242585565739470e-6 4.321795503221066e-6
    3.554892227546360e-6 2.917562633403515e-6 2.389094153242520e-6 1.951880810992182e-6
    1.590990977372589e-6 1.293790000660164e-6 1.049611521847678e-6 8.494718744727155e-7
    6.858225181061297e-7 5.523359619578673e-7 4.437211028100219e-7 3.555643312091439e-7
    2.841931533395872e-7 2.265594351367116e-7 1.801397019176407e-7 1.428502230726653e-7
    1.129748791433058e-7 8.910404987164457e-8 7.008297846679696e-8 5.496826127910915e-8
    4.299128512282501e-8 3.352758839576494e-8 2.607125858439352e-8 2.021359930438092e-8
    1.562540621113381e-8 1.204228433061423e-8 9.252520923106362e-9 7.087099122823216e-9
    5.411499423027144e-9 4.118989637103498e-9 3.125150210190672e-9 2.363421548182156e-9
    1.781494154818534e-9 1.338391530287643e-9 1.002120621422206e-9 7.477856922178152e-10
    5.560793096792999e-10 4.120791622075766e-10 3.042920415104155e-10 2.238968720685422e-10
    1.641474687906263e-10 1.199030087836058e-10 8.726024720039049e-11 6.326648866594495e-11
    4.569641582009873e-11 3.287922153026223e-11 2.356521625788043e-11 1.682329301317014e-11
    1.196241901941810e-11 8.471761155945130e-12 5.975204754224049e-12 4.196945194431645e-12
    2.935562851105107e-12 2.044570528845848e-12 1.417878453724918e-12 9.789795865114458e-13
    6.729374275680046e-13 4.604757591930941e-13 3.136379759337404e-13 2.126132794542647e-13
    1.434264529411402e-13 9.626385830217570e-14 6.426600535442860e-14 4.266069222614350e-14
    2.814357674342824e-14 1.843765776791388e-14 1.198149960154048e-14 7.709655161480358e-15
    4.898768362159371e-15 3.060369425845335e-15 1.866132544070989e-15 1.100239027523896e-15
    6.041947689814306e-16 1.417409445682269e-19 7.358831113843478e-20 3.444526265283145e-20
    0.000000000000000e0 0.000000000000000e0 0.000000000000000e0 0.000000000000000e0
    0.000000000000000e0 0.000000000000000e0 0.000000000000000e0 0.000000000000000e0
    0.000000000000000e0 0.000000000000000e0 0.000000000000000e0 0.000000000000000e0
    0.000000000000000e0 0.000000000000000e0 0.000000000000000e0 0.000000000000000e0
    0.000000000000000e0 0.000000000000000e0 0.000000000000000e0 0.000000000000000e0
    0.000000000000000e0 0.000000000000000e0 0.000000000000000e0 0.000000000000000e0
    0.000000000000000e0 0.000000000000000e0 0.000000000000000e0 0.000000000000000e0
    0.000000000000000e0 0.000000000000000e0 0.000000000000000e0 0.000000000000000e0
    0.000000000000000e0 0.000000000000000e0 0.000000000000000e0 0.000000000000000e0
    0.000000000000000e0 0.000000000000000e0 0.000000000000000e0 0.000000000000000e0
    0.000000000000000e0 0.000000000000000e0 0.000000000000000e0 0.000000000000000e0
    0.000000000000000e0 0.000000000000000e0 0.000000000000000e0 0.000000000000000e0
    0.000000000000000e0 0.000000000000000e0 0.000000000000000e0 0.000000000000000e0
    0.000000000000000e0 0.000000000000000e0 0.000000000000000e0 0.000000000000000e0
    0.000000000000000e0 0.000000000000000e0 0.000000000000000e0 0.000000000000000e0
    0.000000000000000e0 0.000000000000000e0 0.000000000000000e0 0.000000000000000e0
    0.000000000000000e0 0.000000000000000e0 0.000000000000000e0 0.000000000000000e0
    0.000000000000000e0 0.000000000000000e0 0.000000000000000e0 0.000000000000000e0
    0.000000000000000e0 0.000000000000000e0 0.000000000000000e0 0.000000000000000e0
    0.000000000000000e0 0.000000000000000e0 0.000000000000000e0 0.000000000000000e0
    0.000000000000000e0 0.000000000000000e0 0.000000000000000e0 0.000000000000000e0
    0.000000000000000e0 0.000000000000000e0 0.000000000000000e0 0.000000000000000e0
    0.000000000000000e0 0.000000000000000e0 0.000000000000000e0 0.000000000000000e0
    0.000000000000000e0 0.000000000000000e0 0.000000000000000e0 0.000000000000000e0
    0.000000000000000e0 0.000000000000000e0 0.000000000000000e0 0.000000000000000e0
    0.000000000000000e0 0.000000000000000e0 0.000000000000000e0 0.000000000000000e0
    0.000000000000000e0 0.000000000000000e0 0.000000000000000e0 0.000000000000000e0
    0.000000000000000e0 0.000000000000000e0 0.000000000000000e0 0.000000000000000e0
    0.000000000000000e0 0.000000000000000e0 0.000000000000000e0 0.000000000000000e0
    0.000000000000000e0 0.000000000000000e0 0.000000000000000e0 0.000000000000000e0
    0.000000000000000e0 0.000000000000000e0 0.000000000000000e0 0.000000000000000e0
    0.000000000000000e0 0.000000000000000e0 0.000000000000000e0 0.000000000000000e0
    0.000000000000000e0 0.000000000000000e0 0.000000000000000e0 0.000000000000000e0
    0.000000000000000e0 0.000000000000000e0 0.000000000000000e0 0.000000000000000e0
    0.000000000000000e0 0.000000000000000e0 0.000000000000000e0 0.000000000000000e0
    0.000000000000000e0 0.000000000000000e0 0.000000000000000e0 0.000000000000000e0
    0.000000000000000e0 0.000000000000000e0 0.000000000000000e0 0.000000000000000e0
    0.000000000000000e0 0.000000000000000e0 0.000000000000000e0 0.000000000000000e0
    0.000000000000000e0 0.000000000000000e0 0.000000000000000e0 0.000000000000000e0
    0.000000000000000e0 0.000000000000000e0 0.000000000000000e0 0.000000000000000e0
    0.000000000000000e0 0.000000000000000e0 0.000000000000000e0 0.000000000000000e0
    0.000000000000000e0 0.000000000000000e0 0.000000000000000e0 0.000000000000000e0
    0.000000000000000e0 0.000000000000000e0 0.000000000000000e0 0.000000000000000e0
    0.000000000000000e0 0.000000000000000e0 0.000000000000000e0 0.000000000000000e0
    0.000000000000000e0 0.000000000000000e0 0.000000000000000e0 0.000000000000000e0
    0.000000000000000e0 0.000000000000000e0 0.000000000000000e0 0.000000000000000e0
    0.000000000000000e0 0.000000000000000e0 0.000000000000000e0 0.000000000000000e0
    0.000000000000000e0 0.000000000000000e0 0.000000000000000e0 0.000000000000000e0
    0.000000000000000e0 0.000000000000000e0 0.000000000000000e0 0.000000000000000e0
    0.000000000000000e0 0.000000000000000e0 0.000000000000000e0 0.000000000000000e0
    0.000000000000000e0 0.000000000000000e0 0.000000000000000e0
    </PP_NLCC>
  <PP_LOCAL columns="4">
    -1.188616706827776e1 -1.188616939685176e1 -1.188617114953729e1 -1.188617235971764e1
    -1.188617305987382e1 -1.188617328160988e1 -1.188617305567751e1 -1.188617241200005e1
    -1.188617137969587e1 -1.188616998710122e1 -1.188616826179243e1 -1.188616639817968e1
    -1.188616639611407e1 -1.188616639556956e1 -1.188616639744473e1 -1.188614754846719e1
    -1.188613393981071e1 -1.188613394348472e1 -1.188613394245363e1 -1.188613394040978e1
    -1.188613394140521e1 -1.188613394074067e1 -1.188613394394039e1 -1.188613394551172e1
    -1.188612016406937e1 -1.188610474647831e1 -1.188610474567456e1 -1.188610475102728e1
    -1.188610474987950e1 -1.188610474907826e1 -1.188610474777273e1 -1.188610474720929e1
    -1.188610474928087e1 -1.188609242930004e1 -1.188609242443948e1 -1.188609242539148e1
    -1.188607880858920e1 -1.188607880958997e1 -1.188607881078490e1 -1.188607880641847e1
    -1.188607880623982e1 -1.188607880734621e1 -1.188607880963706e1 -1.188606795996700e1
    -1.188606796037324e1 -1.188606795974100e1 -1.188606796248685e1 -1.188606796042711e1
    -1.188606796041167e1 -1.188605612250491e1 -1.188605612066006e1 -1.188605611944442e1
    -1.188605611800489e1 -1.188605612128289e1 -1.188605611955653e1 -1.188604676283363e1
    -1.188604676204155e1 -1.188604676160314e1 -1.188604676265403e1 -1.188604676106899e1
    -1.188604676262738e1 -1.188604676146050e1 -1.188604676307532e1 -1.188604676174845e1
    -1.188603667790492e1 -1.188603667825041e1 -1.188603668084973e1 -1.188603668197985e1
    -1.188603668231821e1 -1.188602883566320e1 -1.188602883593805e1 -1.188602883361871e1
    -1.188602883338268e1 -1.188602883632991e1 -1.188602883662676e1 -1.188602883388464e1
    -1.188602883267909e1 -1.188602883218249e1 -1.188602883292117e1 -1.188602883543529e1
    -1.188602883421075e1 -1.188602883691464e1 -1.188602048729988e1 -1.188602048077953e1
    -1.188602048395239e1 -1.188602048636988e1 -1.188601417072867e1 -1.188601416855048e1
    -1.188601416612376e1 -1.188601416929860e1 -1.188601416829304e1 -1.188601417043431e1
    -1.188601416924121e1 -1.188601416803008e1 -1.188601416853884e1 -1.188601416899790e1
    -1.188601417046685e1 -1.188601416717313e1 -1.188601416710207e1 -1.188601416827550e1
    -1.188601416655765e1 -1.188601416889373e1 -1.188601416904824e1 -1.188601416842472e1
    -1.188601416852203e1 -1.188601416897447e1 -1.188600752909867e1 -1.188600753130709e1
    -1.188600753211526e1 -1.188600276212272e1 -1.188600276497628e1 -1.188600276467154e1
    -1.188600276591210e1 -1.188600276373469e1 -1.188600276412714e1 -1.188600276590686e1
    -1.188600276388045e1 -1.188600276556216e1 -1.188600276504910e1 -1.188600276613031e1
    -1.188600276395888e1 -1.188600276500268e1 -1.188600276679593e1 -1.188600276458209e1
    -1.188600276343870e1 -1.188600276268281e1 -1.188600276449139e1 -1.188600276457406e1
    -1.188600276289328e1 -1.188600276227644e1 -1.188600276483323e1 -1.188600276647801e1
    -1.188600276571421e1 -1.188600276410638e1 -1.188600276483763e1 -1.188600276639502e1
    -1.188600276480148e1 -1.188600276216612e1 -1.188600276449772e1 -1.188599781802406e1
    -1.188599781690611e1 -1.188599461965373e1 -1.188599462195799e1 -1.188599461699857e1
    -1.188599462228390e1 -1.188599461915435e1 -1.188599461930638e1 -1.188599462390619e1
    -1.188599461895339e1 -1.188599462117988e1 -1.188599462164562e1 -1.188599461762476e1
    -1.188599461944507e1 -1.188599462107814e1 -1.188599462030369e1 -1.188599462132064e1
    -1.188599462044672e1 -1.188599461925318e1 -1.188599461784956e1 -1.188599461936385e1
    -1.188599462126998e1 -1.188599461937786e1 -1.188599462118239e1 -1.188599462062927e1
    -1.188599461921161e1 -1.188599462105637e1 -1.188599462097152e1 -1.188599461974250e1
    -1.188599461987688e1 -1.188599462058294e1 -1.188599462003388e1 -1.188599462030107e1
    -1.188599462104340e1 -1.188599461990436e1 -1.188599461979011e1 -1.188599462066167e1
    -1.188599461987796e1 -1.188599461959272e1 -1.188599462054072e1 -1.188599461997185e1
    -1.188599462063755e1 -1.188599462133482e1 -1.188599462007009e1 -1.188599462167997e1
    -1.188599462064950e1 -1.188599462057194e1 -1.188599462091225e1 -1.188599461900788e1
    -1.188599462068148e1 -1.188599461997893e1 -1.188599462060767e1 -1.188599462107804e1
    -1.188599461993215e1 -1.188599462176870e1 -1.188599462169549e1 -1.188599134419937e1
    -1.188598973340718e1 -1.188598973234896e1 -1.188598973467538e1 -1.188598973616966e1
    -1.188598973395339e1 -1.188598973289593e1 -1.188598973649830e1 -1.188598973552927e1
    -1.188598973387373e1 -1.188598973491330e1 -1.188598973427849e1 -1.188598973613775e1
    -1.188598973578975e1 -1.188598973573214e1 -1.188598973411634e1 -1.188598973198501e1
    -1.188598973703389e1 -1.188598973763395e1 -1.188598973374411e1 -1.188598973290347e1
    -1.188598973601524e1 -1.188598973884945e1 -1.188598973579728e1 -1.188598973415915e1
    -1.188598973499370e1 -1.188598973515210e1 -1.188598973671608e1 -1.188598973597856e1
    -1.188598973512069e1 -1.188598973602204e1 -1.188598973550359e1 -1.188598973543422e1
    -1.188598973620368e1 -1.188598973695747e1 -1.188598973666391e1 -1.188598973556342e1
    -1.188598973680824e1 -1.188598973772373e1 -1.188598973548369e1 -1.188598973415320e1
    -1.188598973657866e1 -1.188598973797741e1 -1.188598973777291e1 -1.188598973759013e1
    -1.188598973532081e1 -1.188598973607499e1 -1.188598973806184e1 -1.188598973719696e1
    -1.188598973789240e1 -1.188598973777244e1 -1.188598973630367e1 -1.188598973699473e1
    -1.188598973789831e1 -1.188598973862527e1 -1.188598973821752e1 -1.188598973694823e1
    -1.188598973789114e1 -1.188598973896501e1 -1.188598973853987e1 -1.188598973812518e1
    -1.188598973813364e1 -1.188598973895161e1 -1.188598973967064e1 -1.188598973860304e1
    -1.188598973827164e1 -1.188598973955504e1 -1.188598973955568e1 -1.188598973902383e1
    -1.188598973990046e1 -1.188598974064077e1 -1.188598973992638e1 -1.188598973949645e1
    -1.188598974023312e1 -1.188598974074953e1 -1.188598974035738e1 -1.188598974050207e1
    -1.188598974130004e1 -1.188598974152542e1 -1.188598974142758e1 -1.188598974147484e1
    -1.188598974168317e1 -1.188598974175657e1 -1.188598974217790e1 -1.188598974249082e1
    -1.188598974269123e1 -1.188598974313327e1 -1.188598974265939e1 -1.188598974266903e1
    -1.188598974387052e1 -1.188598974425124e1 -1.188598974391277e1 -1.188598974417466e1
    -1.188598974479558e1 -1.188598974488980e1 -1.188598974478242e1 -1.188598974502751e1
    -1.188598974564104e1 -1.188598974629203e1 -1.188598974621100e1 -1.188598974642278e1
    -1.188598974704135e1 -1.188598974720431e1 -1.188598974747140e1 -1.188598974771515e1
    -1.188598974818119e1 -1.188598974869219e1 -1.188598974887679e1 -1.188598974927241e1
    -1.188598974962130e1 -1.188598974995051e1 -1.188598975046785e1 -1.188598975096978e1
    -1.188598975118172e1 -1.188598975151277e1 -1.188598975221851e1 -1.188598975261048e1
    -1.188598975301768e1 -1.188598975336378e1 -1.188598975373334e1 -1.188598975442209e1
    -1.188598975488814e1 -1.188598975537094e1 -1.188598975591221e1 -1.188598975634961e1
    -1.188598975681296e1 -1.188598975748579e1 -1.188598975809990e1 -1.188598975843784e1
    -1.188598975910232e1 -1.188598975985851e1 -1.188598976024226e1 -1.188598976079351e1
    -1.188598976159846e1 -1.188598976226848e1 -1.188598976277486e1 -1.188598976336522e1
    -1.188598976416778e1 -1.188598976486043e1 -1.188598976541766e1 -1.188598976611288e1
    -1.188598976691926e1 -1.188598976766990e1 -1.188598976834980e1 -1.188598976910799e1
    -1.188598976987006e1 -1.188598977062215e1 -1.188598977145641e1 -1.188598977219266e1
    -1.188598977304221e1 -1.188598977398550e1 -1.188598977466636e1 -1.188598977545744e1
    -1.188598977645060e1 -1.188598977735731e1 -1.188598977814342e1 -1.188598977896165e1
    -1.188598977990595e1 -1.188598978089912e1 -1.188598978182206e1 -1.188598978266613e1
    -1.188598978359978e1 -1.188598978459925e1 -1.188598978559400e1 -1.188598978652909e1
    -1.188598978743533e1 -1.188598978836224e1 -1.188598978934531e1 -1.188598979044361e1
    -1.188598979141189e1 -1.188598979226314e1 -1.188598979331970e1 -1.188598979436156e1
    -1.188598979525602e1 -1.188598979621771e1 -1.188598979722994e1 -1.188598979822014e1
    -1.188598979911876e1 -1.188598980000290e1 -1.188598980098741e1 -1.188598980192497e1
    -1.188598980281708e1 -1.188598980367163e1 -1.188598980448787e1 -1.188598980536422e1
    -1.188598980613481e1 -1.188598980688375e1 -1.188598980764487e1 -1.188598980829334e1
    -1.188598980893293e1 -1.188598980957131e1 -1.188598981009812e1 -1.188598981055425e1
    -1.188598981101609e1 -1.188598981135834e1 -1.188598981162815e1 -1.188598981185771e1
    -1.188598981195048e1 -1.188598981195521e1 -1.188598981192204e1 -1.188598981176475e1
    -1.188598981141801e1 -1.188598981097971e1 -1.188598981044274e1 -1.188598980974698e1
    -1.188598980890035e1 -1.188598980788946e1 -1.188598980669501e1 -1.188598980529937e1
    -1.188598980370756e1 -1.188598980191983e1 -1.188598979990818e1 -1.188598979764123e1
    -1.188598979510792e1 -1.188598979229104e1 -1.188598978918936e1 -1.188598978579550e1
    -1.188598978204860e1 -1.188598977793321e1 -1.188598977345260e1 -1.188598976857243e1
    -1.188598976376527e1 -1.188598975784889e1 -1.188598975054147e1 -1.188598974497098e1
    -1.188598973720282e1 -1.188598972760144e1 -1.188598972100881e1 -1.188598971300229e1
    -1.188598970379596e1 -1.188598969202101e1 -1.188598967744277e1 -1.188598966728829e1
    -1.188598965662471e1 -1.188598964073244e1 -1.188598962727649e1 -1.188598961181939e1
    -1.188598959295332e1 -1.188598957634535e1 -1.188598955584159e1 -1.188598953568770e1
    -1.188598951579205e1 -1.188598949059965e1 -1.188598946505427e1 -1.188598944034603e1
    -1.188598941370113e1 -1.188598938186400e1 -1.188598934978468e1 -1.188598931750796e1
    -1.188598928078650e1 -1.188598924394189e1 -1.188598920387789e1 -1.188598915979230e1
    -1.188598911610793e1 -1.188598906901098e1 -1.188598901664158e1 -1.188598896258287e1
    -1.188598890658918e1 -1.188598884672293e1 -1.188598878189971e1 -1.188598871376923e1
    -1.188598864333764e1 -1.188598856783702e1 -1.188598848751537e1 -1.188598840244770e1
    -1.188598831276268e1 -1.188598821867125e1 -1.188598811827080e1 -1.188598801236222e1
    -1.188598790064285e1 -1.188598778223231e1 -1.188598765795549e1 -1.188598752599525e1
    -1.188598738661927e1 -1.188598723961230e1 -1.188598708439346e1 -1.188598692103394e1
    -1.188598674776090e1 -1.188598656491292e1 -1.188598637218652e1 -1.188598616894400e1
    -1.188598595456396e1 -1.188598572831934e1 -1.188598548936694e1 -1.188598523751174e1
    -1.188598497208423e1 -1.188598469180423e1 -1.188598439653266e1 -1.188598408532301e1
    -1.188598375674246e1 -1.188598341016638e1 -1.188598304566996e1 -1.188598266094264e1
    -1.188598225524469e1 -1.188598182834725e1 -1.188598137770860e1 -1.188598090304979e1
    -1.188598040342628e1 -1.188597987655081e1 -1.188597932146520e1 -1.188597873658988e1
    -1.188597812029305e1 -1.188597747145334e1 -1.188597678822146e1 -1.188597606842698e1
    -1.188597530993810e1 -1.188597451113015e1 -1.188597367019497e1 -1.188597278465543e1
    -1.188597185214982e1 -1.188597087014809e1 -1.188596983606904e1 -1.188596874748088e1
    -1.188596760149044e1 -1.188596639482448e1 -1.188596512441343e1 -1.188596378726535e1
    -1.188596237960741e1 -1.188596089778894e1 -1.188595933821045e1 -1.188595769659778e1
    -1.188595596868930e1 -1.188595415015642e1 -1.188595223629851e1 -1.188595022207856e1
    -1.188594810236678e1 -1.188594587167020e1 -1.188594352420129e1 -1.188594105407636e1
    -1.188593845488326e1 -1.188593571986428e1 -1.188593284204943e1 -1.188592981414782e1
    -1.188592662835117e1 -1.188592327641386e1 -1.188591974989326e1 -1.188591603978204e1
    -1.188591213652772e1 -1.188590803020303e1 -1.188590371034187e1 -1.188589916595504e1
    -1.188589438546125e1 -1.188588935667062e1 -1.188588406687159e1 -1.188587850256099e1
    -1.188587264955510e1 -1.188586649312555e1 -1.188586001763270e1 -1.188585320658721e1
    -1.188584604275817e1 -1.188583850803807e1 -1.188583058337012e1 -1.188582224869011e1
    -1.188581348293571e1 -1.188580426395632e1 -1.188579456847798e1 -1.188578437205399e1
    -1.188577364894300e1 -1.188576237211974e1 -1.188575051320001e1 -1.188573804230133e1
    -1.188572492801905e1 -1.188571113738169e1 -1.188569663571845e1 -1.188568138658390e1
    -1.188566535167019e1 -1.188564849072052e1 -1.188563076142400e1 -1.188561211931156e1
    -1.188559251765714e1 -1.188557190733986e1 -1.188555023673888e1 -1.188552745161720e1
    -1.188550349495272e1 -1.188547830682813e1 -1.188545182429597e1 -1.188542398117724e1
    -1.188539470795038e1 -1.188536393154799e1 -1.188533157517226e1 -1.188529755815156e1
    -1.188526179569369e1 -1.188522419870547e1 -1.188518467357845e1 -1.188514312193718e1
    -1.188509944041885e1 -1.188505352042204e1 -1.188500524783420e1 -1.188495450275413e1
    -1.188490115921189e1 -1.188484508485136e1 -1.188478614060902e1 -1.188472418038818e1
    -1.188465905069801e1 -1.188459059028187e1 -1.188451862972694e1 -1.188444299106206e1
    -1.188436348732597e1 -1.188427992210831e1 -1.188419208908874e1 -1.188409977153938e1
    -1.188400274180013e1 -1.188390076073516e1 -1.188379357715850e1 -1.188368092723649e1
    -1.188356253385709e1 -1.188343810596667e1 -1.188330733787845e1 -1.188316990854380e1
    -1.188302548078971e1 -1.188287370052064e1 -1.188271419587818e1 -1.188254657636010e1
    -1.188237043190004e1 -1.188218533190121e1 -1.188199082421971e1 -1.188178643410281e1
    -1.188157166307686e1 -1.188134598777787e1 -1.188110885872794e1 -1.188085969905403e1
    -1.188059790314334e1 -1.188032283523521e1 -1.188003382794726e1 -1.187973018073013e1
    -1.187941115824849e1 -1.187907598868631e1 -1.187872386197229e1 -1.187835392792107e1
    -1.187796529428673e1 -1.187755702472616e1 -1.187712813666679e1 -1.187667759907443e1
    -1.187620433011743e1 -1.187570719472356e1 -1.187518500202331e1 -1.187463650267462e1
    -1.187406038606629e1 -1.187345527739300e1 -1.187281973459646e1 -1.187215224516801e1
    -1.187145122280651e1 -1.187071500392598e1 -1.186994184400586e1 -1.186912991377853e1
    -1.186827729524727e1 -1.186738197752776e1 -1.186644185250620e1 -1.186545471030715e1
    -1.186441823456359e1 -1.186332999748178e1 -1.186218745469299e1 -1.186098793988455e1
    -1.185972865920185e1 -1.185840668541323e1 -1.185701895182925e1 -1.185556224596779e1
    -1.185403320295621e1 -1.185242829866197e1 -1.185074384254247e1 -1.184897597020523e1
    -1.184712063566915e1 -1.184517360331778e1 -1.184313043953557e1 -1.184098650401760e1
    -1.183873694074361e1 -1.183637666860765e1 -1.183390037169413e1 -1.183130248919122e1
    -1.182857720493367e1 -1.182571843656617e1 -1.182271982431915e1 -1.181957471939020e1
    -1.181627617192335e1 -1.181281691857956e1 -1.180918936969284e1 -1.180538559600666e1
    -1.180139731498643e1 -1.179721587670409e1 -1.179283224929305e1 -1.178823700397203e1
    -1.178342029963790e1 -1.177837186702955e1 -1.177308099246541e1 -1.176753650116060e1
    -1.176172674013031e1 -1.175563956068889e1 -1.174926230055646e1 -1.174258176558802e1
    -1.173558421114155e1 -1.172825532310629e1 -1.172058019861552e1 -1.171254332647075e1
    -1.170412856730971e1 -1.169531913355450e1 -1.168609756918075e1 -1.167644572935346e1
    -1.166634475998175e1 -1.165577507724930e1 -1.164471634718513e1 -1.163314746534447e1
    -1.162104653667734e1 -1.160839085567130e1 -1.159515688686079e1 -1.158132024580582e1
    -1.156685568065158e1 -1.155173705438959e1 -1.153593732795283e1 -1.151942854428528e1
    -1.150218181354126e1 -1.148416729957934e1 -1.146535420792778e1 -1.144571077541403e1
    -1.142520426166136e1 -1.140380094267153e1 -1.138146610672660e1 -1.135816405285734e1
    -1.133385809214184e1 -1.130851055211328e1 -1.128208278457210e1 -1.125453517711376e1
    -1.122582716870084e1 -1.119591726962337e1 -1.116476308620918e1 -1.113232135066227e1
    -1.109854795642315e1 -1.106339799946128e1 -1.102682582592552e1 -1.098878508659255e1
    -1.094922879856763e1 -1.090810941470456e1 -1.086537890122346e1 -1.082098882401431e1
    -1.077489044412258e1 -1.072703482292020e1 -1.067737293746688e1 -1.062585580656880e1
    -1.057243462804017e1 -1.051706092766608e1 -1.045968672035654e1 -1.040026468396948e1
    -1.033874834626040e1 -1.027509228539561e1 -1.020925234443855e1 -1.014118586018520e1
    -1.007085190668663e1 -9.998211553753123e0 -9.923228140684969e0 -9.845867565419297e0
    -9.766098589222111e0 -9.683893156987782e0 -9.599226733137488e0 -9.512078653030709e0
    -9.422432489721237e0 -9.330276435803146e0 -9.235603699995334e0 -9.138412918013161e0
    -9.038708577162815e0 -8.936501453965883e0 -8.831809063977605e0 -8.724656122788213e0
    -8.615075016988452e0 -8.503106283624318e0 -8.388799096349301e0 -8.272211756089010e0
    -8.153412183548175e0 -8.032478410300227e0 -7.909499064490183e0 -7.784573846348304e0
    -7.657813987758897e0 -7.529342689064733e0 -7.399295525144860e0 -7.267820811625915e0
    -7.135079920928172e0 -7.001247536786937e0 -6.866511834999730e0 -6.731074577511974e0
    -6.595151106626288e0 -6.458970226139993e0 -6.322773956570328e0 -6.186817152247394e0
    -6.051366968814492e0 -5.916702170373027e0 -5.783112265897564e0 -5.650896464344229e0
    -5.520362436797198e0 -5.391824871805417e0 -5.265603806590538e0 -5.142022712023770e0
    -5.021406303289440e0 -4.904078041259980e0 -4.790357282252243e0 -4.680556026601327e0
    -4.574975210056627e0 -4.473900477096208e0 -4.377597372594604e0 -4.286305888611321e0
    -4.200234307286706e0 -4.119552290304835e0 -4.044383182584031e0 -3.974795527411024e0
    -3.910793840434391e0 -3.852227295322745e0 -3.798509207475825e0 -3.748977615964823e0
    -3.703539988763495e0 -3.662209807370306e0 -3.624674725126799e0 -3.590481568743856e0
    -3.559110014155539e0 -3.529976861437796e0 -3.502443665580656e0 -3.475828529491794e0
    -3.449423077815758e0 -3.422515913230600e0 -3.394424189316997e0 -3.364535286432781e0
    -3.332368042027221e0 -3.297691349219490e0 -3.260622421417493e0 -3.221634117159078e0
    -3.181649335059951e0 -3.141893706748006e0 -3.102657054327361e0 -3.063930476122410e0
    -3.025705391933497e0 -2.987973523882534e0 -2.950726878343471e0 -2.913957728886383e0
    -2.877658600181381e0 -2.841822252847591e0 -2.806441669212051e0 -2.771510039942387e0
    -2.737020751517865e0 -2.702967374503455e0 -2.669343652590383e0 -2.636143492367475e0
    -2.603360953787439e0 -2.570990241292424e0 -2.539025695564122e0 -2.507461785863729e0
    -2.476293102928393e0 -2.445514352391135e0 -2.415120348692223e0 -2.385106009451400e0
    -2.355466350270661e0 -2.326196479939235e0 -2.297291596012897e0 -2.268746980741129e0
    -2.240557997317361e0 -2.212720086427691e0 -2.185228763075844e0 -2.158079613662645e0
    -2.131268293299524e0 -2.104790523337388e0 -2.078642089092472e0 -2.052818837752622e0
    -2.027316676448379e0 -2.002131570474159e0 -1.977259541646097e0 -1.952696666783896e0
    -1.928439076305231e0 -1.904482952921961e0 -1.880824530428821e0 -1.857460092572957e0
    -1.834385972000064e0 -1.811598549270430e0 -1.789094251929167e0 -1.766869553632866e0
    -1.744920973327052e0 -1.723245074464225e0 -1.701838464261347e0 -1.680697792991921e0
    -1.659819753308884e0 -1.639201079595397e0 -1.618838547340578e0 -1.598728972538053e0
    -1.578869211105103e0 -1.559256158320779e0 -1.539886748281594e0 -1.520757953373306e0
    -1.501866783757813e0 -1.483210286873912e0 -1.464785546950758e0 -1.446589684533069e0
    -1.428619856017292e0 -1.410873253194673e0 -1.393347102804961e0 -1.376038666099850e0
    -1.358945238406219e0 -1.342064148697564e0 -1.325392759172899e0 -1.308928464837931e0
    -1.292668693091438e0 -1.276610903316484e0 -1.260752586476471e0 -1.245091264716430e0
    -1.229624490969730e0 -1.214349848570339e0 -1.199264950870946e0 -1.184367440866743e0
    -1.169654990825004e0 -1.155125301920264e0 -1.140776103874794e0 -1.126605154604359e0
    -1.112610239868788e0 -1.098789172927285e0 -1.085139794198194e0 -1.071659970922984e0
    -1.058347596834426e0 -1.045200591828674e0 -1.032216901641314e0 -1.019394497527216e0
    -1.006731375944119e0 -9.942255582400367e-1 -9.818750903442814e-1 -9.696780424622244e-1
    -9.576325087737100e-1 -9.457366071350483e-1 -9.339884787846788e-1 -9.223862880523487e-1
    -9.109282220718807e-1 -8.996124904974574e-1 -8.884373252233811e-1 -8.774009801073632e-1
    -8.665017306972205e-1 -8.557378739610543e-1 -8.451077280208622e-1 -8.346096318895176e-1
    -8.242419452111875e-1 -8.140030480050594e-1 -8.038913404124159e-1 -7.939052424469802e-1
    -7.840431937484366e-1 -7.743036533391568e-1 -7.646850993839415e-1 -7.551860289528073e-1
    -7.458049577866882e-1 -7.365404200659648e-1 -7.273909681818287e-1 -7.183551725103301e-1
    -7.094316211891360e-1 -7.006189198969447e-1 -6.919156916354808e-1 -6.833205765141411e-1
    -6.748322315371826e-1 -6.664493303935225e-1 -6.581705632491001e-1 -6.499946365417868e-1
    -6.419202727788768e-1 -6.339462103370904e-1 -6.260712032651098e-1 -6.182940210886285e-1
    -6.106134486178378e-1 -6.030282857574035e-1 -5.955373473188099e-1 -5.881394628351168e-1
    -5.808334763780532e-1 -5.736182463773984e-1 -5.664926454426748e-1 -5.594555601870391e-1
    -5.525058910534054e-1 -5.456425521427439e-1 -5.388644710444847e-1 -5.321705886690821e-1
    -5.255598590826075e-1 -5.190312493434335e-1 -5.125837393409292e-1 -5.062163216361379e-1
    -4.999280013044584e-1 -4.937177957802405e-1 -4.875847347033259e-1 -4.815278597674869e-1
    -4.755462245707208e-1 -4.696388944674287e-1 -4.638049464223924e-1 -4.580434688665790e-1
    -4.523535615547365e-1 -4.467343354247283e-1 -4.411849124586432e-1 -4.357044255455981e-1
    -4.302920183462605e-1 -4.249468451590513e-1 -4.196680707879902e-1 -4.144548704122071e-1
    -4.093064294570458e-1 -4.042219434667828e-1 -3.992006179789514e-1 -3.942416684000867e-1
    -3.893443198834985e-1 -3.845078086884455e-1 -3.797313760098267e-1 -3.750142771373230e-1
    -3.703557750134933e-1 -3.657551417369469e-1 -3.612116584485172e-1 -3.567246152189327e-1
    -3.522933109378931e-1 -3.479170532044995e-1 -3.435951582190735e-1 -3.393269506762982e-1
    -3.351117636597016e-1 -3.309489385374340e-1 -3.268378248594284e-1 -3.227777809982257e-1
    -3.187681710173903e-1 -3.148083692175676e-1 -3.108977578790691e-1 -3.070357224658680e-1
    -3.032216635195660e-1 -2.994549835714566e-1 -2.957350940700172e-1 -2.920614137751278e-1
    -2.884333686669413e-1 -2.848503918562007e-1 -2.813119234956569e-1 -2.778174106925881e-1
    -2.743663074224194e-1 -2.709580744434151e-1 -2.675921795579981e-1 -2.642680961172274e-1
    -2.609853051041604e-1 -2.577432935759957e-1 -2.545415549618335e-1 -2.513795889835036e-1
    -2.482569015773880e-1 -2.451730048172252e-1 -2.421274168378924e-1 -2.391196617600315e-1
    -2.361492696158146e-1 -2.332157762754249e-1 -2.303187233745581e-1 -2.274576582428065e-1
    -2.246321338329206e-1 -2.218417086509647e-1 -2.190859466873260e-1 -2.163644173485896e-1
    -2.136766953902619e-1 -2.110223608503166e-1 -2.084009989835835e-1 -2.058122001969366e-1
    -2.032555599852976e-1 -2.007306788684338e-1 -1.982371623285321e-1 -1.957746207485617e-1
    -1.933426693513898e-1 -1.909409281396617e-1 -1.885690218364287e-1 -1.862265798265034e-1
    -1.839132360985580e-1 -1.816286291879271e-1 -1.793724021201323e-1 -1.771442023551056e-1
    -1.749436817320986e-1 -1.727704964152886e-1 -1.706243068400481e-1 -1.685047776598882e-1
    -1.664115776940641e-1 -1.643443798758209e-1 -1.623028612012953e-1 -1.602867026790401e-1
    -1.582955892801835e-1 -1.563292098892076e-1 -1.543872572553304e-1 -1.524694279445032e-1
    -1.505754222919940e-1 -1.487049443555650e-1 -1.468577018692349e-1 -1.450334061976054e-1
    -1.432317722907678e-1 -1.414525186397578e-1 -1.396953672325720e-1 -1.379600435107294e-1
    -1.362462763263665e-1 -1.345537978998756e-1 -1.328823437780582e-1 -1.312316527928067e-1
    -1.296014670202975e-1 -1.279915317406859e-1 -1.264015953983102e-1 -1.248314095623813e-1
    -1.232807288881677e-1 -1.217493110786598e-1 -1.202369168467083e-1 -1.187433098776387e-1
    -1.172682567923225e-1 -1.158115271107136e-1 -1.143728932158367e-1 -1.129521303182177e-1
    -1.115490164207643e-1 -1.101633322840748e-1 -1.087948613921833e-1 -1.074433899187297e-1
    -1.061087066935456e-1 -1.047906031696627e-1 -1.034888733907231e-1 -1.022033139588002e-1
    -1.009337240026180e-1 -9.967990514616194e-2 -9.844166147768581e-2 -9.721879951909667e-2
    -9.601112819572512e-2 -9.481845880647072e-2 -9.364060499431403e-2 -9.247738271720143e-2
    -9.132861021928509e-2 -9.019410800252462e-2 -8.907369879864119e-2 -8.796720754141653e-2
    -8.687446133934127e-2 -8.579528944859776e-2 -8.472952324638200e-2 -8.367699620455749e-2
    -8.263754386363170e-2 -8.161100380706230e-2 -8.059721563587669e-2 -7.959602094361006e-2
    -7.860726329155563e-2 -7.763078818431780e-2 -7.666644304567526e-2 -7.571407719473770e-2
    -7.477354182240285e-2 -7.384468996810610e-2 -7.292737649685464e-2 -7.202145807655311e-2
    -7.112679315560487e-2 -7.024324194079528e-2 -6.937066637545035e-2 -6.850893011786196e-2
    -6.765789851998726e-2 -6.681743860640742e-2 -6.598741905355068e-2 -6.516771016917373e-2
    -6.435818387209520e-2 -6.355871367218466e-2 -6.276917465059659e-2 -6.198944344025234e-2
    -6.121939820656435e-2 -6.045891862839769e-2 -5.970788587927166e-2
    </PP_LOCAL>
  <PP_NONLOCAL>
    <PP_BETA.1 index="1" label="3S" angular_momentum="0" cutoff_radius_index="827" cutoff_radius="1.500000000000e0" ultrasoft_cutoff_radius="1.900000000000e0">
      -1.418464865201534e-3 -1.436306957689967e-3 -1.454373476109281e-3 -1.472667243391514e-3
      -1.491254274291467e-3 -1.510459716328774e-3 -1.528393990883802e-3 -1.548226308085396e-3
      -1.567013504058354e-3 -1.586858658048231e-3 -1.607815313740098e-3 -1.627611275605037e-3
      -1.647957548333825e-3 -1.668510804245158e-3 -1.689704838470196e-3 -1.711623939002113e-3
      -1.731735211597095e-3 -1.754667195119909e-3 -1.776289398514083e-3 -1.798494076956373e-3
      -1.821455611381209e-3 -1.844056273919067e-3 -1.867790102213561e-3 -1.891004549513752e-3
      -1.915036263251895e-3 -1.939006950358431e-3 -1.963000921827435e-3 -1.988630415241180e-3
      -2.012430540134828e-3 -2.038515916977382e-3 -2.063393806646117e-3 -2.090107865209881e-3
      -2.116283415536271e-3 -2.142561344633325e-3 -2.169923105784101e-3 -2.196745036442383e-3
      -2.224687216758059e-3 -2.252883382774820e-3 -2.280877888224005e-3 -2.310087706428379e-3
      -2.338348233661546e-3 -2.368483935816096e-3 -2.397587440383090e-3 -2.427819314432832e-3
      -2.458887817826768e-3 -2.489435786901687e-3 -2.520549544512108e-3 -2.552645380471549e-3
      -2.584264911108462e-3 -2.617527836853442e-3 -2.649844909399127e-3 -2.683771869857170e-3
      -2.717072003962792e-3 -2.751307412521546e-3 -2.786041685491180e-3 -2.820829907909347e-3
      -2.856198258525469e-3 -2.892626052071448e-3 -2.928579571793051e-3 -2.965500180905960e-3
      -3.003198892352826e-3 -3.040560785993986e-3 -3.079026692720688e-3 -3.117502019581539e-3
      -3.156993585577982e-3 -3.196541022624269e-3 -3.236810747161827e-3 -3.277309844781212e-3
      -3.318671872464440e-3 -3.360469831046451e-3 -3.402884271561673e-3 -3.445479976872564e-3
      -3.488848979007102e-3 -3.532860103265627e-3 -3.577240531621406e-3 -3.622228696317240e-3
      -3.667836305139394e-3 -3.713906242984722e-3 -3.760378248394898e-3 -3.807919958185142e-3
      -3.855595904964205e-3 -3.904399719795475e-3 -3.953468841956211e-3 -4.002976123986415e-3
      -4.053358808637980e-3 -4.104584019778707e-3 -4.156002326551941e-3 -4.208302515312013e-3
      -4.261442490428991e-3 -4.314963801773219e-3 -4.369022221223537e-3 -4.424198827305514e-3
      -4.480045695404397e-3 -4.535847637612511e-3 -4.593293933295845e-3 -4.651020254596152e-3
      -4.709404558671342e-3 -4.768753632208314e-3 -4.828581089235357e-3 -4.889549169200497e-3
      -4.950837912475118e-3 -5.013240647895943e-3 -5.076350395360803e-3 -5.139996970834321e-3
      -5.204754025767118e-3 -5.270366909437097e-3 -5.336517060864989e-3 -5.403503341234495e-3
      -5.471891817409613e-3 -5.540363682243918e-3 -5.610196796192053e-3 -5.680633435978827e-3
      -5.752293399378406e-3 -5.824465166570243e-3 -5.897835307246453e-3 -5.971945720857025e-3
      -6.047085958949008e-3 -6.123279090048602e-3 -6.199928142174715e-3 -6.278272870781559e-3
      -6.356911495868838e-3 -6.437151121129236e-3 -6.518118128695547e-3 -6.600048748328925e-3
      -6.682985342726711e-3 -6.767216081769678e-3 -6.852210756272661e-3 -6.938509694449156e-3
      -7.025636866163172e-3 -7.114180274733693e-3 -7.203465330079317e-3 -7.294296454558035e-3
      -7.385814623830134e-3 -7.478842894949724e-3 -7.572878849146724e-3 -7.668121092654843e-3
      -7.764609408185075e-3 -7.862330688088260e-3 -7.961124732465702e-3 -8.061355504662664e-3
      -8.162688431332912e-3 -8.265383710747603e-3 -8.369416836437702e-3 -8.474563154721531e-3
      -8.581275033536423e-3 -8.689174195127434e-3 -8.798403692933372e-3 -8.909181680880975e-3
      -9.021113024017209e-3 -9.134662099899170e-3 -9.249507989079186e-3 -9.365890833588033e-3
      -9.483738331183982e-3 -9.602988175531790e-3 -9.723812952691759e-3 -9.846031573050942e-3
      -9.969967159713926e-3 -1.009532497224719e-2 -1.022228705634814e-2 -1.035097772702853e-2
      -1.048118249789369e-2 -1.061284917776156e-2 -1.074651261953575e-2 -1.088164393312382e-2
      -1.101853313527643e-2 -1.115708689232421e-2 -1.129734319299718e-2 -1.143955943770542e-2
      -1.158347121527669e-2 -1.172914732539711e-2 -1.187668686303962e-2 -1.202613524174882e-2
      -1.217728311071412e-2 -1.233052563311158e-2 -1.248560852158001e-2 -1.264258399616478e-2
      -1.280165103871106e-2 -1.296276166441824e-2 -1.312574836732522e-2 -1.329093261018746e-2
      -1.345798329779373e-2 -1.362735637327285e-2 -1.379867865161974e-2 -1.397225137370567e-2
      -1.414803650986185e-2 -1.432595426254957e-2 -1.450619548555948e-2 -1.468865263773133e-2
      -1.487339919455424e-2 -1.506057705961800e-2 -1.524987247376757e-2 -1.544179941950873e-2
      -1.563598774178987e-2 -1.583263339974392e-2 -1.603183765606510e-2 -1.623348119271662e-2
      -1.643766554477853e-2 -1.664439129319734e-2 -1.685383436487894e-2 -1.706575142192994e-2
      -1.728040906016648e-2 -1.749781556394874e-2 -1.771789588412789e-2 -1.794074718760856e-2
      -1.816642806597318e-2 -1.839489668024034e-2 -1.862623809447373e-2 -1.886062623514742e-2
      -1.909782385402888e-2 -1.933804502135474e-2 -1.958130810131535e-2 -1.982757102508008e-2
      -2.007698372468289e-2 -2.032953382242893e-2 -2.058525181146749e-2 -2.084418659209917e-2
      -2.110632957290661e-2 -2.137186803515195e-2 -2.164064433982205e-2 -2.191288528600009e-2
      -2.218848165010216e-2 -2.246760387825344e-2 -2.275022934475809e-2 -2.303634400693917e-2
      -2.332612718439462e-2 -2.361957606399986e-2 -2.391659288835295e-2 -2.421748623187551e-2
      -2.452206139122883e-2 -2.483052856248635e-2 -2.514287997458019e-2 -2.545910226700259e-2
      -2.577936534634755e-2 -2.610362528827022e-2 -2.643196496343625e-2 -2.676442387469654e-2
      -2.710106947511757e-2 -2.744198884297945e-2 -2.778717558922098e-2 -2.813666108314138e-2
      -2.849058164831924e-2 -2.884896791614214e-2 -2.921182666473957e-2 -2.957926436527777e-2
      -2.995131050339297e-2 -3.032805341628261e-2 -3.070954543251898e-2 -3.109583041433801e-2
      -3.148695810807685e-2 -3.188301727537132e-2 -3.228403846478570e-2 -3.269011520426928e-2
      -3.310129992423325e-2 -3.351766663351257e-2 -3.393928096530342e-2 -3.436618097364235e-2
      -3.479846066680342e-2 -3.523615805837331e-2 -3.567937618161242e-2 -3.612815878036886e-2
      -3.658257896502645e-2 -3.704272952819919e-2 -3.750869123930155e-2 -3.798044269750227e-2
      -3.845821345623694e-2 -3.894195422100384e-2 -3.943179099326870e-2 -3.992775420599258e-2
      -4.042997705885281e-2 -4.093854970388082e-2 -4.145346517010472e-2 -4.197489108999511e-2
      -4.250286418847725e-2 -4.303749556869629e-2 -4.357881179423122e-2 -4.412695977296672e-2
      -4.468202096417174e-2 -4.524404224134876e-2 -4.581314703618893e-2 -4.638938108556761e-2
      -4.697288032126773e-2 -4.756374001839101e-2 -4.816199488322047e-2 -4.876779671695789e-2
      -4.938122757209306e-2 -5.000233545990516e-2 -5.063130282519179e-2 -5.126814551986236e-2
      -5.191301795082346e-2 -5.256599160061985e-2 -5.322719936647523e-2 -5.389668931894223e-2
      -5.457463801155136e-2 -5.526106747418124e-2 -5.595617848889669e-2 -5.666000924295266e-2
      -5.737267773517891e-2 -5.809434662583164e-2 -5.882505399595289e-2 -5.956498365912742e-2
      -6.031419649291658e-2 -6.107285124213321e-2 -6.184103588757315e-2 -6.261890238211065e-2
      -6.340653556108158e-2 -6.420407404183220e-2 -6.501163666796728e-2 -6.582937998855809e-2
      -6.665738887265377e-2 -6.749581250832628e-2 -6.834480695615070e-2 -6.920446237751888e-2
      -7.007490969416113e-2 -7.095633715877816e-2 -7.184884992095980e-2 -7.275256543539799e-2
      -7.366765988499560e-2 -7.459426213264306e-2 -7.553252202725952e-2 -7.648258710298119e-2
      -7.744459116819979e-2 -7.841870185610887e-2 -7.940505774201107e-2 -8.040382905039861e-2
      -8.141514760798476e-2 -8.243921027816675e-2 -8.347611192011170e-2 -8.452610365002844e-2
      -8.558927270574168e-2 -8.666582193956030e-2 -8.775591255992000e-2 -8.885969949236562e-2
      -8.997738716314924e-2 -9.110912752455919e-2 -9.225508830773959e-2 -9.341548022518300e-2
      -9.459045580225661e-2 -9.578022550334140e-2 -9.698494037152622e-2 -9.820480254604908e-2
      -9.944001949718697e-2 -1.006907705463653e-1 -1.019572463578251e-1 -1.032396588929573e-1
      -1.045381878353504e-1 -1.058530652756077e-1 -1.071844700385158e-1 -1.085326196490835e-1
      -1.098977248013868e-1 -1.112799881091894e-1 -1.126796448492548e-1 -1.140969059178942e-1
      -1.155319938335093e-1 -1.169851215950228e-1 -1.184565252691100e-1 -1.199464331339709e-1
      -1.214550968310788e-1 -1.229826992747179e-1 -1.245295501247610e-1 -1.260958202332219e-1
      -1.276818156309412e-1 -1.292877374603628e-1 -1.309138656280988e-1 -1.325604388265487e-1
      -1.342277154452999e-1 -1.359159698692413e-1 -1.376254456027925e-1 -1.393564297679589e-1
      -1.411091648666098e-1 -1.428839503462670e-1 -1.446810598420687e-1 -1.465007572013240e-1
      -1.483433431630420e-1 -1.502091009609814e-1 -1.520983174679993e-1 -1.540112860044554e-1
      -1.559483209096270e-1 -1.579097022447327e-1 -1.598957617140738e-1 -1.619067744529677e-1
      -1.639430888484517e-1 -1.660050083974516e-1 -1.680928481945310e-1 -1.702069498215633e-1
      -1.723476163216603e-1 -1.745152103115479e-1 -1.767100667289514e-1 -1.789325021373859e-1
      -1.811829022050082e-1 -1.834615844437750e-1 -1.857689161411953e-1 -1.881052575074924e-1
      -1.904709764209534e-1 -1.928664383821800e-1 -1.952920196623691e-1 -1.977480915262075e-1
      -2.002350456513292e-1 -2.027532670974854e-1 -2.053031442853681e-1 -2.078850756064661e-1
      -2.104994737966841e-1 -2.131467326848933e-1 -2.158272719638830e-1 -2.185415134582503e-1
      -2.212898658607807e-1 -2.240727777537558e-1 -2.268906648087667e-1 -2.297439770822322e-1
      -2.326331532408474e-1 -2.355586494830953e-1 -2.385209180751895e-1 -2.415204201863822e-1
      -2.445576243770533e-1 -2.476329977463936e-1 -2.507470305461792e-1 -2.539002033230995e-1
      -2.570929982179617e-1 -2.603259294342883e-1 -2.635994844131329e-1 -2.669141867829333e-1
      -2.702705378622002e-1 -2.736690706745937e-1 -2.771103141781089e-1 -2.805947993183456e-1
      -2.841230717954188e-1 -2.876956787416391e-1 -2.913131744196409e-1 -2.949761285219200e-1
      -2.986851044242304e-1 -3.024406851438035e-1 -3.062434431321476e-1 -3.100939867919838e-1
      -3.139928968303167e-1 -3.179407960399788e-1 -3.219382871506612e-1 -3.259859962237065e-1
      -3.300845494474008e-1 -3.342345869082164e-1 -3.384367522419574e-1 -3.426917012079738e-1
      -3.470000847200287e-1 -3.513625859889897e-1 -3.557798717501504e-1 -3.602526375115956e-1
      -3.647815643152639e-1 -3.693673692765223e-1 -3.740107533625825e-1 -3.787124455405878e-1
      -3.834731702573703e-1 -3.882936641016976e-1 -3.931746781254733e-1 -3.981169727071697e-1
      -4.031213071148688e-1 -4.081884566666020e-1 -4.133192175139094e-1 -4.185143711162988e-1
      -4.237747295904750e-1 -4.291011062080083e-1 -4.344943271506706e-1 -4.399552252297844e-1
      -4.454846432880651e-1 -4.510834421338856e-1 -4.567524864340850e-1 -4.624926472336734e-1
      -4.683048209675952e-1 -4.741899006821787e-1 -4.801487958175185e-1 -4.861824265327042e-1
      -4.922917298182923e-1 -4.984776403206537e-1 -5.047411210309529e-1 -5.110831314702535e-1
      -5.175046546838111e-1 -5.240066790438664e-1 -5.305902091700481e-1 -5.372562526482671e-1
      -5.440058437134785e-1 -5.508400193043692e-1 -5.577598269007380e-1 -5.647663391125284e-1
      -5.718606258850645e-1 -5.790437853543691e-1 -5.863169134520437e-1 -5.936811343334880e-1
      -6.011375734666959e-1 -6.086873778289121e-1 -6.163317047050687e-1 -6.240717288863465e-1
      -6.319086312838785e-1 -6.398436190902926e-1 -6.478779004505899e-1 -6.560127064915515e-1
      -6.642492860880327e-1 -6.725888933828355e-1 -6.810328022074501e-1 -6.895823050611076e-1
      -6.982387043083540e-1 -7.070033205663364e-1 -7.158774894664191e-1 -7.248625639967741e-1
      -7.339599069608242e-1 -7.431709077391709e-1 -7.524969635664782e-1 -7.619394937460644e-1
      -7.714999268801160e-1 -7.811797151133444e-1 -7.909803287628822e-1 -8.009032466431238e-1
      -8.109499716887264e-1 -8.211220258986598e-1 -8.314209432158922e-1 -8.418482759570345e-1
      -8.524056029867975e-1 -8.630945086473519e-1 -8.739166035388680e-1 -8.848735164918926e-1
      -8.959668901935952e-1 -9.071983925217266e-1 -9.185697068533207e-1 -9.300825339911448e-1
      -9.417385979250344e-1 -9.535396407106177e-1 -9.654874203931092e-1 -9.775837228597052e-1
      -9.898303454614252e-1 -1.002229109401986e0 -1.014781857427234e0 -1.027490450146215e0
      -1.040356771383127e0 -1.053382722478395e0 -1.066570227887201e0 -1.079921232936139e0
      -1.093437703009052e0 -1.107121625771248e0 -1.120975009278018e0 -1.134999885361313e0
      -1.149198304301697e0 -1.163572341133118e0 -1.178124092627418e0 -1.192855673124376e0
      -1.207769225123260e0 -1.222866913232332e0 -1.238150916952364e0 -1.253623447103530e0
      -1.269286733823887e0 -1.285143027032619e0 -1.301194604782983e0 -1.317443763037298e0
      -1.333892824459726e0 -1.350544132163510e0 -1.367400053669479e0 -1.384462979269195e0
      -1.401735322927765e0 -1.419219518007234e0 -1.436918029079083e0 -1.454833335596758e0
      -1.472967942085721e0 -1.491324383162414e0 -1.509905206103321e0 -1.528712988691336e0
      -1.547750327777056e0 -1.567019847811751e0 -1.586524190053523e0 -1.606266024264381e0
      -1.626248039750215e0 -1.646472948597838e0 -1.666943485576966e0 -1.687662411143892e0
      -1.708632501708265e0 -1.729856560643196e0 -1.751337410053770e0 -1.773077897164225e0
      -1.795080886337833e0 -1.817349266487996e0 -1.839885944981041e0 -1.862693848826775e0
      -1.885775929115498e0 -1.909135153193623e0 -1.932774507496590e0 -1.956696999338413e0
      -1.980905652970415e0 -2.005403511484081e0 -2.030193634682016e0 -2.055279099640408e0
      -2.080662997849739e0 -2.106348440400303e0 -2.132338548478792e0 -2.158636460891157e0
      -2.185245328706601e0 -2.212168314691772e0 -2.239408596097603e0 -2.266969357010352e0
      -2.294853795859924e0 -2.323065116519579e0 -2.351606532546193e0 -2.380481263778088e0
      -2.409692535728070e0 -2.439243578146024e0 -2.469137624078991e0 -2.499377908108420e0
      -2.529967665143263e0 -2.560910129163664e0 -2.592208530001639e0 -2.623866095442440e0
      -2.655886044711720e0 -2.688271590138429e0 -2.721025934163681e0 -2.754152265673416e0
      -2.787653762303270e0 -2.821533582865993e0 -2.855794867906811e0 -2.890440738187693e0
      -2.925474289039935e0 -2.960898591327637e0 -2.996716684448756e0 -3.032931578008138e0
      -3.069546244775869e0 -3.106563620328722e0 -3.143986597373279e0 -3.181818023756121e0
      -3.220060698862242e0 -3.258717367604762e0 -3.297790719488339e0 -3.337283381754141e0
      -3.377197916156726e0 -3.417536814028620e0 -3.458302491391942e0 -3.499497284581321e0
      -3.541123441018870e0 -3.583183120681850e0 -3.625678383261225e0 -3.668611185722305e0
      -3.711983374510309e0 -3.755796680226435e0 -3.800052706526740e0 -3.844752928806521e0
      -3.889898680019581e0 -3.935491147044431e0 -3.981531358408837e0 -4.028020178227720e0
      -4.074958295383563e0 -4.122346212064675e0 -4.170184235182971e0 -4.218472464730812e0
      -4.267210780145803e0 -4.316398831692370e0 -4.366036023701778e0 -4.416121503065380e0
      -4.466654143653891e0 -4.517632532556588e0 -4.569054952602587e0 -4.620919366270741e0
      -4.673223397379989e0 -4.725964313523358e0 -4.779139003869345e0 -4.832743961378570e0
      -4.886775257853595e0 -4.941228522014507e0 -4.996098915440408e0 -5.051381105278386e0
      -5.107069236261742e0 -5.163156903876022e0 -5.219637121620924e0 -5.276502288953390e0
      -5.333744157137680e0 -5.391353791751614e0 -5.449321536145781e0 -5.507636967586979e0
      -5.566288856901622e0 -5.625265121297739e0 -5.684552775087342e0 -5.744137879793842e0
      -5.804005489601739e0 -5.864139591672124e0 -5.924523047793903e0 -5.985137528608313e0
      -6.045963445010951e0 -6.106979875443050e0 -6.168164490871064e0 -6.229493471418760e0
      -6.290941422173146e0 -6.352481282553965e0 -6.414084228387846e0 -6.475719573357125e0
      -6.537354660014923e0 -6.598954747005898e0 -6.660482890568607e0 -6.721899817946680e0
      -6.783163795015579e0 -6.844230487760601e0 -6.905052813603874e0 -6.965580788183360e0
      -7.025761363870764e0 -7.085538257890423e0 -7.144851775285048e0 -7.203638623258257e0
      -7.261831713716123e0 -7.319359962050967e0 -7.376148073347402e0 -7.432116323936189e0
      -7.487180329143246e0 -7.541250809275624e0 -7.594233341062644e0 -7.646028106842795e0
      -7.696529632551076e0 -7.745626521371214e0 -7.793201179517155e0 -7.839129539598140e0
      -7.883280776888000e0 -7.925517024742181e0 -7.965693088994392e0 -8.003656160381240e0
      -8.039245533420420e0 -8.072292324965566e0 -8.102619204381966e0 -8.130040132248194e0
      -8.154360110557466e0 -8.175374954295453e0 -8.192871079969997e0 -8.206625323062202e0
      -8.216404784927178e0 -8.221966715112625e0 -8.223058440087843e0 -8.219417334987426e0
      -8.210770857677730e0 -8.196836642879237e0 -8.177322670173659e0 -8.151927514779711e0
      -8.120340686166351e0 -8.082243071440232e0 -8.037307488548443e0 -7.985199363608071e0
      -7.925577543333208e0 -7.858095254492142e0 -7.782401224491803e0 -7.698140972660038e0
      -7.604958288510076e0 -7.502496910568571e0 -7.390402411654410e0 -7.268324313867449e0
      -7.135918434181960e0 -6.992849480862134e0 -6.838793901884706e0 -6.673443001526710e0
      -6.496506324636666e0 -6.307715318351185e0 -6.106827266604515e0 -5.893629501867995e0
      -5.667943882619220e0 -5.429631530086535e0 -5.178597806875175e0 -4.914797520441098e0
      -4.638240319343588e0 -4.348996253575699e0 -4.047201456066755e0 -3.733063895546369e0
      -3.406869144374038e0 -3.068986094077399e0 -2.719872541286854e0 -2.360080558028027e0
      -1.990261549316141e0 -1.611170889823899e0 -1.223672022462949e0 -8.287398911500539e-1
      -4.274635682846970e-1 -2.104793208782496e-2 3.891857596151063e-1 8.018005619444537e-1
      1.215245962546128e0 1.627861597922323e0 2.037882726307789e0 2.443447621124335e0
      2.842607031934062e0 3.233335849925467e0 3.613547097265837e0 3.981108323880079e0
      4.333860478038055e0 4.669639258944700e0 4.986298921160241e0 5.281738438819680e0
      5.553929860613023e0 5.800948619120371e0 6.021005454728941e0 6.212479512997723e0
      6.373952069455623e0 6.504240193124175e0 6.602429545493658e0 6.667905356646592e0
      6.700380475993701e0 6.699919268955545e0 6.666955968127921e0 6.602305997518400e0
      6.507168683454529e0 6.383119718139985e0 6.232091776297561e0 6.056341755810247e0
      5.858403348698204e0 5.641023980522617e0 5.407085674859543e0 5.159510149805991e0
      4.901149405334398e0 4.634664358950340e0 4.362395662450316e0 4.086232792401804e0
      3.807489851442496e0 3.526799218600089e0 3.244037312798690e0 2.958300160428225e0
      2.667950189306920e0 2.370759583508575e0 2.064179581872077e0 1.745768117093419e0
      1.413820368096090e0 1.068166514262172e0 7.119137738258838e-1 3.470385914378790e-1
      3.321912585243176e-2 -5.287532456526569e-3 -1.592236267630169e-3 -2.072921087273220e-3
      -2.130867813950273e-3 -2.221395906244628e-3 -2.298760059872917e-3 -2.366909280989320e-3
      -2.424887971186790e-3 -2.472253549773824e-3 -2.508545080229763e-3 -2.533341172687829e-3
      -2.546259493918712e-3 -2.546962719871856e-3 -2.535163110269774e-3 -2.510627713243938e-3
      -2.473183464475146e-3 -2.422721743766254e-3 -2.359203641394729e-3 -2.282664527324927e-3
      -2.193218527023994e-3 -2.091063343770481e-3 -1.976483898607904e-3 -1.849856759570192e-3
      -1.711653134512531e-3 -1.562442114083287e-3 -1.402893147226815e-3 -1.233777749080931e-3
      -1.055970817050273e-3 -8.704506540249985e-4 0.000000000000000e0 0.000000000000000e0
      0.000000000000000e0 0.000000000000000e0 0.000000000000000e0 0.000000000000000e0
      0.000000000000000e0 0.000000000000000e0 0.000000000000000e0 0.000000000000000e0
      0.000000000000000e0 0.000000000000000e0 0.000000000000000e0 0.000000000000000e0
      0.000000000000000e0 0.000000000000000e0 0.000000000000000e0 0.000000000000000e0
      0.000000000000000e0 0.000000000000000e0 0.000000000000000e0 0.000000000000000e0
      0.000000000000000e0 0.000000000000000e0 0.000000000000000e0 0.000000000000000e0
      0.000000000000000e0 0.000000000000000e0 0.000000000000000e0 0.000000000000000e0
      0.000000000000000e0 0.000000000000000e0 0.000000000000000e0 0.000000000000000e0
      0.000000000000000e0 0.000000000000000e0 0.000000000000000e0 0.000000000000000e0
      0.000000000000000e0 0.000000000000000e0 0.000000000000000e0 0.000000000000000e0
      0.000000000000000e0 0.000000000000000e0 0.000000000000000e0 0.000000000000000e0
      0.000000000000000e0 0.000000000000000e0 0.000000000000000e0 0.000000000000000e0
      0.000000000000000e0 0.000000000000000e0 0.000000000000000e0 0.000000000000000e0
      0.000000000000000e0 0.000000000000000e0 0.000000000000000e0 0.000000000000000e0
      0.000000000000000e0 0.000000000000000e0 0.000000000000000e0 0.000000000000000e0
      0.000000000000000e0 0.000000000000000e0 0.000000000000000e0 0.000000000000000e0
      0.000000000000000e0 0.000000000000000e0 0.000000000000000e0 0.000000000000000e0
      0.000000000000000e0 0.000000000000000e0 0.000000000000000e0 0.000000000000000e0
      0.000000000000000e0 0.000000000000000e0 0.000000000000000e0 0.000000000000000e0
      0.000000000000000e0 0.000000000000000e0 0.000000000000000e0 0.000000000000000e0
      0.000000000000000e0 0.000000000000000e0 0.000000000000000e0 0.000000000000000e0
      0.000000000000000e0 0.000000000000000e0 0.000000000000000e0 0.000000000000000e0
      0.000000000000000e0 0.000000000000000e0 0.000000000000000e0 0.000000000000000e0
      0.000000000000000e0 0.000000000000000e0 0.000000000000000e0 0.000000000000000e0
      0.000000000000000e0 0.000000000000000e0 0.000000000000000e0 0.000000000000000e0
      0.000000000000000e0 0.000000000000000e0 0.000000000000000e0 0.000000000000000e0
      0.000000000000000e0 0.000000000000000e0 0.000000000000000e0 0.000000000000000e0
      0.000000000000000e0 0.000000000000000e0 0.000000000000000e0 0.000000000000000e0
      0.000000000000000e0 0.000000000000000e0 0.000000000000000e0 0.000000000000000e0
      0.000000000000000e0 0.000000000000000e0 0.000000000000000e0 0.000000000000000e0
      0.000000000000000e0 0.000000000000000e0 0.000000000000000e0 0.000000000000000e0
      0.000000000000000e0 0.000000000000000e0 0.000000000000000e0 0.000000000000000e0
      0.000000000000000e0 0.000000000000000e0 0.000000000000000e0 0.000000000000000e0
      0.000000000000000e0 0.000000000000000e0 0.000000000000000e0 0.000000000000000e0
      0.000000000000000e0 0.000000000000000e0 0.000000000000000e0 0.000000000000000e0
      0.000000000000000e0 0.000000000000000e0 0.000000000000000e0 0.000000000000000e0
      0.000000000000000e0 0.000000000000000e0 0.000000000000000e0 0.000000000000000e0
      0.000000000000000e0 0.000000000000000e0 0.000000000000000e0 0.000000000000000e0
      0.000000000000000e0 0.000000000000000e0 0.000000000000000e0 0.000000000000000e0
      0.000000000000000e0 0.000000000000000e0 0.000000000000000e0 0.000000000000000e0
      0.000000000000000e0 0.000000000000000e0 0.000000000000000e0 0.000000000000000e0
      0.000000000000000e0 0.000000000000000e0 0.000000000000000e0 0.000000000000000e0
      0.000000000000000e0 0.000000000000000e0 0.000000000000000e0 0.000000000000000e0
      0.000000000000000e0 0.000000000000000e0 0.000000000000000e0 0.000000000000000e0
      0.000000000000000e0 0.000000000000000e0 0.000000000000000e0 0.000000000000000e0
      0.000000000000000e0 0.000000000000000e0 0.000000000000000e0 0.000000000000000e0
      0.000000000000000e0 0.000000000000000e0 0.000000000000000e0 0.000000000000000e0
      0.000000000000000e0 0.000000000000000e0 0.000000000000000e0 0.000000000000000e0
      0.000000000000000e0 0.000000000000000e0 0.000000000000000e0 0.000000000000000e0
      0.000000000000000e0 0.000000000000000e0 0.000000000000000e0 0.000000000000000e0
      0.000000000000000e0 0.000000000000000e0 0.000000000000000e0 0.000000000000000e0
      0.000000000000000e0 0.000000000000000e0 0.000000000000000e0 0.000000000000000e0
      0.000000000000000e0 0.000000000000000e0 0.000000000000000e0 0.000000000000000e0
      0.000000000000000e0 0.000000000000000e0 0.000000000000000e0 0.000000000000000e0
      0.000000000000000e0 0.000000000000000e0 0.000000000000000e0 0.000000000000000e0
      0.000000000000000e0 0.000000000000000e0 0.000000000000000e0 0.000000000000000e0
      0.000000000000000e0 0.000000000000000e0 0.000000000000000e0 0.000000000000000e0
      0.000000000000000e0 0.000000000000000e0 0.000000000000000e0 0.000000000000000e0
      0.000000000000000e0 0.000000000000000e0 0.000000000000000e0 0.000000000000000e0
      0.000000000000000e0 0.000000000000000e0 0.000000000000000e0 0.000000000000000e0
      0.000000000000000e0 0.000000000000000e0 0.000000000000000e0 0.000000000000000e0
      0.000000000000000e0 0.000000000000000e0 0.000000000000000e0 0.000000000000000e0
      0.000000000000000e0 0.000000000000000e0 0.000000000000000e0 0.000000000000000e0
      0.000000000000000e0 0.000000000000000e0 0.000000000000000e0 0.000000000000000e0
      0.000000000000000e0 0.000000000000000e0 0.000000000000000e0 0.000000000000000e0
      0.000000000000000e0 0.000000000000000e0 0.000000000000000e0 0.000000000000000e0
      0.000000000000000e0 0.000000000000000e0 0.000000000000000e0 0.000000000000000e0
      0.000000000000000e0 0.000000000000000e0 0.000000000000000e0 0.000000000000000e0
      0.000000000000000e0 0.000000000000000e0 0.000000000000000e0 0.000000000000000e0
      0.000000000000000e0 0.000000000000000e0 0.000000000000000e0 0.000000000000000e0
      0.000000000000000e0 0.000000000000000e0 0.000000000000000e0 0.000000000000000e0
      0.000000000000000e0 0.000000000000000e0 0.000000000000000e0
      </PP_BETA.1>
    <PP_BETA.2 index="2" label="3S" angular_momentum="0" cutoff_radius_index="827" cutoff_radius="1.500000000000e0" ultrasoft_cutoff_radius="1.900000000000e0">
      1.320078437186671e-3 1.336682980518716e-3 1.353496383320403e-3 1.370521272721442e-3
      1.387753424047668e-3 1.405586933043343e-3 1.422505845009738e-3 1.440835679466804e-3
      1.458495800257425e-3 1.476931263950694e-3 1.496173806951913e-3 1.514694875711945e-3
      1.533654232464103e-3 1.552854007478616e-3 1.572525874658226e-3 1.592735938200736e-3
      1.611831054228349e-3 1.632840839202367e-3 1.653130593896861e-3 1.673814961331035e-3
      1.695059680181370e-3 1.716235687376472e-3 1.738131078770851e-3 1.759824352101466e-3
      1.782104044080018e-3 1.804461399704657e-3 1.826881360393627e-3 1.850493561821539e-3
      1.872952860195759e-3 1.897035210299863e-3 1.920397849279154e-3 1.945048403003189e-3
      1.969440000112379e-3 1.994004278649951e-3 2.019342922193147e-3 2.044436654201362e-3
      2.070340464116166e-3 2.096537609896432e-3 2.122674858043481e-3 2.149723809103730e-3
      2.176238154092342e-3 2.204093294482203e-3 2.231360294422113e-3 2.259486579613259e-3
      2.288234766963634e-3 2.316787886864443e-3 2.345785532608770e-3 2.375545102609414e-3
      2.405123948587703e-3 2.435859859149980e-3 2.466087831666292e-3 2.497514716098610e-3
      2.528609606791605e-3 2.560483917505580e-3 2.592765617287470e-3 2.625202289869895e-3
      2.658143543706981e-3 2.691925815792686e-3 2.725507033693634e-3 2.759825373626013e-3
      2.794811629001182e-3 2.829691470492815e-3 2.865420271284079e-3 2.901307808093012e-3
      2.937977802640173e-3 2.974826749675291e-3 3.012294495510340e-3 3.050028868159496e-3
      3.088498212209271e-3 3.127379460567225e-3 3.166805599582846e-3 3.206514039700401e-3
      3.246842583302505e-3 3.287791304165222e-3 3.329097999172251e-3 3.370963822548030e-3
      3.413412370200597e-3 3.456281848621849e-3 3.499610229643197e-3 3.543796220248695e-3
      3.588209216469517e-3 3.633564295569074e-3 3.679222897311674e-3 3.725366393431408e-3
      3.772247553524981e-3 3.819851448053170e-3 3.867762683984564e-3 3.916419549183693e-3
      3.965831567050007e-3 4.015654390346752e-3 4.066026649551663e-3 4.117318230171966e-3
      4.169232510034544e-3 4.221309174783487e-3 4.274673731699083e-3 4.328407495582505e-3
      4.382770251331481e-3 4.437977733355629e-3 4.493696682774072e-3 4.550371545472109e-3
      4.607464460799276e-3 4.665509281310197e-3 4.724213327219479e-3 4.783516716724339e-3
      4.843747338916883e-3 4.904770167822956e-3 4.966373461423947e-3 5.028742148121660e-3
      5.092289498005076e-3 5.156089233170096e-3 5.221058396877144e-3 5.286630370603019e-3
      5.353272884173668e-3 5.420493693002918e-3 5.488732882029765e-3 5.557725483343468e-3
      5.627645246783811e-3 5.698526876866103e-3 5.769955513842576e-3 5.842765503174649e-3
      5.916045581329092e-3 5.990639914072313e-3 6.065993363740953e-3 6.142257140767022e-3
      6.219461951700493e-3 6.297810517138503e-3 6.376934021670301e-3 6.457228058762954e-3
      6.538342784111554e-3 6.620707915791471e-3 6.703838830046703e-3 6.788328866486753e-3
      6.873544478108777e-3 6.960099648051230e-3 7.047619258000484e-3 7.136256897435322e-3
      7.226041335841044e-3 7.316977129859930e-3 7.408943143294128e-3 7.502192412011286e-3
      7.596515607928678e-3 7.692086997772197e-3 7.788880661788098e-3 7.886771314237597e-3
      7.986049546328569e-3 8.086474219293505e-3 8.188146610115320e-3 8.291209973627433e-3
      8.395416305715282e-3 8.501066122777614e-3 8.607965505459759e-3 8.716263172089123e-3
      8.825924641146260e-3 8.936914417455565e-3 9.049349026378529e-3 9.163119385238794e-3
      9.278430363502050e-3 9.395108053356727e-3 9.513270268091507e-3 9.633003451411827e-3
      9.754176883973468e-3 9.876758346416597e-3 1.000109981813146e-2 1.012687486124184e-2
      1.025425971350762e-2 1.038322264211111e-2 1.051377133413137e-2 1.064608670183992e-2
      1.078002068239113e-2 1.091558638924747e-2 1.105289869765246e-2 1.119196581435574e-2
      1.133265905509842e-2 1.147525787012604e-2 1.161958407293649e-2 1.176569446666935e-2
      1.191371563216844e-2 1.206362703052000e-2 1.221532726626031e-2 1.236902830197913e-2
      1.252453414803010e-2 1.268213062691308e-2 1.284159347604359e-2 1.300312686030697e-2
      1.316670923864285e-2 1.333229543988528e-2 1.350002486957790e-2 1.366982709827487e-2
      1.384176618697459e-2 1.401593293291561e-2 1.419213941226370e-2 1.437072697302868e-2
      1.455145329852944e-2 1.473447216861472e-2 1.491984153716521e-2 1.510750670382426e-2
      1.529752680242830e-2 1.548991989295555e-2 1.568482297082654e-2 1.588205376699924e-2
      1.608182842323953e-2 1.628413991269897e-2 1.648896028838622e-2 1.669635932120297e-2
      1.690637854561089e-2 1.711901507559094e-2 1.733431789890570e-2 1.755242237124930e-2
      1.777317938456030e-2 1.799673565032894e-2 1.822312368215809e-2 1.845231559661670e-2
      1.868442641358725e-2 1.891945447620095e-2 1.915743373450931e-2 1.939840697014252e-2
      1.964238289102283e-2 1.988948591479065e-2 2.013963420430929e-2 2.039298037878022e-2
      2.064947218348822e-2 2.090922989718781e-2 2.117224069060124e-2 2.143852838687588e-2
      2.170820310971275e-2 2.198128676748589e-2 2.225772574818532e-2 2.253773145597225e-2
      2.282119440548885e-2 2.310825910298619e-2 2.339894052336842e-2 2.369323994194696e-2
      2.399127859583028e-2 2.429305408596599e-2 2.459861711078619e-2 2.490802181361739e-2
      2.522131687925114e-2 2.553858468561078e-2 2.585982657778447e-2 2.618507986624111e-2
      2.651444932175278e-2 2.684797410146185e-2 2.718566776870270e-2 2.752762197512484e-2
      2.787386641940421e-2 2.822447595712799e-2 2.857950572437095e-2 2.893899468422820e-2
      2.930299742522795e-2 2.967158342180079e-2 3.004479487490037e-2 3.042270776214975e-2
      3.080537315630906e-2 3.119286067067417e-2 3.158522653116382e-2 3.198251838940607e-2
      3.238481253551374e-2 3.279215369283217e-2 3.320462973492463e-2 3.362228685179791e-2
      3.404519289700604e-2 3.447342672298380e-2 3.490706454986495e-2 3.534610647235440e-2
      3.579073052292758e-2 3.624091989960851e-2 3.669677733429589e-2 3.715834892657161e-2
      3.762573868997463e-2 3.809902981584214e-2 3.857823605305222e-2 3.906349584839403e-2
      3.955484811462775e-2 4.005239648846116e-2 4.055617250848512e-2 4.106630351132145e-2
      4.158286113186816e-2 4.210590308345747e-2 4.263553296971037e-2 4.317180549811599e-2
      4.371483534560774e-2 4.426470841135408e-2 4.482147427963574e-2 4.538525808181926e-2
      4.595613900213086e-2 4.653417504733226e-2 4.711951296523087e-2 4.771218825419768e-2
      4.831233346351166e-2 4.892001910432972e-2 4.953536375414547e-2 5.015842330503513e-2
      5.078934714524320e-2 5.142817347070051e-2 5.207506978460021e-2 5.273008402007675e-2
      5.339332933359392e-2 5.406494045796811e-2 5.474497379014083e-2 5.543358080516002e-2
      5.613083523932772e-2 5.683686976243845e-2 5.755177805279298e-2 5.827569141747045e-2
      5.900869741414038e-2 5.975092375658865e-2 6.050248089197677e-2 6.126350518294145e-2
      6.203409068141385e-2 6.281436625061954e-2 6.360447487394825e-2 6.440450781908570e-2
      6.521459262164052e-2 6.603488470875964e-2 6.686549540653447e-2 6.770653829084441e-2
      6.855816729668969e-2 6.942050641305288e-2 7.029369478848205e-2 7.117786797885337e-2
      7.207315548047804e-2 7.297970845666599e-2 7.389765921616203e-2 7.482716100619791e-2
      7.576834662736466e-2 7.672138319546052e-2 7.768638172561669e-2 7.866354901792838e-2
      7.965298724862074e-2 8.065487669410281e-2 8.166936703283854e-2 8.269660953136205e-2
      8.373678320707146e-2 8.479003623697356e-2 8.585652869754350e-2 8.693644567581076e-2
      8.802993890745663e-2 8.913719627581813e-2 9.025836685665315e-2 9.139363729791189e-2
      9.254319400380945e-2 9.370720779983280e-2 9.488585869841549e-2 9.607933858605888e-2
      9.728782224149736e-2 9.851151496055538e-2 9.975059271028581e-2 1.010052548354658e-1
      1.022756964919185e-1 1.035621109880683e-1 1.048647093928647e-1 1.061836927731944e-1
      1.075192663976388e-1 1.088716308713409e-1 1.102410059723871e-1 1.116276015115720e-1
      1.130316492140124e-1 1.144533318753987e-1 1.158929193785255e-1 1.173505894097673e-1
      1.188266102181966e-1 1.203211820384062e-1 1.218345569633865e-1 1.233669619688176e-1
      1.249186363921366e-1 1.264898321095732e-1 1.280807819289851e-1 1.296917464356215e-1
      1.313229596992909e-1 1.329746936966958e-1 1.346472029731290e-1 1.363407389657307e-1
      1.380555760550598e-1 1.397919794998240e-1 1.415502176816644e-1 1.433305640178995e-1
      1.451333062460089e-1 1.469587125887188e-1 1.488070830535929e-1 1.506786846485928e-1
      1.525738314231226e-1 1.544928101543478e-1 1.564359161840535e-1 1.584034630287854e-1
      1.603957400762395e-1 1.624130773313458e-1 1.644557875258701e-1 1.665241712171107e-1
      1.686185792666214e-1 1.707393142756414e-1 1.728867161408610e-1 1.750611195459080e-1
      1.772628667059378e-1 1.794922981547777e-1 1.817497641157286e-1 1.840356117656283e-1
      1.863502038658056e-1 1.886938990412472e-1 1.910670609479895e-1 1.934700598102339e-1
      1.959032771327379e-1 1.983670840527148e-1 2.008618684800763e-1 2.033880233486363e-1
      2.059459316317265e-1 2.085360073790736e-1 2.111586410103556e-1 2.138142496684290e-1
      2.165032430526268e-1 2.192260446871492e-1 2.219830767079762e-1 2.247747683225662e-1
      2.276015562458041e-1 2.304638766156188e-1 2.333621833040104e-1 2.362969254084342e-1
      2.392685535759728e-1 2.422775433560932e-1 2.453243518657480e-1 2.484094639253378e-1
      2.515333504005280e-1 2.546965048961645e-1 2.578994200130157e-1 2.611425919108052e-1
      2.644265282652734e-1 2.677517389536960e-1 2.711187406949401e-1 2.745280629331704e-1
      2.779802318707389e-1 2.814757894644765e-1 2.850152719362891e-1 2.885992419675392e-1
      2.922282451012330e-1 2.959028577679712e-1 2.996236440322173e-1 3.033911868935925e-1
      3.072060696805252e-1 3.110688892265341e-1 3.149802446489638e-1 3.189407472776244e-1
      3.229510062330248e-1 3.270116541520959e-1 3.311233160738468e-1 3.352866376112576e-1
      3.395022568621841e-1 3.437708390768113e-1 3.480930404301539e-1 3.524695384327385e-1
      3.569010098269722e-1 3.613881419926464e-1 3.659316344141223e-1 3.705321950585807e-1
      3.751905343585287e-1 3.799073746763870e-1 3.846834565397187e-1 3.895195119396423e-1
      3.944162966611834e-1 3.993745696912029e-1 4.043951012835684e-1 4.094786691357598e-1
      4.146260602971871e-1 4.198380765458722e-1 4.251155249502748e-1 4.304592202256980e-1
      4.358699961991298e-1 4.413486882953523e-1 4.468961448830261e-1 4.525132255314311e-1
      4.582008032674144e-1 4.639597530681600e-1 4.697909720310728e-1 4.756953577351267e-1
      4.816738271440791e-1 4.877273038353723e-1 4.938567254686996e-1 5.000630351174692e-1
      5.063471970290705e-1 5.127101805632734e-1 5.191529658614701e-1 5.256765529842306e-1
      5.322819440754571e-1 5.389701634150601e-1 5.457422378712554e-1 5.525992163811012e-1
      5.595421527125454e-1 5.665721188863445e-1 5.736901973857621e-1 5.808974863050533e-1
      5.881950920354972e-1 5.955841418983364e-1 6.030657687181282e-1 6.106411236768079e-1
      6.183113750149927e-1 6.260776975892112e-1 6.339412846104839e-1 6.419033452917527e-1
      6.499651001924125e-1 6.581277860348570e-1 6.663926543900789e-1 6.747609727705017e-1
      6.832340197462628e-1 6.918130960318703e-1 7.004995126099544e-1 7.092945995857112e-1
      7.181996981910695e-1 7.272161702526185e-1 7.363453944727533e-1 7.455887601791733e-1
      7.549476778913158e-1 7.644235756877071e-1 7.740178952902610e-1 7.837320950274053e-1
      7.935676570025379e-1 8.035260717663517e-1 8.136088528901698e-1 8.238175319457579e-1
      8.341536544903324e-1 8.446187891078772e-1 8.552145201558615e-1 8.659424492181277e-1
      8.768041993247301e-1 8.878014111683035e-1 8.989357423285254e-1 9.102088746282730e-1
      9.216225038448300e-1 9.331783476271609e-1 9.448781443296323e-1 9.567236504172431e-1
      9.687166441264498e-1 9.808589220179718e-1 9.931523023235680e-1 1.005598623985750e0
      1.018199745731120e0 1.030957548278237e0 1.043873932158269e0 1.056950821314422e0
      1.070190158442870e0 1.083593910064755e0 1.097164064215018e0 1.110902627945622e0
      1.124811634326530e0 1.138893138488948e0 1.153149213050414e0 1.167581959133602e0
      1.182193498058009e0 1.196985972489514e0 1.211961551285869e0 1.227122423213232e0
      1.242470803126208e0 1.258008927025735e0 1.273739055925052e0 1.289663473782470e0
      1.305784488961944e0 1.322104431085067e0 1.338625659030699e0 1.355350550448546e0
      1.372281507997335e0 1.389420963583182e0 1.406771366173932e0 1.424335194127259e0
      1.442114947659751e0 1.460113154378140e0 1.478332362411228e0 1.496775148289512e0
      1.515444111007783e0 1.534341874197326e0 1.553471086202067e0 1.572834422371241e0
      1.592434578368847e0 1.612274277783514e0 1.632356266638037e0 1.652683317810665e0
      1.673258225869028e0 1.694083811795372e0 1.715162919515743e0 1.736498416311876e0
      1.758093196054400e0 1.779950174167935e0 1.802072289517323e0 1.824462505572587e0
      1.847123808109302e0 1.870059206406715e0 1.893271731762975e0 1.916764438440231e0
      1.940540401287818e0 1.964602719483477e0 1.988954510486261e0 2.013598914755679e0
      2.038539092516584e0 2.063778223305714e0 2.089319508048562e0 2.115166163742918e0
      2.141321428791964e0 2.167788557128781e0 2.194570820742646e0 2.221671507909714e0
      2.249093922513911e0 2.276841383207797e0 2.304917222913148e0 2.333324787461920e0
      2.362067435054216e0 2.391148535142017e0 2.420571466633662e0 2.450339618900035e0
      2.480456387728955e0 2.510925176235421e0 2.541749392944933e0 2.572932449160049e0
      2.604477760585546e0 2.636388742120824e0 2.668668808173191e0 2.701321371585911e0
      2.734349839691353e0 2.767757614915465e0 2.801548089887364e0 2.835724648479216e0
      2.870290660822046e0 2.905249483024236e0 2.940604453010304e0 2.976358889041957e0
      3.012516087131206e0 3.049079316478074e0 3.086051818832273e0 3.123436803440024e0
      3.161237444401976e0 3.199456877322002e0 3.238098195115380e0 3.277164445068208e0
      3.316658621885804e0 3.356583668248296e0 3.396942465510933e0 3.437737831582649e0
      3.478972514879956e0 3.520649190161273e0 3.562770450124536e0 3.605338803907832e0
      3.648356666367611e0 3.691826355030602e0 3.735750080475618e0 3.780129941362341e0
      3.824967915879268e0 3.870265852774832e0 3.916025464290659e0 3.962248316722238e0
      4.008935819922100e0 4.056089219621549e0 4.103709584438052e0 4.151797796373076e0
      4.200354538125690e0 4.249380281648460e0 4.298875274348597e0 4.348839525393081e0
      4.399272791162569e0 4.450174560302724e0 4.501544035938983e0 4.553380120614011e0
      4.605681395852619e0 4.658446104035415e0 4.711672128249864e0 4.765356969709652e0
      4.819497724872297e0 4.874091062316319e0 4.929133196186948e0 4.984619858995607e0
      5.040546273261755e0 5.096907120358272e0 5.153696509381058e0 5.210907941196464e0
      5.268534273910346e0 5.326567683675556e0 5.384999623544621e0 5.443820781071336e0
      5.503021032946666e0 5.562589394908944e0 5.622513972316099e0 5.682781905401541e0
      5.743379311113602e0 5.804291222636088e0 5.865501525630879e0 5.926992888733460e0
      5.988746692620889e0 6.050742953503306e0 6.112960241517664e0 6.175375597163628e0
      6.237964440088440e0 6.300700474437290e0 6.363555588796824e0 6.426499750418463e0
      6.489500893479841e0 6.552524802888087e0 6.615534989497755e0 6.678492561144150e0
      6.741356086988247e0 6.804081453163301e0 6.866621713889639e0 6.928926935245425e0
      6.990944029370642e0 7.052616584965445e0 7.113884687462008e0 7.174684734689096e0
      7.234949241784625e0 7.294606642948459e0 7.353581082335671e0 7.411792201377976e0
      7.469154917273006e0 7.525579197064411e0 7.580969824544514e0 7.635226164662235e0
      7.688241921237191e0 7.739904893071353e0 7.790096728397234e0 7.838692676410128e0
      7.885561342945600e0 7.930564444686096e0 7.973556571017680e0 8.014384951526305e0
      8.052889230784334e0 8.088901258733694e0 8.122244892469414e0 8.152735819214190e0
      8.180181400715936e0 8.204380543351785e0 8.225123602790411e0 8.242192320493983e0
      8.255359806681836e0 8.264390568474360e0 8.269040593361087e0 8.269057495328044e0
      8.264180727450761e0 8.254141873841448e0 8.238665025391073e0 8.217467249842844e0
      8.190259165554282e0 8.156745627413313e0 8.116626536698496e0 8.069597782396535e0
      8.015352326314236e0 7.953581443371128e0 7.883976121939810e0 7.806228642179779e0
      7.720034334403973e0 7.625093532610823e0 7.521113726271356e0 7.407811922045429e0
      7.284917217441443e0 7.152173594089337e0 7.009342928695357e0 6.856208226356753e0
      6.692577068863866e0 6.518285274758004e0 6.333200759826408e0 6.137227586264633e0
      5.930310179223291e0 5.712437689842247e0 5.483648475290188e0 5.244034659928811e0
      4.993746737110744e0 4.732998163422316e0 4.462069888824388e0 4.181314760335045e0
      3.891161728035510e0 3.592119773752902e0 3.284781476265389e0 2.969826118053907e0
      2.648022230289198e0 2.320229467790989e0 1.987399698767288e0 1.650577187344352e0
      1.310897746566850e0 9.695867333223784e-1 6.279557618416600e-1 2.873980093979522e-1
      -5.061800160562235e-2 -3.845562545767365e-1 -7.128228202852949e-1 -1.033777242704138e0
      -1.345745790671725e0 -1.647036597290692e0 -1.935956681936316e0 -2.210830806773391e0
      -2.470022065897577e0 -2.711954057372521e0 -2.935134415972080e0 -3.138179412364718e0
      -3.319839249809260e0 -3.479023587968389e0 -3.614826740742189e0 -3.726551883693483e0
      -3.813733501918644e0 -3.876157215915343e0 -3.913876003523973e0 -3.927221765501172e0
      -3.916811100132865e0 -3.883544108412255e0 -3.828595062590133e0 -3.753393805585867e0
      -3.659596895964973e0 -3.549047725399621e0 -3.423725175640150e0 -3.285680881542111e0
      -3.136965804213627e0 -2.979547696368826e0 -2.815222110865421e0 -2.645520939355636e0
      -2.471624072114929e0 -2.294281621936995e0 -2.113756304404500e0 -1.929797925887964e0
      -1.741664502509931e0 -1.548207231599104e0 -1.348039322142664e0 -1.139810796482281e0
      -9.226194082435320e-1 -6.965357415250926e-1 -4.637486856258401e-1 -2.257232071787122e-1
      -2.145685827382559e-2 3.571996193846698e-3 1.180278960963581e-3 1.501208067600011e-3
      1.546807021866201e-3 1.612872494210360e-3 1.669643217913979e-3 1.719646605794147e-3
      1.762224560219921e-3 1.797053929686645e-3 1.823801714926350e-3 1.842163132024177e-3
      1.851861715088823e-3 1.852653608589148e-3 1.844330945383112e-3 1.826725640336334e-3
      1.799713091973055e-3 1.763215538938132e-3 1.717205860124506e-3 1.661710913902947e-3
      1.596814801865336e-3 1.522662348130381e-3 1.439461773399109e-3 1.347487877251202e-3
      1.247084244449379e-3 1.138665579652488e-3 1.022719503869267e-3 8.998077991229565e-4
      7.705673491481163e-4 6.357101701596410e-4 0.000000000000000e0 0.000000000000000e0
      0.000000000000000e0 0.000000000000000e0 0.000000000000000e0 0.000000000000000e0
      0.000000000000000e0 0.000000000000000e0 0.000000000000000e0 0.000000000000000e0
      0.000000000000000e0 0.000000000000000e0 0.000000000000000e0 0.000000000000000e0
      0.000000000000000e0 0.000000000000000e0 0.000000000000000e0 0.000000000000000e0
      0.000000000000000e0 0.000000000000000e0 0.000000000000000e0 0.000000000000000e0
      0.000000000000000e0 0.000000000000000e0 0.000000000000000e0 0.000000000000000e0
      0.000000000000000e0 0.000000000000000e0 0.000000000000000e0 0.000000000000000e0
      0.000000000000000e0 0.000000000000000e0 0.000000000000000e0 0.000000000000000e0
      0.000000000000000e0 0.000000000000000e0 0.000000000000000e0 0.000000000000000e0
      0.000000000000000e0 0.000000000000000e0 0.000000000000000e0 0.000000000000000e0
      0.000000000000000e0 0.000000000000000e0 0.000000000000000e0 0.000000000000000e0
      0.000000000000000e0 0.000000000000000e0 0.000000000000000e0 0.000000000000000e0
      0.000000000000000e0 0.000000000000000e0 0.000000000000000e0 0.000000000000000e0
      0.000000000000000e0 0.000000000000000e0 0.000000000000000e0 0.000000000000000e0
      0.000000000000000e0 0.000000000000000e0 0.000000000000000e0 0.000000000000000e0
      0.000000000000000e0 0.000000000000000e0 0.000000000000000e0 0.000000000000000e0
      0.000000000000000e0 0.000000000000000e0 0.000000000000000e0 0.000000000000000e0
      0.000000000000000e0 0.000000000000000e0 0.000000000000000e0 0.000000000000000e0
      0.000000000000000e0 0.000000000000000e0 0.000000000000000e0 0.000000000000000e0
      0.000000000000000e0 0.000000000000000e0 0.000000000000000e0 0.000000000000000e0
      0.000000000000000e0 0.000000000000000e0 0.000000000000000e0 0.000000000000000e0
      0.000000000000000e0 0.000000000000000e0 0.000000000000000e0 0.000000000000000e0
      0.000000000000000e0 0.000000000000000e0 0.000000000000000e0 0.000000000000000e0
      0.000000000000000e0 0.000000000000000e0 0.000000000000000e0 0.000000000000000e0
      0.000000000000000e0 0.000000000000000e0 0.000000000000000e0 0.000000000000000e0
      0.000000000000000e0 0.000000000000000e0 0.000000000000000e0 0.000000000000000e0
      0.000000000000000e0 0.000000000000000e0 0.000000000000000e0 0.000000000000000e0
      0.000000000000000e0 0.000000000000000e0 0.000000000000000e0 0.000000000000000e0
      0.000000000000000e0 0.000000000000000e0 0.000000000000000e0 0.000000000000000e0
      0.000000000000000e0 0.000000000000000e0 0.000000000000000e0 0.000000000000000e0
      0.000000000000000e0 0.000000000000000e0 0.000000000000000e0 0.000000000000000e0
      0.000000000000000e0 0.000000000000000e0 0.000000000000000e0 0.000000000000000e0
      0.000000000000000e0 0.000000000000000e0 0.000000000000000e0 0.000000000000000e0
      0.000000000000000e0 0.000000000000000e0 0.000000000000000e0 0.000000000000000e0
      0.000000000000000e0 0.000000000000000e0 0.000000000000000e0 0.000000000000000e0
      0.000000000000000e0 0.000000000000000e0 0.000000000000000e0 0.000000000000000e0
      0.000000000000000e0 0.000000000000000e0 0.000000000000000e0 0.000000000000000e0
      0.000000000000000e0 0.000000000000000e0 0.000000000000000e0 0.000000000000000e0
      0.000000000000000e0 0.000000000000000e0 0.000000000000000e0 0.000000000000000e0
      0.000000000000000e0 0.000000000000000e0 0.000000000000000e0 0.000000000000000e0
      0.000000000000000e0 0.000000000000000e0 0.000000000000000e0 0.000000000000000e0
      0.000000000000000e0 0.000000000000000e0 0.000000000000000e0 0.000000000000000e0
      0.000000000000000e0 0.000000000000000e0 0.000000000000000e0 0.000000000000000e0
      0.000000000000000e0 0.000000000000000e0 0.000000000000000e0 0.000000000000000e0
      0.000000000000000e0 0.000000000000000e0 0.000000000000000e0 0.000000000000000e0
      0.000000000000000e0 0.000000000000000e0 0.000000000000000e0 0.000000000000000e0
      0.000000000000000e0 0.000000000000000e0 0.000000000000000e0 0.000000000000000e0
      0.000000000000000e0 0.000000000000000e0 0.000000000000000e0 0.000000000000000e0
      0.000000000000000e0 0.000000000000000e0 0.000000000000000e0 0.000000000000000e0
      0.000000000000000e0 0.000000000000000e0 0.000000000000000e0 0.000000000000000e0
      0.000000000000000e0 0.000000000000000e0 0.000000000000000e0 0.000000000000000e0
      0.000000000000000e0 0.000000000000000e0 0.000000000000000e0 0.000000000000000e0
      0.000000000000000e0 0.000000000000000e0 0.000000000000000e0 0.000000000000000e0
      0.000000000000000e0 0.000000000000000e0 0.000000000000000e0 0.000000000000000e0
      0.000000000000000e0 0.000000000000000e0 0.000000000000000e0 0.000000000000000e0
      0.000000000000000e0 0.000000000000000e0 0.000000000000000e0 0.000000000000000e0
      0.000000000000000e0 0.000000000000000e0 0.000000000000000e0 0.000000000000000e0
      0.000000000000000e0 0.000000000000000e0 0.000000000000000e0 0.000000000000000e0
      0.000000000000000e0 0.000000000000000e0 0.000000000000000e0 0.000000000000000e0
      0.000000000000000e0 0.000000000000000e0 0.000000000000000e0 0.000000000000000e0
      0.000000000000000e0 0.000000000000000e0 0.000000000000000e0 0.000000000000000e0
      0.000000000000000e0 0.000000000000000e0 0.000000000000000e0 0.000000000000000e0
      0.000000000000000e0 0.000000000000000e0 0.000000000000000e0 0.000000000000000e0
      0.000000000000000e0 0.000000000000000e0 0.000000000000000e0 0.000000000000000e0
      0.000000000000000e0 0.000000000000000e0 0.000000000000000e0 0.000000000000000e0
      0.000000000000000e0 0.000000000000000e0 0.000000000000000e0 0.000000000000000e0
      0.000000000000000e0 0.000000000000000e0 0.000000000000000e0 0.000000000000000e0
      0.000000000000000e0 0.000000000000000e0 0.000000000000000e0 0.000000000000000e0
      0.000000000000000e0 0.000000000000000e0 0.000000000000000e0 0.000000000000000e0
      0.000000000000000e0 0.000000000000000e0 0.000000000000000e0 0.000000000000000e0
      0.000000000000000e0 0.000000000000000e0 0.000000000000000e0 0.000000000000000e0
      0.000000000000000e0 0.000000000000000e0 0.000000000000000e0
      </PP_BETA.2>
    <PP_BETA.3 index="3" label="3P" angular_momentum="1" cutoff_radius_index="827" cutoff_radius="1.500000000000e0" ultrasoft_cutoff_radius="1.900000000000e0">
      4.471055554972335e-7 4.584240864340111e-7 4.700291473411131e-7 4.819279917590388e-7
      4.941280568525331e-7 5.066369680590465e-7 5.194625438548858e-7 5.326128006420126e-7
      5.460959577585573e-7 5.599204426161714e-7 5.740948959674308e-7 5.886281773065872e-7
      6.035293704070398e-7 6.188077889989864e-7 6.344729825908122e-7 6.505347424378317e-7
      6.670031076621516e-7 6.838883715274374e-7 7.012010878725433e-7 7.189520777080017e-7
      7.371524359795043e-7 7.558135385026010e-7 7.749470490729548e-7 7.945649267565908e-7
      8.146794333647039e-7 8.353031411176758e-7 8.564489405031345e-7 8.781300483329126e-7
      9.003600160039912e-7 9.231527379685579e-7 9.465224604184876e-7 9.704837901896743e-7
      9.950517038917738e-7 1.020241557269071e-6 1.046069094798318e-6 1.072550459529535e-6
      1.099702203175939e-6 1.127541296459301e-6 1.156085139717195e-6 1.185351573778773e-6
      1.215358891115850e-6 1.246125847276299e-6 1.277671672606866e-6 1.310016084272758e-6
      1.343179298581514e-6 1.377182043618841e-6 1.412045572204330e-6 1.447791675175172e-6
      1.484442695006108e-6 1.522021539774219e-6 1.560551697477198e-6 1.600057250714098e-6
      1.640562891737751e-6 1.682093937888194e-6 1.724676347416854e-6 1.768336735711253e-6
      1.813102391930505e-6 1.859001296061902e-6 1.906062136409315e-6 1.954314327524307e-6
      2.003788028591150e-6 2.054514162277305e-6 2.106524434061072e-6 2.159851352048520e-6
      2.214528247292121e-6 2.270589294623695e-6 2.328069534014787e-6 2.387004892477773e-6
      2.447432206521375e-6 2.509389245174689e-6 2.572914733593998e-6 2.638048377267253e-6
      2.704830886831258e-6 2.773304003517121e-6 2.843510525239864e-6 2.915494333348474e-6
      2.989300420053132e-6 3.064974916546790e-6 3.142565121838634e-6 3.222119532317472e-6
      3.303687872063501e-6 3.387321123927450e-6 3.473071561396473e-6 3.560992781266727e-6
      3.651139737143103e-6 3.743568773786921e-6 3.838337662333220e-6 3.935505636399533e-6
      4.035133429108766e-6 4.137283311049330e-6 4.242019129196223e-6 4.349406346817375e-6
      4.459512084390273e-6 4.572405161554368e-6 4.688156140125538e-6 4.806837368199382e-6
      4.928523025371093e-6 5.053289169100037e-6 5.181213782247982e-6 5.312376821820940e-6
      5.446860268944680e-6 5.584748180105549e-6 5.726126739688409e-6 5.871084313844498e-6
      6.019711505723131e-6 6.172101212101364e-6 6.328348681447444e-6 6.488551573454036e-6
      6.652810020078535e-6 6.821226688128673e-6 6.993906843432414e-6 7.170958416632335e-6
      7.352492070645644e-6 7.538621269831856e-6 7.729462350911572e-6 7.925134595680405e-6
      8.125760305563825e-6 8.331464878059263e-6 8.542376885113347e-6 8.758628153483393e-6
      8.980353847132957e-6 9.207692551713597e-6 9.440786361184957e-6 9.679780966627899e-6
      9.924825747305793e-6 1.017607386403101e-5 1.043368235489511e-5 1.066489040418445e-5
      1.093647113025421e-5 1.123706641449848e-5 1.152230845308716e-5 1.181414811866444e-5
      1.211351089412931e-5 1.242032766382467e-5 1.273493464641581e-5 1.305740068711360e-5
      1.338832135996430e-5 1.372733458419676e-5 1.407532558944134e-5 1.443163220130677e-5
      1.479743249480209e-5 1.517222250893363e-5 1.555622104258134e-5 1.595042389597605e-5
      1.635474743018752e-5 1.676834526171662e-5 1.719372757110016e-5 1.762874620664040e-5
      1.807564461540927e-5 1.853323747056193e-5 1.900303214494759e-5 1.948390908436343e-5
      1.997737079977849e-5 2.048352197587866e-5 2.100216393005931e-5 2.153415980684073e-5
      2.207916811223089e-5 2.263867238861636e-5 2.321191707455297e-5 2.379967725924782e-5
      2.440262762624193e-5 2.502039133077893e-5 2.565388448932167e-5 2.630372234861905e-5
      2.696954432176266e-5 2.765246190990529e-5 2.835280127681423e-5 2.907094214958682e-5
      2.980748964005717e-5 3.056180337259007e-5 3.133582068984139e-5 3.212926165527563e-5
      3.294285284281719e-5 3.377743714568244e-5 3.463241233496841e-5 3.550962670895367e-5
      3.640813187446062e-5 3.733005944618478e-5 3.827589383481183e-5 3.924416896656395e-5
      4.023875037545832e-5 4.125704965897235e-5 4.230177780085737e-5 4.337305624680003e-5
      4.447102655382119e-5 4.559718715514725e-5 4.675169809547035e-5 4.793539381065793e-5
      4.914925359396135e-5 5.039339482737310e-5 5.166954754109520e-5 5.297790325131141e-5
      5.431907355858055e-5 5.569486830867227e-5 5.710435737990744e-5 5.855052923643188e-5
      6.003285352639491e-5 6.155267348228273e-5 6.311149322952765e-5 6.470915117173392e-5
      6.634782071460404e-5 6.802714045480693e-5 6.974952150419274e-5 7.151581002545586e-5
      7.332574237442544e-5 7.518320197808133e-5 7.708583514375782e-5 7.903821221703238e-5
      8.103906875496357e-5 8.309061974986054e-5 8.519434661448690e-5 8.735125000462849e-5
      8.956286039623915e-5 9.183059613248902e-5 9.415489522789739e-5 9.653882590689262e-5
      9.898356566106530e-5 1.014889855868717e-4 1.040591609878762e-4 1.066929867533249e-4
      1.093940134349725e-4 1.121637742718263e-4 1.150034739580664e-4 1.179150602218766e-4
      1.209001834349254e-4 1.239610051946071e-4 1.270993900953036e-4 1.303170851974651e-4
      1.336165723118525e-4 1.369990669263643e-4 1.404670411029701e-4 1.440239319757618e-4
      1.476697390131078e-4 1.514083620846637e-4 1.552414951921310e-4 1.591715001485826e-4
      1.632011347184988e-4 1.673329844788420e-4 1.715692155433939e-4 1.759124469556062e-4
      1.803663814808204e-4 1.849321215579216e-4 1.896140464916799e-4 1.944143091446624e-4
      1.993361245058014e-4 2.043828453975825e-4 2.095566319595568e-4 2.148618074833075e-4
      2.203018920306361e-4 2.258784804984153e-4 2.315972298537369e-4 2.374600720077440e-4
      2.434716615276151e-4 2.496355365254084e-4 2.559547794514156e-4 2.624353583865802e-4
      2.690782468832840e-4 2.758904667483788e-4 2.828748869014480e-4 2.900363446634641e-4
      2.973785437693526e-4 3.049068435922567e-4 3.126259967185390e-4 3.205400623379083e-4
      3.286553247363609e-4 3.369749939889349e-4 3.455057938886181e-4 3.542524396515994e-4
      3.632206025071194e-4 3.724160088837245e-4 3.818437226142431e-4 3.915098677768091e-4
      4.014215260433525e-4 4.115839332934962e-4 4.220036674231321e-4 4.326863049383764e-4
      4.436401732741638e-4 4.548711759674974e-4 4.663863040555071e-4 4.781931161268269e-4
      4.902988879472132e-4 5.027111161902704e-4 5.154370077122532e-4 5.284860003371485e-4
      5.418645972259059e-4 5.555820537334270e-4 5.696470394842099e-4 5.840676883397565e-4
      5.988536469697112e-4 6.140134011427324e-4 6.295578255538005e-4 6.454952274523179e-4
      6.618355552794069e-4 6.785901896690685e-4 6.957688256217670e-4 7.133824142026091e-4
      7.314419378608963e-4 7.499584709012909e-4 7.689440360553606e-4 7.884095082415010e-4
      8.083687658665111e-4 8.288326045508777e-4 8.498141001038601e-4 8.713271524057467e-4
      8.933854367145749e-4 9.160011261863863e-4 9.391898763707916e-4 9.629657137812430e-4
      9.873431141343469e-4 1.012337767603628e-3 1.037964934096233e-3 1.064240960781331e-3
      1.091182150913923e-3 1.118805264698838e-3 1.147127797320917e-3 1.176167304194518e-3
      1.205941816892932e-3 1.236470230610111e-3 1.267771112253478e-3 1.299864927333709e-3
      1.332770552275635e-3 1.366509300409905e-3 1.401102550971858e-3 1.436570757472158e-3
      1.472937572524535e-3 1.510224735348929e-3 1.548455437763439e-3 1.587654166119634e-3
      1.627844956690918e-3 1.669053923613592e-3 1.711305057186163e-3 1.754626620351632e-3
      1.799044062607963e-3 1.844585997660609e-3 1.891281358794560e-3 1.939158152305979e-3
      1.988247061988982e-3 2.038578685407550e-3 2.090184275212415e-3 2.143096264025595e-3
      2.197347530698592e-3 2.252972663584038e-3 2.310004835205881e-3 2.368481460674101e-3
      2.428438273758573e-3 2.489913155522947e-3 2.552942893642380e-3 2.617569237440911e-3
      2.683830906719344e-3 2.751770432220322e-3 2.821429742387481e-3 2.892851310311198e-3
      2.966082175466917e-3 3.041165374696821e-3 3.118150784989429e-3 3.197083195174899e-3
      3.278014617764105e-3 3.360994678585156e-3 3.446074876074970e-3 3.533309179964511e-3
      3.622751093622620e-3 3.714457217280386e-3 3.808484739226441e-3 3.904892035976105e-3
      4.003739713645988e-3 4.105089272937102e-3 4.209005019912063e-3 4.315550267868392e-3
      4.424792611730108e-3 4.536800503414722e-3 4.651643541810259e-3 4.769392748992383e-3
      4.890123294991811e-3 5.013908910869594e-3 5.140828334482900e-3 5.270960108338314e-3
      5.404385638559547e-3 5.541189015466151e-3 5.681453953770865e-3 5.825270155887531e-3
      5.972725899631401e-3 6.123913948722461e-3 6.278928875835497e-3 6.437867480260553e-3
      6.600828917230119e-3 6.767914785243495e-3 6.939229986424841e-3 7.114880927017071e-3
      7.294977804899137e-3 7.479632654209980e-3 7.668961816174655e-3 7.863082200267559e-3
      8.062115986727747e-3 8.266187128154229e-3 8.475423244294005e-3 8.689954814802833e-3
      8.909917120408197e-3 9.135445035129884e-3 9.366681516498543e-3 9.603770082975311e-3
      9.846859201910563e-3 1.009610061439046e-2 1.035164954757264e-2 1.061366620786530e-2
      1.088231392416724e-2 1.115776039236179e-2 1.144017749658624e-2 1.172974215659426e-2
      1.202663495543279e-2 1.233104062951278e-2 1.264315051147548e-2 1.296315830277866e-2
      1.329126469977769e-2 1.362767379014109e-2 1.397259638260330e-2 1.432624726695812e-2
      1.468884740004710e-2 1.506062320536496e-2 1.544180646996232e-2 1.583263564371117e-2
      1.623335441667825e-2 1.664421349696125e-2 1.706546852474273e-2 1.749738346582946e-2
      1.794022381302402e-2 1.839427506896932e-2 1.885981242033318e-2 1.933712372629138e-2
      1.982652082079621e-2 2.032829345025874e-2 2.084276779892000e-2 2.137025310309947e-2
      2.191108887733149e-2 2.246559949461038e-2 2.303415024012787e-2 2.361707953692295e-2
      2.421475575006029e-2 2.482755183055810e-2 2.545585220499595e-2 2.610004810611533e-2
      2.676053860328260e-2 2.743773975107089e-2 2.813206894413453e-2 2.884395956667774e-2
      2.957386696047677e-2 3.032222542391525e-2 3.108952450423525e-2 3.187622395320173e-2
      3.268282554768519e-2 3.350982352766340e-2 3.435774626827073e-2 3.522710605021952e-2
      3.611845935477792e-2 3.703235010759073e-2 3.796935492555914e-2 3.893006106967174e-2
      3.991505199164687e-2 4.092496137536597e-2 4.196040043745045e-2 4.302202726157311e-2
      4.411049693267631e-2 4.522648805697827e-2 4.637069392522680e-2 4.754383265367965e-2
      4.874660857811746e-2 4.997989856302046e-2 5.124417943736317e-2 5.254058046540165e-2
      5.386966406175747e-2 5.523243214194904e-2 5.662954205001212e-2 5.806208331014094e-2
      5.953064416823381e-2 6.103662244896318e-2 6.258030914587365e-2 6.416335056802101e-2
      6.578606835402181e-2 6.745007956584439e-2 6.915597320962041e-2 7.090500448063062e-2
      7.269822358344024e-2 7.453678907450451e-2 7.642176784861019e-2 7.835437005958912e-2
      8.033584083842580e-2 8.236726467074341e-2 8.445009129153904e-2 8.658545691488539e-2
      8.877483313993309e-2 9.101944352020510e-2 9.332069139039392e-2 9.568015528044532e-2
      9.809914032789424e-2 1.005792264523529e-1 1.031218335191953e-1 1.057287716680378e-1
      1.084013777086482e-1 1.111415816274281e-1 1.139508021964377e-1 1.168309931604434e-1
      1.197838910537587e-1 1.228112641521438e-1 1.259150018831181e-1 1.290970931212100e-1
      1.323594003236571e-1 1.357040634638932e-1 1.391329980077773e-1 1.426485386108914e-1
      1.462525910891945e-1 1.499475899733028e-1 1.537357606636379e-1 1.576193940073016e-1
      1.616009283555080e-1 1.656828256553025e-1 1.698676301909188e-1 1.741578036926179e-1
      1.785560768844653e-1 1.830652478529773e-1 1.876878881173803e-1 1.924270545972696e-1
      1.972854608469078e-1 2.022662932094499e-1 2.073724547690270e-1 2.126072249362794e-1
      2.179736393552321e-1 2.234751969495562e-1 2.291151213536503e-1 2.348969713664856e-1
      2.408242232466526e-1 2.469005512930034e-1 2.531296786819295e-1 2.595153325152117e-1
      2.660616610667383e-1 2.727722729860524e-1 2.796517277751835e-1 2.867038868859719e-1
      2.939331862689517e-1 3.013440091453098e-1 3.089409556776255e-1 3.167285145926193e-1
      3.247115766871636e-1 3.328949121531232e-1 3.412834452346742e-1 3.498824855606677e-1
      3.586970177003970e-1 3.677325155440187e-1 3.769945096077265e-1 3.864883902994448e-1
      3.962202366737223e-1 4.061956104762164e-1 4.164207995944468e-1 4.269017947004913e-1
      4.376450586295010e-1 4.486569439973271e-1 4.599442093445639e-1 4.715135354661760e-1
      4.833719732269943e-1 4.955265447835961e-1 5.079846336314729e-1 5.207536497680001e-1
      5.338412657435160e-1 5.472552600371248e-1 5.610037195260189e-1 5.750947573223271e-1
      5.895368650676809e-1 6.043385315801917e-1 6.195086301013715e-1 6.350561162008066e-1
      6.509902175277771e-1 6.673204071235541e-1 6.840562299075090e-1 7.012076542365373e-1
      7.187847328992047e-1 7.367978330041057e-1 7.552574975230282e-1 7.741745694879489e-1
      7.935600855829509e-1 8.134254403747134e-1 8.337821123784330e-1 8.546420256275253e-1
      8.760172522705428e-1 8.979202076355870e-1 9.203635337540874e-1 9.433601872382607e-1
      9.669234188112071e-1 9.910667757606934e-1 1.015804080629060e0 1.041149451837399e0
      1.067117415233187e0 1.093722680900085e0 1.120980377017453e0 1.148905931261127e0
      1.177515067271258e0 1.206823941133841e0 1.236848949963821e0 1.267606896828967e0
      1.299114950008967e0 1.331390598845321e0 1.364451732165513e0 1.398316594421068e0
      1.433003806083545e0 1.468532391460829e0 1.504921728318158e0 1.542191603523601e0
      1.580362215912507e0 1.619454140885466e0 1.659488349744184e0 1.700486273643743e0
      1.742469706383464e0 1.785460884527768e0 1.829482462531481e0 1.874557499114977e0
      1.920709525043264e0 1.967962453784930e0 2.016340657154809e0 2.065868937736854e0
      2.116572515572780e0 2.168477083745463e0 2.221608724444073e0 2.275994004714615e0
      2.331659883952309e0 2.388633783793133e0 2.446943557242217e0 2.506617462556295e0
      2.567684214598615e0 2.630172929390773e0 2.694113144532605e0 2.759534806714743e0
      2.826468280040312e0 2.894944282014673e0 2.964993967753403e0 3.036648815815498e0
      3.109940708014386e0 3.184901838267007e0 3.261564753051873e0 3.339962308535268e0
      3.420127654656563e0 3.502094217577041e0 3.585895680602260e0 3.671565946191581e0
      3.759139128990855e0 3.848649506326691e0 3.940131502704379e0 4.033619645280547e0
      4.129148526079128e0 4.226752782180725e0 4.326467005062460e0 4.428325757063272e0
      4.532363470808246e0 4.638614411576123e0 4.747112629431912e0 4.857891881741660e0
      4.970985578121647e0 5.086426702120571e0 5.204247727644201e0 5.324480569982816e0
      5.447156449568862e0 5.572305852997635e0 5.699958381397819e0 5.830142694369723e0
      5.962886364122989e0 6.098215777283988e0 6.236155993082223e0 6.376730625020688e0
      6.519961693442818e0 6.665869469677824e0 6.814472326230925e0 6.965786570011648e0
      7.119826252440085e0 7.276602996652596e0 7.436125791006319e0 7.598400780705383e0
      7.763431057110164e0 7.931216404889213e0 8.101753085498899e0 8.275033557963578e0
      8.451046219848369e0 8.629775115987570e0 8.811199659424361e0 8.995294286406835e0
      9.182028168435707e0 9.371364840512271e0 9.563261853484491e0 9.757670407133709e0
      9.954534947011197e0 1.015379277155420e1 1.035537359611428e1 1.055919911923419e1
      1.076518256651212e1 1.097322821152228e1 1.118323088454082e1 1.139507546280139e1
      1.160863635387264e1 1.182377693441314e1 1.204034901057190e1 1.225819223547277e1
      1.247713351399575e1 1.269698642007190e1 1.291755055627569e1 1.313861095130646e1
      1.335993740616685e1 1.358128386423579e1 1.380238775059839e1 1.402296932837779e1
      1.424273104382301e1 1.446135687231502e1 1.467851168088919e1 1.489384059510225e1
      1.510696837285371e1 1.531749881825194e1 1.552501420032041e1 1.572907471250809e1
      1.592921797540773e1 1.612495856919286e1 1.631578763615733e1 1.650117253614278e1
      1.668055657280966e1 1.685335880374715e1 1.701897394731481e1 1.717677238178998e1
      1.732610027200012e1 1.746627982382217e1 1.759660967570893e1 1.771636546057387e1
      1.782480053240541e1 1.792114689334772e1 1.800461632106599e1 1.807440173233230e1
      1.812967878751520e1 1.816960775781777e1 1.819333568390133e1 1.819999883416615e1
      1.818872549145569e1 1.815863907778979e1 1.810886165445639e1 1.803851779173915e1
      1.794673885311116e1 1.783266768667902e1 1.769546375705487e1 1.753430872177398e1
      1.734841246132700e1 1.713701957804939e1 1.689941636047229e1 1.663493821567596e1
      1.634297756224380e1 1.602299217433965e1 1.567451395825101e1 1.529715813115399e1
      1.489063277933036e1 1.445474873810966e1 1.398942975095679e1 1.349472284215685e1
      1.297080881618816e1 1.241801281319603e1 1.183681479290108e1 1.122785984731807e1
      1.059196820254637e1 9.930144748421299e0 9.243587949782508e0 8.533697929066989e0
      7.802083537256337e0 7.050568187815230e0 6.281194207860437e0 5.496225475541124e0
      4.698148046352358e0 3.889668517982273e0 3.073709826909791e0 2.253404172299810e0
      1.432082796227661e0 6.132622702452863e-1 -1.993729466017413e-1 -1.001992009706115e0
      -1.790643474937895e0 -2.561285598963892e0 -3.309821352087781e0 -4.032138241517075e0
      -4.724153018531013e0 -5.381861225312605e0 -6.001391424901279e0 -6.579063859464412e0
      -7.111453066166604e0 -7.595453855566745e0 -8.028349810357341e0 -8.407883184394066e0
      -8.732324870549661e0 -9.000542694229459e0 -9.212065994848693e0 -9.367144037186200e0
      -9.466795339021481e0 -9.512844626411471e0 -9.507943564599618e0 -9.455571062631332e0
      -9.360008465758657e0 -9.226284632951987e0 -9.060085702789479e0 -8.867624286159558e0
      -8.655463109858889e0 -8.430288761398373e0 -8.198632270795295e0 -7.966535147808779e0
      -7.739162004025122e0 -7.520364660526534e0 -7.312207512835301e0 -7.114470391427244e0
      -6.924153479169231e0 -6.735019083824953e0 -6.537217882609954e0 -6.317062534806222e0
      -6.057029852952214e0 -5.736094151584473e0 -5.330519470213869e0 -4.815263419861317e0
      -4.166210500551812e0 -3.363168125378885e0 -2.396714284668714e0 -1.251763344519095e0
      -1.348103229631356e-1 1.304681515094940e-2 -1.322596391991877e-3 3.919107190320836e-4
      5.113151868106049e-4 7.877513825489312e-4 1.046840635808950e-3 1.305174006679611e-3
      1.560382394175288e-3 1.811948631679699e-3 2.059148027674135e-3 2.301256334145848e-3
      2.537529959608397e-3 2.767213233654175e-3 2.989539249383711e-3 3.203733128719632e-3
      3.409014875188061e-3 3.604601496554238e-3 3.789710248428325e-3 3.963561062247818e-3
      4.125379523670475e-3 4.274401364215338e-3 4.409873317550766e-3 4.531059573672968e-3
      4.637243412024179e-3 4.727732919461346e-3 4.801865701170507e-3 4.859011964690504e-3
      4.898581876618769e-3 4.920029468858043e-3 0.000000000000000e0 0.000000000000000e0
      0.000000000000000e0 0.000000000000000e0 0.000000000000000e0 0.000000000000000e0
      0.000000000000000e0 0.000000000000000e0 0.000000000000000e0 0.000000000000000e0
      0.000000000000000e0 0.000000000000000e0 0.000000000000000e0 0.000000000000000e0
      0.000000000000000e0 0.000000000000000e0 0.000000000000000e0 0.000000000000000e0
      0.000000000000000e0 0.000000000000000e0 0.000000000000000e0 0.000000000000000e0
      0.000000000000000e0 0.000000000000000e0 0.000000000000000e0 0.000000000000000e0
      0.000000000000000e0 0.000000000000000e0 0.000000000000000e0 0.000000000000000e0
      0.000000000000000e0 0.000000000000000e0 0.000000000000000e0 0.000000000000000e0
      0.000000000000000e0 0.000000000000000e0 0.000000000000000e0 0.000000000000000e0
      0.000000000000000e0 0.000000000000000e0 0.000000000000000e0 0.000000000000000e0
      0.000000000000000e0 0.000000000000000e0 0.000000000000000e0 0.000000000000000e0
      0.000000000000000e0 0.000000000000000e0 0.000000000000000e0 0.000000000000000e0
      0.000000000000000e0 0.000000000000000e0 0.000000000000000e0 0.000000000000000e0
      0.000000000000000e0 0.000000000000000e0 0.000000000000000e0 0.000000000000000e0
      0.000000000000000e0 0.000000000000000e0 0.000000000000000e0 0.000000000000000e0
      0.000000000000000e0 0.000000000000000e0 0.000000000000000e0 0.000000000000000e0
      0.000000000000000e0 0.000000000000000e0 0.000000000000000e0 0.000000000000000e0
      0.000000000000000e0 0.000000000000000e0 0.000000000000000e0 0.000000000000000e0
      0.000000000000000e0 0.000000000000000e0 0.000000000000000e0 0.000000000000000e0
      0.000000000000000e0 0.000000000000000e0 0.000000000000000e0 0.000000000000000e0
      0.000000000000000e0 0.000000000000000e0 0.000000000000000e0 0.000000000000000e0
      0.000000000000000e0 0.000000000000000e0 0.000000000000000e0 0.000000000000000e0
      0.000000000000000e0 0.000000000000000e0 0.000000000000000e0 0.000000000000000e0
      0.000000000000000e0 0.000000000000000e0 0.000000000000000e0 0.000000000000000e0
      0.000000000000000e0 0.000000000000000e0 0.000000000000000e0 0.000000000000000e0
      0.000000000000000e0 0.000000000000000e0 0.000000000000000e0 0.000000000000000e0
      0.000000000000000e0 0.000000000000000e0 0.000000000000000e0 0.000000000000000e0
      0.000000000000000e0 0.000000000000000e0 0.000000000000000e0 0.000000000000000e0
      0.000000000000000e0 0.000000000000000e0 0.000000000000000e0 0.000000000000000e0
      0.000000000000000e0 0.000000000000000e0 0.000000000000000e0 0.000000000000000e0
      0.000000000000000e0 0.000000000000000e0 0.000000000000000e0 0.000000000000000e0
      0.000000000000000e0 0.000000000000000e0 0.000000000000000e0 0.000000000000000e0
      0.000000000000000e0 0.000000000000000e0 0.000000000000000e0 0.000000000000000e0
      0.000000000000000e0 0.000000000000000e0 0.000000000000000e0 0.000000000000000e0
      0.000000000000000e0 0.000000000000000e0 0.000000000000000e0 0.000000000000000e0
      0.000000000000000e0 0.000000000000000e0 0.000000000000000e0 0.000000000000000e0
      0.000000000000000e0 0.000000000000000e0 0.000000000000000e0 0.000000000000000e0
      0.000000000000000e0 0.000000000000000e0 0.000000000000000e0 0.000000000000000e0
      0.000000000000000e0 0.000000000000000e0 0.000000000000000e0 0.000000000000000e0
      0.000000000000000e0 0.000000000000000e0 0.000000000000000e0 0.000000000000000e0
      0.000000000000000e0 0.000000000000000e0 0.000000000000000e0 0.000000000000000e0
      0.000000000000000e0 0.000000000000000e0 0.000000000000000e0 0.000000000000000e0
      0.000000000000000e0 0.000000000000000e0 0.000000000000000e0 0.000000000000000e0
      0.000000000000000e0 0.000000000000000e0 0.000000000000000e0 0.000000000000000e0
      0.000000000000000e0 0.000000000000000e0 0.000000000000000e0 0.000000000000000e0
      0.000000000000000e0 0.000000000000000e0 0.000000000000000e0 0.000000000000000e0
      0.000000000000000e0 0.000000000000000e0 0.000000000000000e0 0.000000000000000e0
      0.000000000000000e0 0.000000000000000e0 0.000000000000000e0 0.000000000000000e0
      0.000000000000000e0 0.000000000000000e0 0.000000000000000e0 0.000000000000000e0
      0.000000000000000e0 0.000000000000000e0 0.000000000000000e0 0.000000000000000e0
      0.000000000000000e0 0.000000000000000e0 0.000000000000000e0 0.000000000000000e0
      0.000000000000000e0 0.000000000000000e0 0.000000000000000e0 0.000000000000000e0
      0.000000000000000e0 0.000000000000000e0 0.000000000000000e0 0.000000000000000e0
      0.000000000000000e0 0.000000000000000e0 0.000000000000000e0 0.000000000000000e0
      0.000000000000000e0 0.000000000000000e0 0.000000000000000e0 0.000000000000000e0
      0.000000000000000e0 0.000000000000000e0 0.000000000000000e0 0.000000000000000e0
      0.000000000000000e0 0.000000000000000e0 0.000000000000000e0 0.000000000000000e0
      0.000000000000000e0 0.000000000000000e0 0.000000000000000e0 0.000000000000000e0
      0.000000000000000e0 0.000000000000000e0 0.000000000000000e0 0.000000000000000e0
      0.000000000000000e0 0.000000000000000e0 0.000000000000000e0 0.000000000000000e0
      0.000000000000000e0 0.000000000000000e0 0.000000000000000e0 0.000000000000000e0
      0.000000000000000e0 0.000000000000000e0 0.000000000000000e0 0.000000000000000e0
      0.000000000000000e0 0.000000000000000e0 0.000000000000000e0 0.000000000000000e0
      0.000000000000000e0 0.000000000000000e0 0.000000000000000e0 0.000000000000000e0
      0.000000000000000e0 0.000000000000000e0 0.000000000000000e0 0.000000000000000e0
      0.000000000000000e0 0.000000000000000e0 0.000000000000000e0 0.000000000000000e0
      0.000000000000000e0 0.000000000000000e0 0.000000000000000e0 0.000000000000000e0
      0.000000000000000e0 0.000000000000000e0 0.000000000000000e0 0.000000000000000e0
      0.000000000000000e0 0.000000000000000e0 0.000000000000000e0 0.000000000000000e0
      0.000000000000000e0 0.000000000000000e0 0.000000000000000e0 0.000000000000000e0
      0.000000000000000e0 0.000000000000000e0 0.000000000000000e0 0.000000000000000e0
      0.000000000000000e0 0.000000000000000e0 0.000000000000000e0
      </PP_BETA.3>
    <PP_BETA.4 index="4" label="3P" angular_momentum="1" cutoff_radius_index="827" cutoff_radius="1.500000000000e0" ultrasoft_cutoff_radius="1.900000000000e0">
      -2.294072657548858e-7 -2.352147382972376e-7 -2.411692277049207e-7 -2.472744557274958e-7
      -2.535342383310587e-7 -2.599524880833397e-7 -2.665332165991876e-7 -2.732805370479579e-7
      -2.801986667243777e-7 -2.872919296844925e-7 -2.945647594483396e-7 -3.020217017710428e-7
      -3.096674174840575e-7 -3.175066854083396e-7 -3.255444053412668e-7 -3.337856011191666e-7
      -3.422354237573804e-7 -3.508991546698123e-7 -3.597822089699860e-7 -3.688901388556665e-7
      -3.782286370791609e-7 -3.878035405054752e-7 -3.976208337605430e-7 -4.076866529718116e-7
      -4.180072896035208e-7 -4.285891943890681e-7 -4.394389813629309e-7 -4.505634319946483e-7
      -4.619694994274605e-7 -4.736643128242497e-7 -4.856551818234946e-7 -4.979496011080334e-7
      -5.105552550894819e-7 -5.234800227112388e-7 -5.367319823730822e-7 -5.503194169804287e-7
      -5.642508191214164e-7 -5.785348963750484e-7 -5.931805767537110e-7 -6.081970142834711e-7
      -6.235935947256337e-7 -6.393799414431509e-7 -6.555659214155312e-7 -6.721616514060202e-7
      -6.891775042849090e-7 -7.066241155129051e-7 -7.245123897886428e-7 -7.428535078644735e-7
      -7.616589335347895e-7 -7.809404208012749e-7 -8.007100212195278e-7 -8.209800914316705e-7
      -8.417633008896555e-7 -8.630726397740716e-7 -8.849214271134375e-7 -9.073233191090104e-7
      -9.302923176703588e-7 -9.538427791670030e-7 -9.779894234016083e-7 -1.002747342810342e-6
      -1.028132011896116e-6 -1.054159296900660e-6 -1.080845465721431e-6 -1.108207198079564e-6
      -1.136261595945246e-6 -1.165026194226982e-6 -1.194518971731482e-6 -1.224758362400995e-6
      -1.255763266835100e-6 -1.287553064104209e-6 -1.320147623862083e-6 -1.353567318765015e-6
      -1.387833037205386e-6 -1.422966196367579e-6 -1.458988755614413e-6 -1.495923230212434e-6
      -1.533792705404676e-6 -1.572620850839682e-6 -1.612431935365783e-6 -1.653250842199912e-6
      -1.695103084480393e-6 -1.738014821213473e-6 -1.782012873623537e-6 -1.827124741917212e-6
      -1.873378622471894e-6 -1.920803425459357e-6 -1.969428792915539e-6 -2.019285117267754e-6
      -2.070403560330919e-6 -2.122816072784686e-6 -2.176555414143619e-6 -2.231655173232928e-6
      -2.288149789182547e-6 -2.346074572952680e-6 -2.405465729404277e-6 -2.466360379928194e-6
      -2.528796585647238e-6 -2.592813371205587e-6 -2.658450749160383e-6 -2.725749744990886e-6
      -2.794752422740647e-6 -2.865501911308872e-6 -2.938042431407340e-6 -3.012419323199718e-6
      -3.088679074640611e-6 -3.166869350531954e-6 -3.247039022315021e-6 -3.329238198616594e-6
      -3.413518256568415e-6 -3.499931873919515e-6 -3.588533061961402e-6 -3.679377199286832e-6
      -3.772521066403135e-6 -3.868022881221782e-6 -3.965942335446409e-6 -4.066340631881937e-6
      -4.169280522688243e-6 -4.274826348602188e-6 -4.383044079152532e-6 -4.494001353892978e-6
      -4.607767524678888e-6 -4.724413699014388e-6 -4.844012784496670e-6 -4.966639534385521e-6
      -5.092370594326370e-6 -5.221284550256129e-6 -5.353461977521810e-6 -5.474389680382004e-6
      -5.613682868744698e-6 -5.765536292537386e-6 -5.911859219747871e-6 -6.061593210108688e-6
      -6.215184816047089e-6 -6.372638217403868e-6 -6.534056430006853e-6 -6.699513805904194e-6
      -6.869308236033717e-6 -7.043247018411282e-6 -7.221797828699323e-6 -7.404626928611520e-6
      -7.592302244266715e-6 -7.784604683428864e-6 -7.981650015011610e-6 -8.183915349578553e-6
      -8.391326483323772e-6 -8.603604625232958e-6 -8.821811565531414e-6 -9.045042838654416e-6
      -9.274328845421003e-6 -9.509131606139823e-6 -9.750147911252292e-6 -9.996908261844048e-6
      -1.025009896088192e-5 -1.050979964659091e-5 -1.077590543544089e-5 -1.104886982656361e-5
      -1.132853516121677e-5 -1.161557886976591e-5 -1.190973025855128e-5 -1.221130121794652e-5
      -1.252065870741803e-5 -1.283763816446031e-5 -1.316268507892834e-5 -1.349612219570624e-5
      -1.383774370562727e-5 -1.418817368083914e-5 -1.454749524723433e-5 -1.491595510136629e-5
      -1.529385850572825e-5 -1.568090045276065e-5 -1.607805824367476e-5 -1.648516240076281e-5
      -1.690260554545232e-5 -1.733082464088880e-5 -1.776948333438225e-5 -1.821959774402209e-5
      -1.868064267545879e-5 -1.915366787301982e-5 -1.963895635250080e-5 -2.013580798147326e-5
      -2.064607583581913e-5 -2.116859755534276e-5 -2.170462414948513e-5 -2.225430787460036e-5
      -2.281764993212553e-5 -2.339550074423408e-5 -2.398786055613479e-5 -2.459519054412742e-5
      -2.521804703885054e-5 -2.585638047382735e-5 -2.651119298557573e-5 -2.718247444628146e-5
      -2.787063425633130e-5 -2.857653338078520e-5 -2.929975414461436e-5 -3.004176698191923e-5
      -3.080234411833302e-5 -3.158215572750950e-5 -3.238196828487908e-5 -3.320170494094926e-5
      -3.404249703733333e-5 -3.490418468220762e-5 -3.578791208790997e-5 -3.669418170385261e-5
      -3.762286662425582e-5 -3.857587219858197e-5 -3.955216062724963e-5 -4.055384765486819e-5
      -4.158052078451679e-5 -4.263313854363330e-5 -4.371257019673439e-5 -4.481926014283658e-5
      -4.595400533108010e-5 -4.711757395859816e-5 -4.831018267189457e-5 -4.953337337569399e-5
      -5.078769739299704e-5 -5.207325171238418e-5 -5.339195960286186e-5 -5.474337871716396e-5
      -5.612929243735090e-5 -5.755042626069179e-5 -5.900743638553941e-5 -6.050139049248918e-5
      -6.203300004915414e-5 -6.360352585577290e-5 -6.521379832875698e-5 -6.686477344901450e-5
      -6.855772256909908e-5 -7.029324837356486e-5 -7.207270881127721e-5 -7.389765819818743e-5
      -7.576831682902084e-5 -7.768660951902290e-5 -7.965332404361281e-5 -8.166983288889982e-5
      -8.373740975630872e-5 -8.585740951353337e-5 -8.803103101886540e-5 -9.025950177953929e-5
      -9.254478173239477e-5 -9.488746828577156e-5 -9.728972738739426e-5 -9.975271990720527e-5
      -1.022780727045116e-4 -1.048675066040134e-4 -1.075221655176437e-4 -1.102442196616921e-4
      -1.130354582629977e-4 -1.158968074253647e-4 -1.188310525219549e-4 -1.218392540778205e-4
      -1.249237707769110e-4 -1.280864066570378e-4 -1.313288170992885e-4 -1.346538976209192e-4
      -1.380623987309834e-4 -1.415576907688991e-4 -1.451413625931382e-4 -1.488158345495973e-4
      -1.525831155301781e-4 -1.564458424081120e-4 -1.604064851178768e-4 -1.644671802345314e-4
      -1.686310242156187e-4 -1.728998425781192e-4 -1.772769546410299e-4 -1.817648043552992e-4
      -1.863663254651295e-4 -1.910844044554676e-4 -1.959217584110149e-4 -2.008814295406778e-4
      -2.059670192155687e-4 -2.111812971678095e-4 -2.165275665647005e-4 -2.220088278018426e-4
      -2.276291934983417e-4 -2.333917487823018e-4 -2.393001274162815e-4 -2.453581265003315e-4
      -2.515695388569841e-4 -2.579381812095526e-4 -2.644677998723426e-4 -2.711631424567726e-4
      -2.780276430135429e-4 -2.850660140010439e-4 -2.922826649902985e-4 -2.996818338640223e-4
      -3.072684443649222e-4 -3.150468582872082e-4 -3.230226016764921e-4 -3.311999960676639e-4
      -3.395841891685700e-4 -3.481809057485612e-4 -3.569951758036035e-4 -3.660326361332806e-4
      -3.752988802123014e-4 -3.847996269229675e-4 -3.945410157397364e-4 -4.045286981470722e-4
      -4.147696560674766e-4 -4.252695753410086e-4 -4.360351135524793e-4 -4.470733839773894e-4
      -4.583913346853063e-4 -4.699953915534056e-4 -4.818934287882702e-4 -4.940926822617303e-4
      -5.066006564636059e-4 -5.194252778195031e-4 -5.325744984439541e-4 -5.460566176542365e-4
      -5.598800317136348e-4 -5.740533586424108e-4 -5.885855305734454e-4 -6.034855919984880e-4
      -6.187627739075063e-4 -6.344267762056877e-4 -6.504871679576611e-4 -6.669543480231113e-4
      -6.838381333560872e-4 -7.011493632999475e-4 -7.188990182238237e-4 -7.370976497004102e-4
      -7.557573373639594e-4 -7.748892285751355e-4 -7.945053082084414e-4 -8.146180390473043e-4
      -8.352398254926097e-4 -8.563839866965962e-4 -8.780629386192922e-4 -9.002910760570927e-4
      -9.230815590629833e-4 -9.464489997851732e-4 -9.704082505323692e-4 -9.949737146198260e-4
      -1.020161109195128e-3 -1.045986136519221e-3 -1.072464840414859e-3 -1.099613878102904e-3
      -1.127450075958671e-3 -1.155991182112281e-3 -1.185254318511666e-3 -1.215258530095992e-3
      -1.246022273548765e-3 -1.277564869385216e-3 -1.309905399689401e-3 -1.343065044079434e-3
      -1.377063828161148e-3 -1.411923505221125e-3 -1.447665573601575e-3 -1.484311958370676e-3
      -1.521886603731168e-3 -1.560411769671958e-3 -1.599912868196947e-3 -1.640413101748437e-3
      -1.681938966017822e-3 -1.724515988788886e-3 -1.768170621515829e-3 -1.812930528866639e-3
      -1.858823182832408e-3 -1.905877612588262e-3 -1.954123158854621e-3 -2.003589808794302e-3
      -2.054308642834557e-3 -2.106311202741120e-3 -2.159630446587961e-3 -2.214298964702488e-3
      -2.270351370155707e-3 -2.327822789878989e-3 -2.386748926600561e-3 -2.447166316525463e-3
      -2.509113383497926e-3 -2.572628105476570e-3 -2.637750785773465e-3 -2.704521756569753e-3
      -2.772982799297299e-3 -2.843177009437297e-3 -2.915147470373391e-3 -2.988940077362664e-3
      -3.064600199607646e-3 -3.142175425795876e-3 -3.221714274217540e-3 -3.303266402502600e-3
      -3.386882703695710e-3 -3.472615354433394e-3 -3.560518102722871e-3 -3.650645625807015e-3
      -3.743054427195468e-3 -3.837802015293909e-3 -3.934948056703803e-3 -4.034552596328119e-3
      -4.136678289170287e-3 -4.241388765033700e-3 -4.348749480861098e-3 -4.458827458762135e-3
      -4.571691958394171e-3 -4.687412410013670e-3 -4.806062032642395e-3 -4.927714495815535e-3
      -5.052446009644034e-3 -5.180334416002763e-3 -5.311459402558890e-3 -5.445903151846833e-3
      -5.583749480251416e-3 -5.725084482365729e-3 -5.869996330698740e-3 -6.018575800049330e-3
      -6.170915570089345e-3 -6.327110483277412e-3 -6.487258673648213e-3 -6.651459570958846e-3
      -6.819816138730600e-3 -6.992433175881054e-3 -7.169418773514341e-3 -7.350883253056855e-3
      -7.536939942699292e-3 -7.727705065136723e-3 -7.923297583407290e-3 -8.123839833747768e-3
      -8.329456918290184e-3 -8.540277430439282e-3 -8.756432633880490e-3 -8.978057937320910e-3
      -9.205289865236981e-3 -9.438274335503777e-3 -9.677153086292918e-3 -9.922074102670456e-3
      -1.017319642439968e-2 -1.043066983509684e-2 -1.069466088091581e-2 -1.096532902692180e-2
      -1.124284785198068e-2 -1.152738472174306e-2 -1.181912579467598e-2 -1.211824580931381e-2
      -1.242493369029469e-2 -1.273938064903628e-2 -1.306178396832731e-2 -1.339234439103548e-2
      -1.373126713653493e-2 -1.407876520936717e-2 -1.443505337899273e-2 -1.480035402278502e-2
      -1.517489997184657e-2 -1.555891579885225e-2 -1.595265094754217e-2 -1.635634288658905e-2
      -1.677024834626073e-2 -1.719462155742083e-2 -1.762973293291644e-2 -1.807584653714196e-2
      -1.853324700704550e-2 -1.900221431900146e-2 -1.948304407022956e-2 -1.997603745668141e-2
      -2.048149499057099e-2 -2.099974065496674e-2 -2.153108947520621e-2 -2.207587830908930e-2
      -2.263444403630647e-2 -2.320713481641609e-2 -2.379430683511317e-2 -2.439632834812907e-2
      -2.501356273337068e-2 -2.564645135654287e-2 -2.629525929178587e-2 -2.696054237952481e-2
      -2.764260656138520e-2 -2.834195400961325e-2 -2.905893558938613e-2 -2.979409531337658e-2
      -3.054775643469403e-2 -3.132060285354319e-2 -3.211282918372449e-2 -3.292523274092972e-2
      -3.375802513430777e-2 -3.461199416859706e-2 -3.548747351321548e-2 -3.638509414959553e-2
      -3.730539797628406e-2 -3.824897694735223e-2 -3.921638421148266e-2 -4.020823865728479e-2
      -4.122517655342611e-2 -4.226776525718520e-2 -4.333673614893693e-2 -4.443268387319990e-2
      -4.555635403992104e-2 -4.670838470001907e-2 -4.788949603270299e-2 -4.910048824317641e-2
      -5.034204303895182e-2 -5.161496644875612e-2 -5.291999620865777e-2 -5.425804591367502e-2
      -5.562982199910563e-2 -5.703629680967024e-2 -5.847821903149769e-2 -5.995657751418303e-2
      -6.147226788082261e-2 -6.302620308661025e-2 -6.461935297381988e-2 -6.625273486825861e-2
      -6.792731347209950e-2 -6.964418002435973e-2 -7.140432979428014e-2 -7.320894766158592e-2
      -7.505903211479165e-2 -7.695581993491435e-2 -7.890045921261956e-2 -8.089413103453904e-2
      -8.293808608031291e-2 -8.503359066871027e-2 -8.718194788433225e-2 -8.938443718185926e-2
      -9.164245482168898e-2 -9.395742859987909e-2 -9.633070342736533e-2 -9.876383107539278e-2
      -1.012582259753923e-1 -1.038155078490322e-1 -1.064371874446083e-1 -1.091249356551317e-1
      -1.118803355545399e-1 -1.147051634337658e-1 -1.176010964415950e-1 -1.205699547852664e-1
      -1.236135353045571e-1 -1.267337237619288e-1 -1.299324388383652e-1 -1.332116058819944e-1
      -1.365733367389057e-1 -1.400195309393521e-1 -1.435524878995929e-1 -1.471742328592691e-1
      -1.508870355923109e-1 -1.546931574794585e-1 -1.585949598359219e-1 -1.625947701974926e-1
      -1.666950926103847e-1 -1.708983938164425e-1 -1.752072182244461e-1 -1.796242804741221e-1
      -1.841521738157897e-1 -1.887937075281235e-1 -1.935517290688669e-1 -1.984290386164010e-1
      -2.034287400829438e-1 -2.085537331557227e-1 -2.138072369706702e-1 -2.191923598978543e-1
      -2.247124235617455e-1 -2.303707186939455e-1 -2.361707208793879e-1 -2.421158909548459e-1
      -2.482098588050299e-1 -2.544562612705930e-1 -2.608589026445487e-1 -2.674216159720111e-1
      -2.741483632207647e-1 -2.810431677766531e-1 -2.881102029189819e-1 -2.953536710263339e-1
      -3.027779527217658e-1 -3.103874500870955e-1 -3.181867434272872e-1 -3.261804725784984e-1
      -3.343734105730101e-1 -3.427704566640753e-1 -3.513765635106908e-1 -3.601968837603980e-1
      -3.692366294554802e-1 -3.785011706256630e-1 -3.879959729405571e-1 -3.977266568679796e-1
      -4.076989480464874e-1 -4.179187501907262e-1 -4.283920290737204e-1 -4.391249664474066e-1
      -4.501238333951736e-1 -4.613950759462552e-1 -4.729452644169692e-1 -4.847811324301343e-1
      -4.969095678879404e-1 -5.093376158806765e-1 -5.220724698311269e-1 -5.351214809708219e-1
      -5.484922059545313e-1 -5.621923136969782e-1 -5.762296855364980e-1 -5.906123638870828e-1
      -6.053485546415073e-1 -6.204466822700065e-1 -6.359153126677304e-1 -6.517632219910183e-1
      -6.679993807885745e-1 -6.846329361743411e-1 -7.016732464127944e-1 -7.191298620283638e-1
      -7.370125371550236e-1 -7.553312399938732e-1 -7.740961346853670e-1 -7.933176046553429e-1
      -8.130062544825961e-1 -8.331728966911449e-1 -8.538285609922870e-1 -8.749845215271622e-1
      -8.966522574247740e-1 -9.188434876548531e-1 -9.415701614350340e-1 -9.648444539797227e-1
      -9.886787948737526e-1 -1.013085833619275e0 -1.038078470444755e0 -1.063669847515412e0
      -1.089873343109522e0 -1.116702597236409e0 -1.144171476306462e0 -1.172294116017629e0
      -1.201084881795350e0 -1.230558400922250e0 -1.260729549502743e0 -1.291613443327090e0
      -1.323225460098157e0 -1.355581217624372e0 -1.388696582992364e0 -1.422587668947302e0
      -1.457270837734424e0 -1.492762676071013e0 -1.529080030731624e0 -1.566239961993442e0
      -1.604259777962120e0 -1.643156997136678e0 -1.682949366417517e0 -1.723654843638279e0
      -1.765291591712352e0 -1.807877972139301e0 -1.851432537359948e0 -1.895974015352912e0
      -1.941521307416730e0 -1.988093467295371e0 -2.035709695590128e0 -2.084389320534446e0
      -2.134151782682411e0 -2.185016626307248e0 -2.237003461152547e0 -2.290131969069354e0
      -2.344421861154395e0 -2.399892861226598e0 -2.456564685307126e0 -2.514457007211944e0
      -2.573589434942935e0 -2.633981475931067e0 -2.695652499887752e0 -2.758621717050687e0
      -2.822908117684615e0 -2.888530453756164e0 -2.955507172146654e0 -3.023856387534563e0
      -3.093595818002930e0 -3.164742739029718e0 -3.237313920164353e0 -3.311325569759089e0
      -3.386793267744794e0 -3.463731894577259e0 -3.542155561143829e0 -3.622077532099819e0
      -3.703510138126748e0 -3.786464694873197e0 -3.870951407354987e0 -3.956979272197907e0
      -4.044555978768337e0 -4.133687791218297e0 -4.224379445089160e0 -4.316634016964557e0
      -4.410452800822364e0 -4.505835170631757e0 -4.602778446394488e0 -4.701277731393532e0
      -4.801325772619062e0 -4.902912783810972e0 -5.006026278281565e0 -5.110650891263969e0
      -5.216768186154857e0 -5.324356463326604e0 -5.433390548816911e0 -5.543841582977997e0
      -5.655676796921462e0 -5.768859278356810e0 -5.883347729818952e0 -5.999096216937412e0
      -6.116053912400318e0 -6.234164817994277e0 -6.353367494264763e0 -6.473594769455625e0
      -6.594773440385831e0 -6.716823976864003e0 -6.839660198293478e0 -6.963188964361086e0
      -7.087309841305308e0 -7.211914774870690e0 -7.336887748739480e0 -7.462104446163242e0
      -7.587431904669915e0 -7.712728168458977e0 -7.837841944257811e0 -7.962612257055387e0
      -8.086868105482054e0 -8.210428131362530e0 -8.333100289401631e0 -8.454681530433408e0
      -8.574957501920515e0 -8.693702257585315e0 -8.810677995457119e0 -8.925634816464921e0
      -9.038310510871579e0 -9.148430380039720e0 -9.255707097276126e0 -9.359840608121392e0
      -9.460518084509399e0 -9.557413933308919e0 -9.650189864855918e0 -9.738495034791541e0
      -9.821966258831772e0 -9.900228315802618e0 -9.972894339600060e0 -1.003956631722254e1
      -1.009983569460231e1 -1.015328410183096e1 -1.019948421084276e1 -1.023800072971814e1
      -1.026839154876376e1 -1.029020904231057e1 -1.030300154501316e1 -1.030631500164398e1
      -1.029969481046388e1 -1.028268786069079e1 -1.025484477834982e1 -1.021572238573134e1
      -1.016488638006507e1 -1.010191423950251e1 -1.002639835858869e1 -9.937949415134860e0
      -9.836199968691737e0 -9.720808288674654e0 -9.591462405896564e0 -9.447884377882502e0
      -9.289834759273880e0 -9.117117255483976e0 -8.929583543145220e0 -8.727138230377562e0
      -8.509743922275973e0 -8.277426361339408e0 -8.030279590002138e0 -7.768471092506125e0
      -7.492246856110121e0 -7.201936282735801e0 -6.897956886156841e0 -6.580818683801986e0
      -6.251128201650417e0 -5.909591992108567e0 -5.557019555983182e0 -5.194325563173308e0
      -4.822531239429708e0 -4.442764803641353e0 -4.056260815584750e0 -3.664358294204149e0
      -3.268497477925457e0 -2.870215065387967e0 -2.471137820510762e0 -2.072974384909390e0
      -1.677505183569583e0 -1.286570306140000e0 -9.020552582577217e-1 -5.258745179711184e-1
      -1.599528418888490e-1 1.937956862715851e-1 5.334908254522581e-1 8.573114852619348e-1
      1.163523001868938e0 1.450506158742723e0 1.716787625006269e0 1.961071365880606e0
      2.182270489115755e0 2.379538815078561e0 2.552301330647172e0 2.700282504758611e0
      2.823531245003460e0 2.922441108081845e0 2.997764128636119e0 3.050616470203785e0
      3.082473881065422e0 3.095154784463757e0 3.090788726657129e0 3.071767850560412e0
      3.040679150520244e0 3.000215490441519e0 2.953063783221195e0 2.901769478406551e0
      2.848577514526885e0 2.795251433978083e0 2.742874362726764e0 2.691638238381663e0
      2.640631142130987e0 2.587636878625575e0 2.528966343535615e0 2.459346672045275e0
      2.371901914373259e0 2.258268093655002e0 2.108896179373382e0 1.913607286048274e0
      1.662491484686641e0 1.347127376384736e0 9.633767968566486e-1 5.047874686229276e-1
      5.457591152457699e-2 -5.232949632504539e-3 5.662709877227203e-4 -1.391264807823552e-4
      -1.993376743461540e-4 -3.229465937931719e-4 -4.394104916908264e-4 -5.554172042899932e-4
      -6.699851291817874e-4 -7.828803079252310e-4 -8.937837434669527e-4 -1.002375696667591e-3
      -1.108327830145262e-3 -1.211306313183304e-3 -1.310972289819280e-3 -1.406983330754285e-3
      -1.498994715902106e-3 -1.586660402401441e-3 -1.669634462128108e-3 -1.747572179654389e-3
      -1.820131371570622e-3 -1.886974356397966e-3 -1.947768392944942e-3 -2.002188475816354e-3
      -2.049918111167972e-3 -2.090651816164603e-3 -2.124097194637010e-3 -2.149976348081451e-3
      -2.168029072963088e-3 -2.178014630709142e-3 0.000000000000000e0 0.000000000000000e0
      0.000000000000000e0 0.000000000000000e0 0.000000000000000e0 0.000000000000000e0
      0.000000000000000e0 0.000000000000000e0 0.000000000000000e0 0.000000000000000e0
      0.000000000000000e0 0.000000000000000e0 0.000000000000000e0 0.000000000000000e0
      0.000000000000000e0 0.000000000000000e0 0.000000000000000e0 0.000000000000000e0
      0.000000000000000e0 0.000000000000000e0 0.000000000000000e0 0.000000000000000e0
      0.000000000000000e0 0.000000000000000e0 0.000000000000000e0 0.000000000000000e0
      0.000000000000000e0 0.000000000000000e0 0.000000000000000e0 0.000000000000000e0
      0.000000000000000e0 0.000000000000000e0 0.000000000000000e0 0.000000000000000e0
      0.000000000000000e0 0.000000000000000e0 0.000000000000000e0 0.000000000000000e0
      0.000000000000000e0 0.000000000000000e0 0.000000000000000e0 0.000000000000000e0
      0.000000000000000e0 0.000000000000000e0 0.000000000000000e0 0.000000000000000e0
      0.000000000000000e0 0.000000000000000e0 0.000000000000000e0 0.000000000000000e0
      0.000000000000000e0 0.000000000000000e0 0.000000000000000e0 0.000000000000000e0
      0.000000000000000e0 0.000000000000000e0 0.000000000000000e0 0.000000000000000e0
      0.000000000000000e0 0.000000000000000e0 0.000000000000000e0 0.000000000000000e0
      0.000000000000000e0 0.000000000000000e0 0.000000000000000e0 0.000000000000000e0
      0.000000000000000e0 0.000000000000000e0 0.000000000000000e0 0.000000000000000e0
      0.000000000000000e0 0.000000000000000e0 0.000000000000000e0 0.000000000000000e0
      0.000000000000000e0 0.000000000000000e0 0.000000000000000e0 0.000000000000000e0
      0.000000000000000e0 0.000000000000000e0 0.000000000000000e0 0.000000000000000e0
      0.000000000000000e0 0.000000000000000e0 0.000000000000000e0 0.000000000000000e0
      0.000000000000000e0 0.000000000000000e0 0.000000000000000e0 0.000000000000000e0
      0.000000000000000e0 0.000000000000000e0 0.000000000000000e0 0.000000000000000e0
      0.000000000000000e0 0.000000000000000e0 0.000000000000000e0 0.000000000000000e0
      0.000000000000000e0 0.000000000000000e0 0.000000000000000e0 0.000000000000000e0
      0.000000000000000e0 0.000000000000000e0 0.000000000000000e0 0.000000000000000e0
      0.000000000000000e0 0.000000000000000e0 0.000000000000000e0 0.000000000000000e0
      0.000000000000000e0 0.000000000000000e0 0.000000000000000e0 0.000000000000000e0
      0.000000000000000e0 0.000000000000000e0 0.000000000000000e0 0.000000000000000e0
      0.000000000000000e0 0.000000000000000e0 0.000000000000000e0 0.000000000000000e0
      0.000000000000000e0 0.000000000000000e0 0.000000000000000e0 0.000000000000000e0
      0.000000000000000e0 0.000000000000000e0 0.000000000000000e0 0.000000000000000e0
      0.000000000000000e0 0.000000000000000e0 0.000000000000000e0 0.000000000000000e0
      0.000000000000000e0 0.000000000000000e0 0.000000000000000e0 0.000000000000000e0
      0.000000000000000e0 0.000000000000000e0 0.000000000000000e0 0.000000000000000e0
      0.000000000000000e0 0.000000000000000e0 0.000000000000000e0 0.000000000000000e0
      0.000000000000000e0 0.000000000000000e0 0.000000000000000e0 0.000000000000000e0
      0.000000000000000e0 0.000000000000000e0 0.000000000000000e0 0.000000000000000e0
      0.000000000000000e0 0.000000000000000e0 0.000000000000000e0 0.000000000000000e0
      0.000000000000000e0 0.000000000000000e0 0.000000000000000e0 0.000000000000000e0
      0.000000000000000e0 0.000000000000000e0 0.000000000000000e0 0.000000000000000e0
      0.000000000000000e0 0.000000000000000e0 0.000000000000000e0 0.000000000000000e0
      0.000000000000000e0 0.000000000000000e0 0.000000000000000e0 0.000000000000000e0
      0.000000000000000e0 0.000000000000000e0 0.000000000000000e0 0.000000000000000e0
      0.000000000000000e0 0.000000000000000e0 0.000000000000000e0 0.000000000000000e0
      0.000000000000000e0 0.000000000000000e0 0.000000000000000e0 0.000000000000000e0
      0.000000000000000e0 0.000000000000000e0 0.000000000000000e0 0.000000000000000e0
      0.000000000000000e0 0.000000000000000e0 0.000000000000000e0 0.000000000000000e0
      0.000000000000000e0 0.000000000000000e0 0.000000000000000e0 0.000000000000000e0
      0.000000000000000e0 0.000000000000000e0 0.000000000000000e0 0.000000000000000e0
      0.000000000000000e0 0.000000000000000e0 0.000000000000000e0 0.000000000000000e0
      0.000000000000000e0 0.000000000000000e0 0.000000000000000e0 0.000000000000000e0
      0.000000000000000e0 0.000000000000000e0 0.000000000000000e0 0.000000000000000e0
      0.000000000000000e0 0.000000000000000e0 0.000000000000000e0 0.000000000000000e0
      0.000000000000000e0 0.000000000000000e0 0.000000000000000e0 0.000000000000000e0
      0.000000000000000e0 0.000000000000000e0 0.000000000000000e0 0.000000000000000e0
      0.000000000000000e0 0.000000000000000e0 0.000000000000000e0 0.000000000000000e0
      0.000000000000000e0 0.000000000000000e0 0.000000000000000e0 0.000000000000000e0
      0.000000000000000e0 0.000000000000000e0 0.000000000000000e0 0.000000000000000e0
      0.000000000000000e0 0.000000000000000e0 0.000000000000000e0 0.000000000000000e0
      0.000000000000000e0 0.000000000000000e0 0.000000000000000e0 0.000000000000000e0
      0.000000000000000e0 0.000000000000000e0 0.000000000000000e0 0.000000000000000e0
      0.000000000000000e0 0.000000000000000e0 0.000000000000000e0 0.000000000000000e0
      0.000000000000000e0 0.000000000000000e0 0.000000000000000e0 0.000000000000000e0
      0.000000000000000e0 0.000000000000000e0 0.000000000000000e0 0.000000000000000e0
      0.000000000000000e0 0.000000000000000e0 0.000000000000000e0 0.000000000000000e0
      0.000000000000000e0 0.000000000000000e0 0.000000000000000e0 0.000000000000000e0
      0.000000000000000e0 0.000000000000000e0 0.000000000000000e0 0.000000000000000e0
      0.000000000000000e0 0.000000000000000e0 0.000000000000000e0 0.000000000000000e0
      0.000000000000000e0 0.000000000000000e0 0.000000000000000e0 0.000000000000000e0
      0.000000000000000e0 0.000000000000000e0 0.000000000000000e0 0.000000000000000e0
      0.000000000000000e0 0.000000000000000e0 0.000000000000000e0
      </PP_BETA.4>
    <PP_DIJ>
      6.172412701415240e-1 9.997793404640106e-1 0.000000000000000e0 0.000000000000000e0
      9.997793404640106e-1 1.563057201605580e0 0.000000000000000e0 0.000000000000000e0
      0.000000000000000e0 0.000000000000000e0 2.641217622495057e-1 4.346339326085030e-1
      0.000000000000000e0 0.000000000000000e0 4.346339326085030e-1 7.492103562103118e-1
      </PP_DIJ>
    <PP_AUGMENTATION q_with_l="true" nqf="0" nqlc="3" shape="PSQ" cutoff_r="-1.000000000000000e0" cutoff_r_index="835" augmentation_epsilon="1.000000000000000e-12" l_max_aug="2">
      <PP_Q>
        -3.173028014799478e-2 -3.569274029109836e-2 0.000000000000000e0 0.000000000000000e0
        -3.569274029109836e-2 -2.386277490773218e-2 0.000000000000000e0 0.000000000000000e0
        0.000000000000000e0 0.000000000000000e0 1.706320962319760e-3 -7.815830521887944e-3
        0.000000000000000e0 0.000000000000000e0 -7.815830521887944e-3 -3.305980349918238e-2
        </PP_Q>
      <!-- augmentation charge multipoles (only for PAW) -->
      <PP_MULTIPOLES>
        -3.173028014799478e-2 -3.569274029109836e-2 0.000000000000000e0 0.000000000000000e0
        -3.569274029109836e-2 -2.386277490773218e-2 0.000000000000000e0 0.000000000000000e0
        0.000000000000000e0 0.000000000000000e0 1.706320962319760e-3 -7.815830521887944e-3
        0.000000000000000e0 0.000000000000000e0 -7.815830521887944e-3 -3.305980349918238e-2
        0.000000000000000e0 0.000000000000000e0 2.177797818162931e-2 5.329798936881398e-2
        0.000000000000000e0 0.000000000000000e0 2.133961571332292e-2 4.949696370756492e-2
        2.177797818162931e-2 2.133961571332292e-2 0.000000000000000e0 0.000000000000000e0
        5.329798936881398e-2 4.949696370756492e-2 0.000000000000000e0 0.000000000000000e0
        0.000000000000000e0 0.000000000000000e0 0.000000000000000e0 0.000000000000000e0
        0.000000000000000e0 0.000000000000000e0 0.000000000000000e0 0.000000000000000e0
        0.000000000000000e0 0.000000000000000e0 -1.495852561539265e-2 -3.097161328416705e-2
        0.000000000000000e0 0.000000000000000e0 -3.097161328416705e-2 -6.214029079310576e-2
        </PP_MULTIPOLES>
      <PP_QIJL.1.1.0 first_index="1" second_index="1" composite_index="1" angular_momentum="0">
        2.117499975079129e-9 2.171104740978728e-9 2.226066517927261e-9 2.282419658819877e-9
        2.340199386199260e-9 2.399441814270830e-9 2.460183971475294e-9 2.522463823632624e-9
        2.586320297671887e-9 2.651793305961870e-9 2.718923771257557e-9 2.787753652278180e-9
        2.858325969932776e-9 2.930684834209617e-9 3.004875471746406e-9 3.080944254098332e-9
        3.158938726721812e-9 3.238907638691917e-9 3.320900973172098e-9 3.404969978655305e-9
        3.491167200995880e-9 3.579546516252443e-9 3.670163164362135e-9 3.763073783667351e-9
        3.858336446316532e-9 3.956010694561082e-9 4.056157577971210e-9 4.158839691593846e-9
        4.264121215076541e-9 4.372067952781832e-9 4.482747374917006e-9 4.596228659705190e-9
        4.712582736623911e-9 4.831882330738287e-9 4.954202008156533e-9 5.079618222636107e-9
        5.208209363369775e-9 5.340055803981337e-9 5.475239952761681e-9 5.613846304176637e-9
        5.755961491678615e-9 5.901674341855322e-9 6.051075929949167e-9 6.204259636782187e-9
        6.361321207122018e-9 6.522358809525373e-9 6.687473097696518e-9 6.856767273399011e-9
        7.030347150960051e-9 7.208321223407793e-9 7.390800730282877e-9 7.577899727166637e-9
        7.769735156969476e-9 7.966426923023784e-9 8.168097964027371e-9 8.374874330883936e-9
        8.586885265488849e-9 8.804263281509407e-9 9.027144247209968e-9 9.255667470373943e-9
        9.489975785375409e-9 9.730215642455097e-9 9.976537199256354e-9 1.022909441467831e-8
        1.048804514510502e-8 1.075355124307053e-8 1.102577865842180e-8 1.130489754204242e-8
        1.159108235220221e-8 1.188451196359906e-8 1.218536977916101e-8 1.249384384467887e-8
        1.281012696634048e-8 1.313441683124056e-8 1.346691613094127e-8 1.380783268816047e-8
        1.415737958666739e-8 1.451577530446641e-8 1.488324385035253e-8 1.526001490392361e-8
        1.564632395913712e-8 1.604241247150093e-8 1.644852800899039e-8 1.686492440678566e-8
        1.729186192592649e-8 1.772960741598302e-8 1.817843448184482e-8 1.863862365473216e-8
        1.911046256753631e-8 1.959424613459878e-8 2.009027673604140e-8 2.059886440676291e-8
        2.112032703021993e-8 2.165499053711345e-8 2.220318910910523e-8 2.276526538769088e-8
        2.334157068836105e-8 2.393246522018370e-8 2.453831831094524e-8 2.515950863799124e-8
        2.579642446491049e-8 2.644946388421102e-8 2.711903506613933e-8 2.780555651379844e-8
        2.850945732472434e-8 2.923117745908397e-8 2.997116801466285e-8 3.072989150881387e-8
        3.150782216754361e-8 3.230544622191695e-8 3.312326221196486e-8 3.396178129828575e-8
        3.482152758153500e-8 3.570303843000223e-8 3.660686481548122e-8 3.753357165764212e-8
        3.848373817712164e-8 3.945795825755152e-8 4.045684081675160e-8 4.148101018731992e-8
        4.253110650685684e-8 4.360778611806805e-8 4.471172197899574e-8 4.584360408363514e-8
        4.700413989319859e-8 4.819405477829664e-8 4.941409247231344e-8 5.066501553625878e-8
        5.194760583538800e-8 5.326266502788737e-8 5.461101506593000e-8 5.599349870941631e-8
        5.741098005271938e-8 5.886434506476491e-8 6.035450214278317e-8 6.188238268007834e-8
        6.344894164817148e-8 6.505515819367991e-8 6.670203625030635e-8 6.839060516632061e-8
        7.012192034792490e-8 7.189706391890666e-8 7.371714539698969e-8 7.558330238730657e-8
        7.749670129342690e-8 7.945853804638352e-8 8.147003885215490e-8 8.353246095806901e-8
        8.564709343860827e-8 8.781525800110742e-8 9.003830981184597e-8 9.231763834305372e-8
        9.465466824135710e-8 9.705086021821012e-8 9.950771196286613e-8 1.020267590784597e-7
        1.046095760417861e-7 1.072577771873765e-7 1.099730177164839e-7 1.127569947316116e-7
        1.156114482972290e-7 1.185381625273390e-7 1.215389667005769e-7 1.246157364035358e-7
        1.277703947030360e-7 1.310049133480666e-7 1.343213140021575e-7 1.377216695069426e-7
        1.412081051777128e-7 1.447828001317638e-7 1.484479886503666e-7 1.522059615752211e-7
        1.560590677402524e-7 1.600097154396561e-7 1.640603739331051e-7 1.682135749890547e-7
        1.724719144671222e-7 1.768380539405143e-7 1.813147223595300e-7 1.859047177571715e-7
        1.906109089979259e-7 1.954362375708243e-7 2.003837194278793e-7 2.054564468690666e-7
        2.106575904750212e-7 2.159904010886515e-7 2.214582118469244e-7 2.270644402640722e-7
        2.328125903675376e-7 2.387062548879876e-7 2.447491175047563e-7 2.509449551481385e-7
        2.572976403599501e-7 2.638111437138493e-7 2.704895362969215e-7 2.773369922540760e-7
        2.843577913968582e-7 2.915563218782888e-7 2.989370829354152e-7 3.065046877012874e-7
        3.142638660881028e-7 3.222194677433443e-7 3.303764650807340e-7 3.387399563879145e-7
        3.473151690127935e-7 3.561074626305347e-7 3.651223325932567e-7 3.743654133645073e-7
        3.838424820406797e-7 3.935594619615628e-7 4.035224264122733e-7 4.137376024189059e-7
        4.242113746402431e-7 4.349502893579799e-7 4.459610585679494e-7 4.572505641748908e-7
        4.688258622934132e-7 4.806941876578055e-7 4.928629581434718e-7 5.053397794028136e-7
        5.181324496184383e-7 5.312489643766955e-7 5.446975216645479e-7 5.584865269929271e-7
        5.726245986497707e-7 5.871205730859954e-7 6.019835104378219e-7 6.172227001888443e-7
        6.328476669754225e-7 6.488681765390108e-7 6.652942418291263e-7 6.821361292608035e-7
        6.994043651304017e-7 7.171097421938065e-7 7.352633264111273e-7 7.538764638620715e-7
        7.729607878363827e-7 7.925282261036899e-7 8.125910083673734e-7 8.331616739070752e-7
        8.542530794146117e-7 8.758784070282328e-7 8.980511725701822e-7 9.207852339927504e-7
        9.440948000380800e-7 9.679944391171194e-7 9.924990884132932e-7 1.017624063216550e-6
        1.043385066493634e-6 1.069798198700554e-6 1.096879967843358e-6 1.124647299793533e-6
        1.153117548864425e-6 1.182308508655318e-6 1.212238423169938e-6 1.242925998216297e-6
        1.274390413095030e-6 1.306651332583496e-6 1.339728919223143e-6 1.373643845917791e-6
        1.408417308850702e-6 1.444071040728523e-6 1.480627324360315e-6 1.518109006580217e-6
        1.556539512522369e-6 1.595942860257036e-6 1.636343675797071e-6 1.677767208484066e-6
        1.720239346763802e-6 1.763786634360847e-6 1.808436286862375e-6 1.854216208721597e-6
        1.901155010691353e-6 1.949282027698793e-6 1.998627337172293e-6 2.049221777831997e-6
        2.101096968955773e-6 2.154285330132544e-6 2.208820101515348e-6 2.264735364586767e-6
        2.322066063449628e-6 2.380848026656331e-6 2.441117989590346e-6 2.502913617413876e-6
        2.566273528596002e-6 2.631237319035943e-6 2.697845586796527e-6 2.766139957463221e-6
        2.836163110144624e-6 2.907958804130546e-6 2.981571906224328e-6 3.057048418766461e-6
        3.134435508366918e-6 3.213781535364149e-6 3.295136084029099e-6 3.378549993533019e-6
        3.464075389698445e-6 3.551765717553046e-6 3.641675774706688e-6 3.733861745572484e-6
        3.828381236453093e-6 3.925293311514244e-6 4.024658529667747e-6 4.126538982387059e-6
        4.230998332478938e-6 4.338101853835244e-6 4.447916472189773e-6 4.560510806905344e-6
        4.675955213817279e-6 4.794321829159870e-6 4.915684614603133e-6 5.040119403428011e-6
        5.167703947868558e-6 5.298517967650741e-6 5.432643199757945e-6 5.570163449454101e-6
        5.711164642596327e-6 5.855734879269388e-6 6.003964488775498e-6 6.155946086013582e-6
        6.311774629282969e-6 6.471547479547597e-6 6.635364461197355e-6 6.803327924344488e-6
        6.975542808693630e-6 7.152116709025278e-6 7.333159942333085e-6 7.518785616657055e-6
        7.709109701654995e-6 7.904251100956260e-6 8.104331726342615e-6 8.309476573802108e-6
        8.519813801503409e-6 8.735474809738697e-6 8.956594322884779e-6 9.183310473433339e-6
        9.415764888142148e-6 9.654102776360867e-6 9.898473020586058e-6 1.014902826930145e-5
        1.040592503216109e-5 1.066932377757397e-5 1.093938903275111e-5 1.121628948627631e-5
        1.150019809326459e-5 1.179129218317311e-5 1.208975357033103e-5 1.239576866725715e-5
        1.270952860083479e-5 1.303122933141607e-5 1.336107177492900e-5 1.369926192806261e-5
        1.404601099660777e-5 1.440153552703243e-5 1.476605754137284e-5 1.513980467552362e-5
        1.552301032101199e-5 1.591591377034367e-5 1.631876036600970e-5 1.673180165324615e-5
        1.715529553664072e-5 1.758950644068223e-5 1.803470547435219e-5 1.849117059985943e-5
        1.895918680562134e-5 1.943904628359824e-5 1.993104861108919e-5 2.043550093710172e-5
        2.095271817340861e-5 2.148302319040995e-5 2.202674701791977e-5 2.258422905100020e-5
        2.315581726096972e-5 2.374186841171387e-5 2.434274828143120e-5 2.495883188994971e-5
        2.559050373175244e-5 2.623815801485487e-5 2.690219890567938e-5 2.758304078007638e-5
        2.828110848064483e-5 2.899683758050858e-5 2.973067465370964e-5 3.048307755238206e-5
        3.125451569087514e-5 3.204547033699851e-5 3.285643491056557e-5 3.368791528941589e-5
        3.454043012310305e-5 3.541451115443613e-5 3.631070354907065e-5 3.722956623334753e-5
        3.817167224058322e-5 3.913760906602148e-5 4.012797903065906e-5 4.114339965416494e-5
        4.218450403711778e-5 4.325194125278987e-5 4.434637674871404e-5 4.546849275827366e-5
        4.661898872256169e-5 4.779858172276224e-5 4.900800692331147e-5 5.024801802610356e-5
        5.151938773601149e-5 5.282290823800038e-5 5.415939168611673e-5 5.552967070464319e-5
        5.693459890171729e-5 5.837505139571713e-5 5.985192535472549e-5 6.136614054939122e-5
        6.291863991951269e-5 6.451039015467808e-5 6.614238228930263e-5 6.781563231241234e-5
        6.953118179253137e-5 7.129009851803731e-5 7.309347715335976e-5 7.494243991140276e-5
        7.683813724258325e-5 7.878174854088458e-5 8.077448286733377e-5 8.281757969132151e-5
        8.491230965019145e-5 8.705997532753656e-5 8.926191205064942e-5 9.151948870758133e-5
        9.383410858428071e-5 9.620721022228482e-5 9.864026829745402e-5 1.011347945202472e-4
        1.036923385580456e-4 1.063144889800490e-4 1.090028742252717e-4 1.117591635941843e-4
        1.145850682645557e-4 1.174823423320583e-4 1.204527838762194e-4 1.234982360523069e-4
        1.266205882097515e-4 1.298217770377236e-4 1.331037877384882e-4 1.364686552291850e-4
        1.399184653726818e-4 1.434553562381724e-4 1.470815193921983e-4 1.507992012207870e-4
        1.546107042834170e-4 1.585183886995301e-4 1.625246735683264e-4 1.666320384225929e-4
        1.708430247173269e-4 1.751602373539370e-4 1.795863462408114e-4 1.841240878910608e-4
        1.887762670582618e-4 1.935457584110313e-4 1.984355082472903e-4 2.034485362490801e-4
        2.085879372788115e-4 2.138568832178490e-4 2.192586248483319e-4 2.247964937791686e-4
        2.304739044171399e-4 2.362943559840666e-4 2.422614345810176e-4 2.483788153005352e-4
        2.546502643878873e-4 2.610796414523536e-4 2.676709017295777e-4 2.744280983960276e-4
        2.813553849366164e-4 2.884570175665606e-4 2.957373577085502e-4 3.032008745263315e-4
        3.108521475158106e-4 3.186958691547870e-4 3.267368476124636e-4 3.349800095198616e-4
        3.434304028022969e-4 3.520931995750791e-4 3.609736991035975e-4 3.700773308289785e-4
        3.794096574604930e-4 3.889763781359038e-4 3.987833316509546e-4 4.088364997591830e-4
        4.191420105432794e-4 4.297061418591773e-4 4.405353248540838e-4 4.516361475596527e-4
        4.630153585614831e-4 4.746798707461550e-4 4.866367651269704e-4 4.988932947495767e-4
        5.114568886786457e-4 5.243351560667380e-4 5.375358903065102e-4 5.510670732673598e-4
        5.649368796176084e-4 5.791536812332934e-4 5.937260516945958e-4 6.086627708709290e-4
        6.239728295956488e-4 6.396654344313218e-4 6.557500125264486e-4 6.722362165644702e-4
        6.891339298058694e-4 7.064532712240807e-4 7.242046007358940e-4 7.423985245269515e-4
        7.610459004728554e-4 7.801578436563585e-4 7.997457319809810e-4 8.198212118813263e-4
        8.403962041302771e-4 8.614829097430988e-4 8.830938159784294e-4 9.052417024359436e-4
        9.279396472503830e-4 9.512010333814857e-4 9.750395549991843e-4 9.994692239633064e-4
        1.024504376396794e-3 1.050159679351293e-3 1.076450137563770e-3 1.103391100302546e-3
        1.130998268300995e-3 1.159287700776811e-3 1.188275822534568e-3 1.217979431148973e-3
        1.248415704225913e-3 1.279602206738138e-3 1.311556898432021e-3 1.344298141301521e-3
        1.377844707125112e-3 1.412215785060982e-3 1.447430989295482e-3 1.483510366739269e-3
        1.520474404765170e-3 1.558344038981278e-3 1.597140661032237e-3 1.636886126421201e-3
        1.677602762344235e-3 1.719313375528422e-3 1.762041260064221e-3 1.805810205221911e-3
        1.850644503241288e-3 1.896568957082968e-3 1.943608888128806e-3 1.991790143818173e-3
        2.041139105205803e-3 2.091682694426103e-3 2.143448382047711e-3 2.196464194301084e-3
        2.250758720160782e-3 2.306361118262898e-3 2.363301123636957e-3 2.421609054230202e-3
        2.481315817200882e-3 2.542452914955761e-3 2.605052450905470e-3 2.669147134909879e-3
        2.734770288383903e-3 2.801955849032493e-3 2.870738375181731e-3 2.941153049670980e-3
        3.013235683269182e-3 3.087022717576155e-3 3.162551227367644e-3 3.239858922340567e-3
        3.318984148212416e-3 3.399965887126435e-3 3.482843757311369e-3 3.567658011941961e-3
        3.654449537143481e-3 3.743259849080451e-3 3.834131090066822e-3 3.927106023631360e-3
        4.022228028468706e-3 4.119541091203000e-3 4.219089797887134e-3 4.320919324157058e-3
        4.425075423956265e-3 4.531604416741535e-3 4.640553173076650e-3 4.751969098516113e-3
        4.865900115676352e-3 4.982394644386837e-3 5.101501579808482e-3 5.223270268401458e-3
        5.347750481618841e-3 5.474992387197217e-3 5.605046517908940e-3 5.737963737635119e-3
        5.873795204611769e-3 6.012592331695037e-3 6.154406743484927e-3 6.299290230139610e-3
        6.447294697705461e-3 6.598472114780507e-3 6.752874455321136e-3 6.910553637394514e-3
        7.071561457670571e-3 7.235949521439512e-3 7.403769167932248e-3 7.575071390712244e-3
        7.749906752898841e-3 7.928325296972584e-3 8.110376448904189e-3 8.296108916339302e-3
        8.485570580561442e-3 8.678808381946380e-3 8.875868198610824e-3 9.076794717948871e-3
        9.281631300739557e-3 9.490419837498852e-3 9.703200596739768e-3 9.920012064793916e-3
        1.014089077683838e-2 1.036587113876181e-2 1.059498523949417e-2 1.082826265341527e-2
        1.106573023244811e-2 1.130741188743440e-2 1.155332835838127e-2 1.180349697316039e-2
        1.205793139423376e-2 1.231664135297352e-2 1.257963237113761e-2 1.284690546905848e-2
        1.311845686009745e-2 1.339427763091581e-2 1.367435340711114e-2 1.395866400376818e-2
        1.424718306047504e-2 1.453987766035846e-2 1.483670793269821e-2 1.513762663868743e-2
        1.544257873991599e-2 1.575150094916694e-2 1.606432126313081e-2 1.638095847666250e-2
        1.670132167822627e-2 1.702530972620107e-2 1.735281070574898e-2 1.768370136598238e-2
        1.801784653720700e-2 1.835509852806052e-2 1.869529650241777e-2 1.903826583599017e-2
        1.938381745260824e-2 1.973174714024830e-2 2.008183484693963e-2 2.043384395677549e-2
        2.078752054634565e-2 2.114259262201009e-2 2.149876933854963e-2 2.185574019985058e-2
        2.221317424241744e-2 2.257071920265515e-2 2.292800066902008e-2 2.328462122031532e-2
        2.364015955159032e-2 2.399416958930880e-2 2.434617959766731e-2 2.469569127817913e-2
        2.504217886489317e-2 2.538508821788442e-2 2.572383591794349e-2 2.605780836570084e-2
        2.638636088874915e-2 2.670881686067976e-2 2.702446683631856e-2 2.733256770784346e-2
        2.763234188688250e-2 2.792297651813201e-2 2.820362273050192e-2 2.847339493228189e-2
        2.873137015733860e-2 2.897658746989198e-2 2.920804743598024e-2 2.942471167031213e-2
        2.962550246781326e-2 2.980930252980631e-2 2.997495479541961e-2 3.012126238949036e-2
        3.024698869892213e-2 3.035085759016167e-2 3.043155378118098e-2 3.048772338207967e-2
        3.051797461915751e-2 3.052087875804410e-2 3.049497124220427e-2 3.043875306386131e-2
        3.035069238508576e-2 3.022922642747983e-2 3.007276364953736e-2 2.987968623136570e-2
        2.964835288701194e-2 2.937710202512390e-2 2.906425527909073e-2 2.870812142812590e-2
        2.830700073096958e-2 2.785918969397349e-2 2.736298629527394e-2 2.681669568654010e-2
        2.621863639337364e-2 2.556714703482228e-2 2.486059358161471e-2 2.409737717160858e-2
        2.327594249954090e-2 2.239478679643535e-2 2.145246941194601e-2 2.044762201044288e-2
        1.937895938875269e-2 1.824529092012264e-2 1.704553262512151e-2 1.577871986582006e-2
        1.444402065463678e-2 1.304074956367337e-2 1.156838221416228e-2 1.002657031874628e-2
        8.415157241711240e-3 6.734194033924831e-3 4.983955890097097e-3 3.164958966045326e-3
        1.277977482872965e-3 -6.759389666051909e-4 -2.695448006290786e-3 -4.778897070432825e-3
        -6.924306126854876e-3 -9.129350669012425e-3 -1.139134513164664e-2 -1.370722690100887e-2
        -1.607354110739579e-2 -1.848642640493706e-2 -2.094160196112264e-2 -2.343435589620726e-2
        -2.595953543025466e-2 -2.851153901290271e-2 -3.108431072767078e-2 -3.367133727851643e-2
        -3.626564788095450e-2 -3.885981739303736e-2 -4.144597303235810e-2 -4.401580503347867e-2
        -4.656058160527110e-2 -4.907116854892339e-2 -5.153805389418831e-2 -5.395137790309112e-2
        -5.630096877598212e-2 -5.857638437375529e-2 -6.076696024132724e-2 -6.286186418026723e-2
        -6.485015757183477e-2 -6.672086359471021e-2 -6.846304241352719e-2 -7.006587333399871e-2
        -7.151874382721958e-2 -7.281134521884201e-2 -7.393377471765639e-2 -7.487664332221852e-2
        -7.563118899324173e-2 -7.618939431353872e-2 -7.654410767660524e-2 -7.668916685013171e-2
        -7.661952355288354e-2 -7.633136746404350e-2 -7.582224785539784e-2 -7.509119080142225e-2
        -7.413880968387163e-2 -7.296740647016499e-2 -7.158106101383911e-2 -6.998570540667854e-2
        -6.818918021291673e-2 -6.620126924423417e-2 -6.403370939935062e-2 -6.170017200409532e-2
        -5.921621205821368e-2 -5.659918183619035e-2 -5.386810541416541e-2 -5.104351091754235e-2
        -4.814721761855989e-2 -4.520207547450947e-2 -4.223165530000030e-2 -3.925988852448845e-2
        -3.631065641196615e-2 -3.340732972413129e-2 -3.057226109976024e-2 -2.782623390628702e-2
        -2.518787299499603e-2 -2.267302465359943e-2 -2.029411508727757e-2 -1.805949895145446e-2
        -1.597281177733231e-2 -1.403234253438399e-2 -1.223044501057086e-2 -1.055678452866071e-2
        -9.011325131748126e-3 -7.596435068372820e-3 -6.313520475646872e-3 -5.162914397032092e-3
        -4.143768225856270e-3 -3.253954400360970e-3 -2.489987462761745e-3 -1.846968352678891e-3
        -1.318554566031027e-3 -8.969569450866244e-4 -5.729625458860133e-4 -3.359822584810268e-4
        -1.741215308542210e-4 -7.427252457564704e-5 -2.222616908093000e-5 -2.802771002508031e-6
        0.000000000000000e0 0.000000000000000e0 0.000000000000000e0 0.000000000000000e0
        0.000000000000000e0 0.000000000000000e0 0.000000000000000e0 0.000000000000000e0
        0.000000000000000e0 0.000000000000000e0 0.000000000000000e0 0.000000000000000e0
        0.000000000000000e0 0.000000000000000e0 0.000000000000000e0 0.000000000000000e0
        0.000000000000000e0 0.000000000000000e0 0.000000000000000e0 0.000000000000000e0
        0.000000000000000e0 0.000000000000000e0 0.000000000000000e0 0.000000000000000e0
        0.000000000000000e0 0.000000000000000e0 0.000000000000000e0 0.000000000000000e0
        0.000000000000000e0 0.000000000000000e0 0.000000000000000e0 0.000000000000000e0
        0.000000000000000e0 0.000000000000000e0 0.000000000000000e0 0.000000000000000e0
        0.000000000000000e0 0.000000000000000e0 0.000000000000000e0 0.000000000000000e0
        0.000000000000000e0 0.000000000000000e0 0.000000000000000e0 0.000000000000000e0
        0.000000000000000e0 0.000000000000000e0 0.000000000000000e0 0.000000000000000e0
        0.000000000000000e0 0.000000000000000e0 0.000000000000000e0 0.000000000000000e0
        0.000000000000000e0 0.000000000000000e0 0.000000000000000e0 0.000000000000000e0
        0.000000000000000e0 0.000000000000000e0 0.000000000000000e0 0.000000000000000e0
        0.000000000000000e0 0.000000000000000e0 0.000000000000000e0 0.000000000000000e0
        0.000000000000000e0 0.000000000000000e0 0.000000000000000e0 0.000000000000000e0
        0.000000000000000e0 0.000000000000000e0 0.000000000000000e0 0.000000000000000e0
        0.000000000000000e0 0.000000000000000e0 0.000000000000000e0 0.000000000000000e0
        0.000000000000000e0 0.000000000000000e0 0.000000000000000e0 0.000000000000000e0
        0.000000000000000e0 0.000000000000000e0 0.000000000000000e0 0.000000000000000e0
        0.000000000000000e0 0.000000000000000e0 0.000000000000000e0 0.000000000000000e0
        0.000000000000000e0 0.000000000000000e0 0.000000000000000e0 0.000000000000000e0
        0.000000000000000e0 0.000000000000000e0 0.000000000000000e0 0.000000000000000e0
        0.000000000000000e0 0.000000000000000e0 0.000000000000000e0 0.000000000000000e0
        0.000000000000000e0 0.000000000000000e0 0.000000000000000e0 0.000000000000000e0
        0.000000000000000e0 0.000000000000000e0 0.000000000000000e0 0.000000000000000e0
        0.000000000000000e0 0.000000000000000e0 0.000000000000000e0 0.000000000000000e0
        0.000000000000000e0 0.000000000000000e0 0.000000000000000e0 0.000000000000000e0
        0.000000000000000e0 0.000000000000000e0 0.000000000000000e0 0.000000000000000e0
        0.000000000000000e0 0.000000000000000e0 0.000000000000000e0 0.000000000000000e0
        0.000000000000000e0 0.000000000000000e0 0.000000000000000e0 0.000000000000000e0
        0.000000000000000e0 0.000000000000000e0 0.000000000000000e0 0.000000000000000e0
        0.000000000000000e0 0.000000000000000e0 0.000000000000000e0 0.000000000000000e0
        0.000000000000000e0 0.000000000000000e0 0.000000000000000e0 0.000000000000000e0
        0.000000000000000e0 0.000000000000000e0 0.000000000000000e0 0.000000000000000e0
        0.000000000000000e0 0.000000000000000e0 0.000000000000000e0 0.000000000000000e0
        0.000000000000000e0 0.000000000000000e0 0.000000000000000e0 0.000000000000000e0
        0.000000000000000e0 0.000000000000000e0 0.000000000000000e0 0.000000000000000e0
        0.000000000000000e0 0.000000000000000e0 0.000000000000000e0 0.000000000000000e0
        0.000000000000000e0 0.000000000000000e0 0.000000000000000e0 0.000000000000000e0
        0.000000000000000e0 0.000000000000000e0 0.000000000000000e0 0.000000000000000e0
        0.000000000000000e0 0.000000000000000e0 0.000000000000000e0 0.000000000000000e0
        0.000000000000000e0 0.000000000000000e0 0.000000000000000e0 0.000000000000000e0
        0.000000000000000e0 0.000000000000000e0 0.000000000000000e0 0.000000000000000e0
        0.000000000000000e0 0.000000000000000e0 0.000000000000000e0 0.000000000000000e0
        0.000000000000000e0 0.000000000000000e0 0.000000000000000e0 0.000000000000000e0
        0.000000000000000e0 0.000000000000000e0 0.000000000000000e0 0.000000000000000e0
        0.000000000000000e0 0.000000000000000e0 0.000000000000000e0 0.000000000000000e0
        0.000000000000000e0 0.000000000000000e0 0.000000000000000e0 0.000000000000000e0
        0.000000000000000e0 0.000000000000000e0 0.000000000000000e0 0.000000000000000e0
        0.000000000000000e0 0.000000000000000e0 0.000000000000000e0 0.000000000000000e0
        0.000000000000000e0 0.000000000000000e0 0.000000000000000e0 0.000000000000000e0
        0.000000000000000e0 0.000000000000000e0 0.000000000000000e0 0.000000000000000e0
        0.000000000000000e0 0.000000000000000e0 0.000000000000000e0 0.000000000000000e0
        0.000000000000000e0 0.000000000000000e0 0.000000000000000e0 0.000000000000000e0
        0.000000000000000e0 0.000000000000000e0 0.000000000000000e0 0.000000000000000e0
        0.000000000000000e0 0.000000000000000e0 0.000000000000000e0 0.000000000000000e0
        0.000000000000000e0 0.000000000000000e0 0.000000000000000e0 0.000000000000000e0
        0.000000000000000e0 0.000000000000000e0 0.000000000000000e0 0.000000000000000e0
        0.000000000000000e0 0.000000000000000e0 0.000000000000000e0 0.000000000000000e0
        0.000000000000000e0 0.000000000000000e0 0.000000000000000e0 0.000000000000000e0
        0.000000000000000e0 0.000000000000000e0 0.000000000000000e0 0.000000000000000e0
        0.000000000000000e0 0.000000000000000e0 0.000000000000000e0 0.000000000000000e0
        0.000000000000000e0 0.000000000000000e0 0.000000000000000e0 0.000000000000000e0
        0.000000000000000e0 0.000000000000000e0 0.000000000000000e0 0.000000000000000e0
        0.000000000000000e0 0.000000000000000e0 0.000000000000000e0 0.000000000000000e0
        0.000000000000000e0 0.000000000000000e0 0.000000000000000e0 0.000000000000000e0
        0.000000000000000e0 0.000000000000000e0 0.000000000000000e0 0.000000000000000e0
        0.000000000000000e0 0.000000000000000e0 0.000000000000000e0 0.000000000000000e0
        0.000000000000000e0 0.000000000000000e0 0.000000000000000e0 0.000000000000000e0
        0.000000000000000e0 0.000000000000000e0 0.000000000000000e0 0.000000000000000e0
        0.000000000000000e0 0.000000000000000e0 0.000000000000000e0 0.000000000000000e0
        0.000000000000000e0 0.000000000000000e0 0.000000000000000e0 0.000000000000000e0
        0.000000000000000e0 0.000000000000000e0 0.000000000000000e0 0.000000000000000e0
        0.000000000000000e0 0.000000000000000e0 0.000000000000000e0 0.000000000000000e0
        0.000000000000000e0 0.000000000000000e0 0.000000000000000e0 0.000000000000000e0
        0.000000000000000e0 0.000000000000000e0 0.000000000000000e0 0.000000000000000e0
        0.000000000000000e0 0.000000000000000e0 0.000000000000000e0 0.000000000000000e0
        0.000000000000000e0 0.000000000000000e0 0.000000000000000e0
        </PP_QIJL.1.1.0>
      <PP_QIJL.1.2.0 first_index="1" second_index="2" composite_index="2" angular_momentum="0">
        9.119410662721656e-9 9.350269637552536e-9 9.586972834888405e-9 9.829668201912636e-9
        1.007850743110874e-8 1.033364605507294e-8 1.059524354372710e-8 1.086346340399259e-8
        1.113847328198732e-8 1.142044506781001e-8 1.170955500297698e-8 1.200598379057876e-8
        1.230991670822537e-8 1.262154372385074e-8 1.294105961444884e-8 1.326866408781545e-8
        1.360456190737200e-8 1.394896302014928e-8 1.430208268801099e-8 1.466414162219951e-8
        1.503536612128723e-8 1.541598821262059e-8 1.580624579734452e-8 1.620638279909828e-8
        1.661664931647562e-8 1.703730177934426e-8 1.746860310912284e-8 1.791082288311516e-8
        1.836423750300465e-8 1.882913036761427e-8 1.930579205003966e-8 1.979452047926676e-8
        2.029562112638684e-8 2.080940719552562e-8 2.133619981960597e-8 2.187632826106602e-8
        2.243013011765874e-8 2.299795153346126e-8 2.358014741522585e-8 2.417708165420808e-8
        2.478912735361014e-8 2.541666706178236e-8 2.606009301132791e-8 2.671980736426064e-8
        2.739622246336921e-8 2.808976108994408e-8 2.880085672802931e-8 2.952995383536381e-8
        3.027750812118131e-8 3.104398683104318e-8 3.182986903888141e-8 3.263564594643494e-8
        3.346182119026620e-8 3.430891115654977e-8 3.517744530383000e-8 3.606796649394904e-8
        3.698103133135258e-8 3.791721051098497e-8 3.887708917499136e-8 3.986126727845006e-8
        4.087035996436278e-8 4.190499794813833e-8 4.296582791180939e-8 4.405351290822876e-8
        4.516873277549827e-8 4.631218456188812e-8 4.748458296151401e-8 4.868666076104299e-8
        4.991916929770753e-8 5.118287892891487e-8 5.247857951374353e-8 5.380708090663006e-8
        5.516921346355243e-8 5.656582856102812e-8 5.799779912825090e-8 5.946602019269751e-8
        6.097140943954749e-8 6.251490778526438e-8 6.409747996569691e-8 6.572011513906844e-8
        6.738382750423044e-8 6.908965693456754e-8 7.083866962794987e-8 7.263195877313850e-8
        7.447064523306174e-8 7.635587824538749e-8 7.828883614083139e-8 8.027072707964871e-8
        8.230278980677026e-8 8.438629442605517e-8 8.652254319414283e-8 8.871287133440209e-8
        9.095864787148516e-8 9.326127648700805e-8 9.562219639689342e-8 9.804288325092148e-8
        1.005248500550549e-7 1.030696481171112e-7 1.056788680163748e-7 1.083541405977562e-7
        1.110971379911150e-7 1.139095746563908e-7 1.167932084551884e-7 1.197498417494921e-7
        1.227813225281935e-7 1.258895455621354e-7 1.290764535883980e-7 1.323440385245638e-7
        1.356943427137217e-7 1.391294602009886e-7 1.426515380423450e-7 1.462627776466045e-7
        1.499654361513548e-7 1.537618278337300e-7 1.576543255568981e-7 1.616453622531623e-7
        1.657374324446112e-7 1.699330938022611e-7 1.742349687446682e-7 1.786457460770108e-7
        1.831681826716618e-7 1.878051051913071e-7 1.925594118556827e-7 1.974340742530370e-7
        2.024321391974510e-7 2.075567306331727e-7 2.128110515871625e-7 2.181983861710652e-7
        2.237221016338618e-7 2.293856504664848e-7 2.351925725597068e-7 2.411464974166611e-7
        2.472511464213674e-7 2.535103351646862e-7 2.599279758291547e-7 2.665080796341907e-7
        2.732547593431992e-7 2.801722318341444e-7 2.872648207351936e-7 2.945369591270841e-7
        3.019931923138949e-7 3.096381806639634e-7 3.174767025227170e-7 3.255136571992407e-7
        3.337540680284512e-7 3.422030855107833e-7 3.508659905313611e-7 3.597481976606578e-7
        3.688552585387099e-7 3.781928653450040e-7 3.877668543561961e-7 3.975832095938968e-7
        4.076480665647969e-7 4.179677160954713e-7 4.285486082642605e-7 4.393973564326789e-7
        4.505207413788840e-7 4.619257155357742e-7 4.736194073363747e-7 4.856091256692245e-7
        4.979023644465403e-7 5.105068072880323e-7 5.234303323232742e-7 5.366810171156498e-7
        5.502671437109431e-7 5.641972038137213e-7 5.784799040947695e-7 5.931241716328582e-7
        6.081391594942778e-7 6.235342524536124e-7 6.393190728593140e-7 6.555034866477840e-7
        6.720976095096683e-7 6.891118132122570e-7 7.065567320819365e-7 7.244432696507106e-7
        7.427826054710084e-7 7.615862021029617e-7 7.808658122785806e-7 8.006334862472785e-7
        8.209015793073194e-7 8.416827595279464e-7 8.629900156669500e-7 8.848366652886808e-7
        9.072363630875540e-7 9.302031094222292e-7 9.537512590658592e-7 9.778955301777955e-7
        1.002651013502419e-6 1.028033181800831e-6 1.054057899521251e-6 1.080741432714264e-6
        1.108100459198989e-6 1.136152078986630e-6 1.164913824967867e-6 1.194403673870746e-6
        1.224640057496004e-6 1.255641874236732e-6 1.287428500889665e-6 1.320019804765455e-6
        1.353436156105440e-6 1.387698440812787e-6 1.422828073505816e-6 1.458847010901790e-6
        1.495777765539463e-6 1.533643419848951e-6 1.572467640577803e-6 1.612274693582161e-6
        1.653089458992361e-6 1.694937446762393e-6 1.737844812612921e-6 1.781838374377913e-6
        1.826945628764958e-6 1.873194768539866e-6 1.920614700146239e-6 1.969235061770960e-6
        2.019086241867042e-6 2.070199398145219e-6 2.122606477046296e-6 2.176340233706364e-6
        2.231434252427299e-6 2.287922967665484e-6 2.345841685551675e-6 2.405226605955607e-6
        2.466114845109077e-6 2.528544458801551e-6 2.592554466162981e-6 2.658184874048453e-6
        2.725476702040087e-6 2.794472008081722e-6 2.865213914762355e-6 2.937746636264928e-6
        3.012115505997031e-6 3.088367004921030e-6 3.166548790601193e-6 3.246709726985889e-6
        3.328899914943703e-6 3.413170723572222e-6 3.499574822299306e-6 3.588166213796788e-6
        3.679000267727081e-6 3.772133755343996e-6 3.867624884969092e-6 3.965533338365950e-6
        4.065920308034954e-6 4.168848535451925e-6 4.274382350274466e-6 4.382587710540491e-6
        4.493532243884061e-6 4.607285289794295e-6 4.723917942943610e-6 4.843503097612547e-6
        4.966115493238718e-6 5.091831761118453e-6 5.220730472290259e-6 5.352892186629959e-6
        5.488399503188201e-6 5.627337111801736e-6 5.769791846010706e-6 5.915852737314980e-6
        6.065611070803321e-6 6.219160442190292e-6 6.376596816296264e-6 6.538018587007237e-6
        6.703526638751805e-6 6.873224409533579e-6 7.047217955558549e-6 7.225616017497573e-6
        7.408530088425436e-6 7.596074483478876e-6 7.788366411276915e-6 7.985526047148297e-6
        8.187676608211458e-6 8.394944430354057e-6 8.607459047160065e-6 8.825353270833524e-6
        9.048763275169687e-6 9.277828680625035e-6 9.512692641539447e-6 9.753501935564870e-6
        1.000040705535611e-5 1.025356230258125e-5 1.051312588430995e-5 1.077926001184003e-5
        1.105213100202387e-5 1.133190938115767e-5 1.161876999149861e-5 1.191289210047603e-5
        1.221445951266495e-5 1.252366068459166e-5 1.284068884244274e-5 1.316574210275131e-5
        1.349902359613524e-5 1.384074159416479e-5 1.419110963943859e-5 1.455034667894896e-5
        1.491867720081989e-5 1.529633137450248e-5 1.568354519451559e-5 1.608056062782108e-5
        1.648762576492516e-5 1.690499497480049e-5 1.733292906372496e-5 1.777169543813650e-5
        1.822156827160506e-5 1.868282867602561e-5 1.915576487713924e-5 1.964067239449083e-5
        2.013785422593601e-5 2.064762103681193e-5 2.117029135388923e-5 2.170619176422665e-5
        2.225565711905110e-5 2.281903074279068e-5 2.339666464739039e-5 2.398891975204360e-5
        2.459616610847647e-5 2.521878313192456e-5 2.585715983794610e-5 2.651169508521841e-5
        2.718279782446858e-5 2.787088735369334e-5 2.857639357982608e-5 2.929975728701424e-5
        3.004143041167300e-5 3.080187632448692e-5 3.158157011953333e-5 3.238099891070845e-5
        3.320066213563894e-5 3.404107186726824e-5 3.490275313331070e-5 3.578624424377145e-5
        3.669209712673574e-5 3.762087767263524e-5 3.857316608720518e-5 3.954955725335118e-5
        4.055066110214908e-5 4.157710299320900e-5 4.262952410463816e-5 4.370858183284417e-5
        4.481495020242702e-5 4.594932028641161e-5 4.711240063708337e-5 4.830491772769141e-5
        4.952761640529334e-5 5.078126035502189e-5 5.206663257605908e-5 5.338453586961373e-5
        5.473579333920285e-5 5.612124890354540e-5 5.754176782238663e-5 5.899823723557519e-5
        6.049156671572824e-5 6.202268883482322e-5 6.359255974506716e-5 6.520215977440063e-5
        6.685249403700322e-5 6.854459305917754e-5 7.027951342099579e-5 7.205833841410465e-5
        7.388217871609357e-5 7.575217308183873e-5 7.766948905225126e-5 7.963532368086243e-5
        8.165090427869275e-5 8.371748917786347e-5 8.583636851441611e-5 8.800886503082397e-5
        9.023633489868393e-5 9.252016856209538e-5 9.486179160224140e-5 9.726266562370014e-5
        9.972428916303208e-5 1.022481986201952e-4 1.048359692133587e-4 1.074892159576990e-4
        1.102095946687734e-4 1.129988029910852e-4 1.158585814524668e-4 1.187907145449227e-4
        1.217970318325907e-4 1.248794090874946e-4 1.280397694537803e-4 1.312800846411410e-4
        1.346023761481568e-4 1.380087165162909e-4 1.415012306153021e-4 1.450820969608509e-4
        1.487535490650991e-4 1.525178768211175e-4 1.563774279219388e-4 1.603346093151120e-4
        1.643918886936341e-4 1.685517960241606e-4 1.728169251134115e-4 1.771899352137149e-4
        1.816735526686561e-4 1.862705725998131e-4 1.909838606355960e-4 1.958163546832233e-4
        2.007710667448913e-4 2.058510847792292e-4 2.110595746091414e-4 2.163997818771818e-4
        2.218750340496195e-4 2.274887424703882e-4 2.332444044661419e-4 2.391456055036556e-4
        2.451960214008616e-4 2.513994205928169e-4 2.577596664539453e-4 2.642807196779225e-4
        2.709666407166016e-4 2.778215922794164e-4 2.848498418947247e-4 2.920557645345951e-4
        2.994438453045698e-4 3.070186821999705e-4 3.147849889303591e-4 3.227475978137897e-4
        3.309114627425346e-4 3.392816622220005e-4 3.478634024845897e-4 3.566620206803054e-4
        3.656829881459351e-4 3.749319137546888e-4 3.844145473482137e-4 3.941367832529402e-4
        4.041046638827733e-4 4.143243834301708e-4 4.248022916477048e-4 4.355448977222488e-4
        4.465588742439659e-4 4.578510612723470e-4 4.694284705015647e-4 4.812982895274831e-4
        4.934678862187008e-4 5.059448131940480e-4 5.187368124090329e-4 5.318518198537612e-4
        5.452979703649131e-4 5.590836025544263e-4 5.732172638575571e-4 5.877077157030972e-4
        6.025639388085207e-4 6.177951386029386e-4 6.334107507807738e-4 6.494204469891192e-4
        6.658341406518292e-4 6.826619929334248e-4 6.999144188459572e-4 7.176020935020606e-4
        7.357359585174363e-4 7.543272285661242e-4 7.733873980919435e-4 7.929282481795558e-4
        8.129618535886811e-4 8.335005899550142e-4 8.545571411615271e-4 8.761445068838249e-4
        8.982760103133367e-4 9.209653060621841e-4 9.442263882535864e-4 9.680735988017952e-4
        9.925216358855554e-4 1.017585562619173e-3 1.043280815925351e-3 1.069623215613953e-3
        1.096628973671015e-3 1.124314703762288e-3 1.152697430955698e-3 1.181794601667188e-3
        1.211624093834399e-3 1.242204227322779e-3 1.273553774568701e-3 1.305691971464249e-3
        1.338638528488407e-3 1.372413642089338e-3 1.407038006322636e-3 1.442532824750337e-3
        1.478919822605578e-3 1.516221259227846e-3 1.554459940773741e-3 1.593659233208252e-3
        1.633843075581543e-3 1.675035993596282e-3 1.717263113470566e-3 1.760550176101455e-3
        1.804923551534231e-3 1.850410253742412e-3 1.897037955723574e-3 1.944835004916028e-3
        1.993830438941349e-3 2.044054001677792e-3 2.095536159669492e-3 2.148308118876385e-3
        2.202401841769706e-3 2.257850064777790e-3 2.314686316086951e-3 2.372944933802007e-3
        2.432661084470974e-3 2.493870781978322e-3 2.556610906811044e-3 2.620919225701691e-3
        2.686834411652297e-3 2.754396064342978e-3 2.823644730928820e-3 2.894621927228338e-3
        2.967370159306750e-3 3.041932945456822e-3 3.118354838579944e-3 3.196681448969705e-3
        3.276959467499854e-3 3.359236689218324e-3 3.443562037348475e-3 3.529985587698286e-3
        3.618558593477952e-3 3.709333510525544e-3 3.802364022940216e-3 3.897705069121621e-3
        3.995412868213712e-3 4.095544946950437e-3 4.198160166900131e-3 4.303318752104706e-3
        4.411082317108941e-3 4.521513895374270e-3 4.634677968070717e-3 4.750640493239438e-3
        4.869468935317634e-3 4.991232295016170e-3 5.116001139539355e-3 5.243847633134997e-3
        5.374845567961476e-3 5.509070395257424e-3 5.646599256797900e-3 5.787511016619501e-3
        5.931886292995295e-3 6.079807490638453e-3 6.231358833111994e-3 6.386626395419710e-3
        6.545698136751616e-3 6.708663933354854e-3 6.875615611498689e-3 7.046646980500051e-3
        7.221853865773120e-3 7.401334141864025e-3 7.585187765428819e-3 7.773516808109595e-3
        7.966425489260902e-3 8.164020208474831e-3 8.366409577849771e-3 8.573704453944210e-3
        8.786017969352683e-3 9.003465563837333e-3 9.226165014943701e-3 9.454236468025170e-3
        9.687802465595471e-3 9.926987975923520e-3 1.017192042077993e-2 1.042272970223844e-2
        1.067954822843012e-2 1.094251093814165e-2 1.121175532414275e-2 1.148742145512118e-2
        1.176965199609620e-2 1.205859222717441e-2 1.235439006050381e-2 1.265719605527367e-2
        1.296716343059966e-2 1.328444807612428e-2 1.360920856015339e-2 1.394160613514015e-2
        1.428180474031671e-2 1.462997100126421e-2 1.498627422619966e-2 1.535088639874700e-2
        1.572398216694741e-2 1.610573882825084e-2 1.649633631021809e-2 1.689595714664837e-2
        1.730478644883311e-2 1.772301187162173e-2 1.815082357396901e-2 1.858841417361862e-2
        1.903597869555874e-2 1.949371451386955e-2 1.996182128656346e-2 2.044050088299957e-2
        2.092995730343533e-2 2.143039659025659e-2 2.194202673040709e-2 2.246505754851602e-2
        2.299970059019929e-2 2.354616899498791e-2 2.410467735831091e-2 2.467544158193672e-2
        2.525867871225027e-2 2.585460676571631e-2 2.646344454085304e-2 2.708541141601072e-2
        2.772072713222170e-2 2.836961156035866e-2 2.903228445180621e-2 2.970896517182183e-2
        3.039987241472805e-2 3.110522390004648e-2 3.182523604865106e-2 3.256012363798271e-2
        3.331009943533563e-2 3.407537380818794e-2 3.485615431051637e-2 3.565264524399783e-2
        3.646504719296466e-2 3.729355653194632e-2 3.813836490459167e-2 3.899965867273211e-2
        3.987761833430948e-2 4.077241790885678e-2 4.168422428918696e-2 4.261319655790877e-2
        4.355948526735753e-2 4.452323168149651e-2 4.550456697831332e-2 4.650361141120941e-2
        4.752047342785215e-2 4.855524874493593e-2 4.960801937727811e-2 5.067885261965509e-2
        5.176779997977276e-2 5.287489606075168e-2 5.400015739150334e-2 5.514358120337280e-2
        5.630514415142605e-2 5.748480097877490e-2 5.868248312234661e-2 5.989809725853381e-2
        6.113152378719416e-2 6.238261525251128e-2 6.365119469928555e-2 6.493705396328588e-2
        6.623995189437170e-2 6.755961251118736e-2 6.889572308633217e-2 7.024793216103703e-2
        7.161584748850959e-2 7.299903390527186e-2 7.439701112999177e-2 7.580925148950163e-2
        7.723517757192919e-2 7.867415980710230e-2 8.012551397466968e-2 8.158849864068124e-2
        8.306231252369907e-2 8.454609179188566e-2 8.603890729290706e-2 8.753976171893321e-2
        8.904758670949684e-2 9.056123989548396e-2 9.207950188810695e-2 9.360107321731137e-2
        9.512457122473622e-2 9.664852691706443e-2 9.817138178636178e-2 9.969148460484266e-2
        1.012070882023800e-1 1.027163462360368e-1 1.042173099619163e-1 1.057079250207102e-1
        1.071860282494973e-1 1.086493445335667e-1 1.100954837133614e-1 1.115219375630279e-1
        1.129260768585215e-1 1.143051485547829e-1 1.156562730931274e-1 1.169764418617182e-1
        1.182625148338011e-1 1.195112184102633e-1 1.207191434950648e-1 1.218827438341377e-1
        1.229983346504938e-1 1.240620916104927e-1 1.250700501585039e-1 1.260181052595549e-1
        1.269020115919631e-1 1.277173842344113e-1 1.284596998944312e-1 1.291242987277837e-1
        1.297063868007731e-1 1.302010392500706e-1 1.306032041971424e-1 1.309077074768560e-1
        1.311092582422455e-1 1.312024555097340e-1 1.311817957112975e-1 1.310416813220830e-1
        1.307764306338252e-1 1.303802887459901e-1 1.298474398478726e-1 1.291720208658356e-1
        1.283481365504332e-1 1.273698760782646e-1 1.262313312429769e-1 1.249266163088065e-1
        1.234498895983487e-1 1.217953768837716e-1 1.199573966473675e-1 1.179303872730727e-1
        1.157089362252462e-1 1.132878112645294e-1 1.106619937428404e-1 1.078267140104061e-1
        1.047774889570813e-1 1.015101616978749e-1 9.802094339855040e-2 9.430645722116530e-2
        9.036378435139824e-2 8.619051204934356e-2 8.178478364294469e-2 7.714535035836568e-2
        7.227162485414802e-2 6.716373629592293e-2 6.182258677566381e-2 5.624990884381750e-2
        5.044832388421643e-2 4.442140102029565e-2 3.817371619690820e-2 3.171091103499436e-2
        2.503975100650877e-2 1.816818242464366e-2 1.110538768954557e-2 3.861838172765544e-3
        -3.550655935026223e-3 -1.111889954869190e-2 -1.882827118217342e-2 -2.666268686865831e-2
        -3.460457042571004e-2 -4.263483104288830e-2 -5.073284922623299e-2 -5.887647218713930e-2
        -6.704201981150626e-2 -7.520430238697485e-2 -8.333665129992783e-2 -9.141096393800277e-2
        -9.939776404592331e-2 -1.072662787804983e-1 -1.149845336921304e-1 -1.225194668225682e-1
        -1.298370630492937e-1 -1.369025097227968e-1 -1.436803745312170e-1 -1.501348063842272e-1
        -1.562297599314117e-1 -1.619292441167552e-1 -1.671975949168851e-1 -1.719997721136874e-1
        -1.763016796089478e-1 -1.800705083974385e-1 -1.832751008734992e-1 -1.858863346531859e-1
        -1.878775235490611e-1 -1.892248327379124e-1 -1.899077045146358e-1 -1.899092903310434e-1
        -1.892168840807808e-1 -1.878223508171119e-1 -1.857225442872661e-1 -1.829197058459560e-1
        -1.794218364847172e-1 -1.752430328989571e-1 -1.704037777301089e-1 -1.649311733885917e-1
        -1.588591082102502e-1 -1.522283431542563e-1 -1.450865068473831e-1 -1.374879865550094e-1
        -1.294937026538294e-1 -1.211707544386289e-1 -1.125919256623147e-1 -1.038350391334167e-1
        -9.498215102842879e-2 -8.611857736807533e-2 -7.733174740567216e-2 -6.870988152838962e-2
        -6.034049471944756e-2 -5.230873070443707e-2 -4.469553663158482e-2 -3.757569352325779e-2
        -3.101572377715123e-2 -2.507170366190090e-2 -1.978701598948693e-2 -1.519008587244769e-2
        -1.129215056964250e-2 -8.085122733598460e-3 -5.539614695466364e-3 -3.603199513453614e-3
        -2.198992070245515e-3 -1.224640184942859e-3 -5.518211031084741e-4 -5.256598511441113e-5
        3.133869561920133e-4 5.626724020836582e-4 7.122464975345827e-4 7.791153114306559e-4
        7.800338382760453e-4 7.311794790944779e-4 6.478085046710651e-4 5.439076992534691e-4
        4.318558784495822e-4 3.221112577544635e-4 2.229409074756272e-4 1.402080288903373e-4
        7.723176588794733e-5 3.473289116026623e-5 1.087705699734376e-5 1.425389714843073e-6
        0.000000000000000e0 0.000000000000000e0 0.000000000000000e0 0.000000000000000e0
        0.000000000000000e0 0.000000000000000e0 0.000000000000000e0 0.000000000000000e0
        0.000000000000000e0 0.000000000000000e0 0.000000000000000e0 0.000000000000000e0
        0.000000000000000e0 0.000000000000000e0 0.000000000000000e0 0.000000000000000e0
        0.000000000000000e0 0.000000000000000e0 0.000000000000000e0 0.000000000000000e0
        0.000000000000000e0 0.000000000000000e0 0.000000000000000e0 0.000000000000000e0
        0.000000000000000e0 0.000000000000000e0 0.000000000000000e0 0.000000000000000e0
        0.000000000000000e0 0.000000000000000e0 0.000000000000000e0 0.000000000000000e0
        0.000000000000000e0 0.000000000000000e0 0.000000000000000e0 0.000000000000000e0
        0.000000000000000e0 0.000000000000000e0 0.000000000000000e0 0.000000000000000e0
        0.000000000000000e0 0.000000000000000e0 0.000000000000000e0 0.000000000000000e0
        0.000000000000000e0 0.000000000000000e0 0.000000000000000e0 0.000000000000000e0
        0.000000000000000e0 0.000000000000000e0 0.000000000000000e0 0.000000000000000e0
        0.000000000000000e0 0.000000000000000e0 0.000000000000000e0 0.000000000000000e0
        0.000000000000000e0 0.000000000000000e0 0.000000000000000e0 0.000000000000000e0
        0.000000000000000e0 0.000000000000000e0 0.000000000000000e0 0.000000000000000e0
        0.000000000000000e0 0.000000000000000e0 0.000000000000000e0 0.000000000000000e0
        0.000000000000000e0 0.000000000000000e0 0.000000000000000e0 0.000000000000000e0
        0.000000000000000e0 0.000000000000000e0 0.000000000000000e0 0.000000000000000e0
        0.000000000000000e0 0.000000000000000e0 0.000000000000000e0 0.000000000000000e0
        0.000000000000000e0 0.000000000000000e0 0.000000000000000e0 0.000000000000000e0
        0.000000000000000e0 0.000000000000000e0 0.000000000000000e0 0.000000000000000e0
        0.000000000000000e0 0.000000000000000e0 0.000000000000000e0 0.000000000000000e0
        0.000000000000000e0 0.000000000000000e0 0.000000000000000e0 0.000000000000000e0
        0.000000000000000e0 0.000000000000000e0 0.000000000000000e0 0.000000000000000e0
        0.000000000000000e0 0.000000000000000e0 0.000000000000000e0 0.000000000000000e0
        0.000000000000000e0 0.000000000000000e0 0.000000000000000e0 0.000000000000000e0
        0.000000000000000e0 0.000000000000000e0 0.000000000000000e0 0.000000000000000e0
        0.000000000000000e0 0.000000000000000e0 0.000000000000000e0 0.000000000000000e0
        0.000000000000000e0 0.000000000000000e0 0.000000000000000e0 0.000000000000000e0
        0.000000000000000e0 0.000000000000000e0 0.000000000000000e0 0.000000000000000e0
        0.000000000000000e0 0.000000000000000e0 0.000000000000000e0 0.000000000000000e0
        0.000000000000000e0 0.000000000000000e0 0.000000000000000e0 0.000000000000000e0
        0.000000000000000e0 0.000000000000000e0 0.000000000000000e0 0.000000000000000e0
        0.000000000000000e0 0.000000000000000e0 0.000000000000000e0 0.000000000000000e0
        0.000000000000000e0 0.000000000000000e0 0.000000000000000e0 0.000000000000000e0
        0.000000000000000e0 0.000000000000000e0 0.000000000000000e0 0.000000000000000e0
        0.000000000000000e0 0.000000000000000e0 0.000000000000000e0 0.000000000000000e0
        0.000000000000000e0 0.000000000000000e0 0.000000000000000e0 0.000000000000000e0
        0.000000000000000e0 0.000000000000000e0 0.000000000000000e0 0.000000000000000e0
        0.000000000000000e0 0.000000000000000e0 0.000000000000000e0 0.000000000000000e0
        0.000000000000000e0 0.000000000000000e0 0.000000000000000e0 0.000000000000000e0
        0.000000000000000e0 0.000000000000000e0 0.000000000000000e0 0.000000000000000e0
        0.000000000000000e0 0.000000000000000e0 0.000000000000000e0 0.000000000000000e0
        0.000000000000000e0 0.000000000000000e0 0.000000000000000e0 0.000000000000000e0
        0.000000000000000e0 0.000000000000000e0 0.000000000000000e0 0.000000000000000e0
        0.000000000000000e0 0.000000000000000e0 0.000000000000000e0 0.000000000000000e0
        0.000000000000000e0 0.000000000000000e0 0.000000000000000e0 0.000000000000000e0
        0.000000000000000e0 0.000000000000000e0 0.000000000000000e0 0.000000000000000e0
        0.000000000000000e0 0.000000000000000e0 0.000000000000000e0 0.000000000000000e0
        0.000000000000000e0 0.000000000000000e0 0.000000000000000e0 0.000000000000000e0
        0.000000000000000e0 0.000000000000000e0 0.000000000000000e0 0.000000000000000e0
        0.000000000000000e0 0.000000000000000e0 0.000000000000000e0 0.000000000000000e0
        0.000000000000000e0 0.000000000000000e0 0.000000000000000e0 0.000000000000000e0
        0.000000000000000e0 0.000000000000000e0 0.000000000000000e0 0.000000000000000e0
        0.000000000000000e0 0.000000000000000e0 0.000000000000000e0 0.000000000000000e0
        0.000000000000000e0 0.000000000000000e0 0.000000000000000e0 0.000000000000000e0
        0.000000000000000e0 0.000000000000000e0 0.000000000000000e0 0.000000000000000e0
        0.000000000000000e0 0.000000000000000e0 0.000000000000000e0 0.000000000000000e0
        0.000000000000000e0 0.000000000000000e0 0.000000000000000e0 0.000000000000000e0
        0.000000000000000e0 0.000000000000000e0 0.000000000000000e0 0.000000000000000e0
        0.000000000000000e0 0.000000000000000e0 0.000000000000000e0 0.000000000000000e0
        0.000000000000000e0 0.000000000000000e0 0.000000000000000e0 0.000000000000000e0
        0.000000000000000e0 0.000000000000000e0 0.000000000000000e0 0.000000000000000e0
        0.000000000000000e0 0.000000000000000e0 0.000000000000000e0 0.000000000000000e0
        0.000000000000000e0 0.000000000000000e0 0.000000000000000e0 0.000000000000000e0
        0.000000000000000e0 0.000000000000000e0 0.000000000000000e0 0.000000000000000e0
        0.000000000000000e0 0.000000000000000e0 0.000000000000000e0 0.000000000000000e0
        0.000000000000000e0 0.000000000000000e0 0.000000000000000e0 0.000000000000000e0
        0.000000000000000e0 0.000000000000000e0 0.000000000000000e0 0.000000000000000e0
        0.000000000000000e0 0.000000000000000e0 0.000000000000000e0 0.000000000000000e0
        0.000000000000000e0 0.000000000000000e0 0.000000000000000e0 0.000000000000000e0
        0.000000000000000e0 0.000000000000000e0 0.000000000000000e0 0.000000000000000e0
        0.000000000000000e0 0.000000000000000e0 0.000000000000000e0 0.000000000000000e0
        0.000000000000000e0 0.000000000000000e0 0.000000000000000e0 0.000000000000000e0
        0.000000000000000e0 0.000000000000000e0 0.000000000000000e0 0.000000000000000e0
        0.000000000000000e0 0.000000000000000e0 0.000000000000000e0 0.000000000000000e0
        0.000000000000000e0 0.000000000000000e0 0.000000000000000e0 0.000000000000000e0
        0.000000000000000e0 0.000000000000000e0 0.000000000000000e0 0.000000000000000e0
        0.000000000000000e0 0.000000000000000e0 0.000000000000000e0
        </PP_QIJL.1.2.0>
      <PP_QIJL.1.3.1 first_index="1" second_index="3" composite_index="4" angular_momentum="1">
        -1.012562867513474e-13 -1.051254916294504e-13 -1.091425465494685e-13 -1.133131011565398e-13
        -1.176430209800115e-13 -1.221383956828048e-13 -1.268055476260057e-13 -1.316510407607254e-13
        -1.366816898597367e-13 -1.419045701018698e-13 -1.473270270226456e-13 -1.529566868451431e-13
        -1.588014672056315e-13 -1.648695882890469e-13 -1.711695843899817e-13 -1.777103159154374e-13
        -1.845009818462305e-13 -1.915511326745724e-13 -1.988706838360177e-13 -2.064699296546799e-13
        -2.143595578213125e-13 -2.225506644246345e-13 -2.310547695570284e-13 -2.398838335165637e-13
        -2.490502736281345e-13 -2.585669817073599e-13 -2.684473421918210e-13 -2.787052509651267e-13
        -2.893551349002811e-13 -3.004119721498485e-13 -3.118913132114373e-13 -3.238093027981451e-13
        -3.361827025447125e-13 -3.490289145813264e-13 -3.623660060082263e-13 -3.762127343055266e-13
        -3.905885737140075e-13 -4.055137426239638e-13 -4.210092320106346e-13 -4.370968349562137e-13
        -4.537991772999426e-13 -4.711397494594164e-13 -4.891429394678372e-13 -5.078340672736894e-13
        -5.272394203510753e-13 -5.473862906707845e-13 -5.683030130841075e-13 -5.900190051733720e-13
        -6.125648086252395e-13 -6.359721321849676e-13 -6.602738962520274e-13 -6.855042791798159e-13
        -7.116987653445708e-13 -7.388941950510892e-13 -7.671288163454538e-13 -7.964423388076021e-13
        -8.268759893994437e-13 -8.584725704470236e-13 -8.912765198383049e-13 -9.253339735212391e-13
        -9.606928303899833e-13 -9.974028196505724e-13 -1.035515570760757e-12 -1.075084686042378e-12
        -1.116165816068409e-12 -1.158816737930676e-12 -1.203097436498350e-12 -1.249070188781478e-12
        -1.296799651518216e-12 -1.346352952108948e-12 -1.397799783025153e-12 -1.451212499825842e-12
        -1.506666222919391e-12 -1.564238943213876e-12 -1.624011631804555e-12 -1.686068353852660e-12
        -1.750496386815778e-12 -1.817386343196016e-12 -1.886832297978620e-12 -1.958931920940284e-12
        -2.033786614013184e-12 -2.111501653897994e-12 -2.192186340126411e-12 -2.275954148781425e-12
        -2.362922892091574e-12 -2.453214884123553e-12 -2.546957112806302e-12 -2.644281418528460e-12
        -2.745324679560345e-12 -2.850229004561335e-12 -2.959141932443238e-12 -3.072216639870888e-12
        -3.189612156691732e-12 -3.311493589597384e-12 -3.438032354331753e-12 -3.569406416772205e-12
        -3.705800543223013e-12 -3.847406560272924e-12 -3.994423624582394e-12 -4.147058502979974e-12
        -4.305525863261598e-12 -4.470048576101981e-12 -4.640858028502564e-12 -4.818194449216929e-12
        -5.002307246611370e-12 -5.193455359435681e-12 -5.391907620997609e-12 -5.597943137253148e-12
        -5.811851679344309e-12 -6.033934091136560e-12 -6.264502712328991e-12 -6.503881817732362e-12
        -6.752408073332789e-12 -7.010431009782440e-12 -7.278313513983332e-12 -7.556432339455256e-12
        -7.845178636206009e-12 -8.144958500848897e-12 -8.456193547741220e-12 -8.779321501947132e-12
        -9.114796814858547e-12 -9.463091303340255e-12 -9.824694813297794e-12 -1.020011590860165e-11
        -1.058988258633643e-11 -1.099454301938094e-11 -1.141466632736383e-11 -1.185084337707868e-11
        -1.230368761348456e-11 -1.277383592246061e-11 -1.326194952652791e-11 -1.376871491479873e-11
        -1.429484480846067e-11 -1.484107916315382e-11 -1.540818620965059e-11 -1.599696353430154e-11
        -1.660823920076729e-11 -1.724287291461375e-11 -1.790175723240844e-11 -1.858581881701893e-11
        -1.929601974087790e-11 -2.003335883904889e-11 -2.079887311399458e-11 -2.159363919402409e-11
        -2.241877484747003e-11 -2.327544055472468e-11 -2.416484114034679e-11 -2.508822746753376e-11
        -2.604689819734253e-11 -2.704220161513379e-11 -2.807553752680698e-11 -2.914835922749427e-11
        -3.026217554548162e-11 -3.141855296423131e-11 -3.261911782549095e-11 -3.386555861658633e-11
        -3.515962834511630e-11 -3.650314700438817e-11 -3.789800413306176e-11 -3.934616147260179e-11
        -4.084965572627528e-11 -4.241060142357558e-11 -4.403119389410003e-11 -4.571371235506452e-11
        -4.746052311679759e-11 -4.927408291071961e-11 -5.115694234449238e-11 -5.311174948919216e-11
        -5.514125360355665e-11 -5.724830900054046e-11 -5.943587906161611e-11 -6.170704040447134e-11
        -6.406498720995585e-11 -6.651303571437062e-11 -6.905462887341363e-11 -7.169334120433937e-11
        -7.443288381314927e-11 -7.727710961387304e-11 -8.023001874728987e-11 -8.329576420670616e-11
        -8.647865767869936e-11 -8.978317560705012e-11 -9.321396548838001e-11 -9.677585240835768e-11
        -1.004738458276623e-10 -1.043131466272442e-10 -1.082991544227999e-10 -1.124374751587373e-10
        -1.167339289923188e-10 -1.211945584790690e-10 -1.258256370709509e-10 -1.306336779392769e-10
        -1.356254431347454e-10 -1.408079530974983e-10 -1.461884965305684e-10 -1.517746406505984e-10
        -1.575742418302595e-10 -1.635954566473194e-10 -1.698467533559132e-10 -1.763369237961436e-10
        -1.830750957587526e-10 -1.900707458222714e-10 -1.973337126806782e-10 -2.048742109803266e-10
        -2.127028456855950e-10 -2.208306269934540e-10 -2.292689858179439e-10 -2.380297898663156e-10
        -2.471253603294612e-10 -2.565684892101001e-10 -2.663724573130775e-10 -2.765510529231025e-10
        -2.871185911961602e-10 -2.980899342918896e-10 -3.094805122752353e-10 -3.213063448167509e-10
        -3.335840637221030e-10 -3.463309363224205e-10 -3.595648897584102e-10 -3.733045361923812e-10
        -3.875691989836190e-10 -4.023789398639500e-10 -4.177545871516724e-10 -4.337177650435608e-10
        -4.502909240261317e-10 -4.674973724489044e-10 -4.853613093041171e-10 -5.039078582589264e-10
        -5.231631029879960e-10 -5.431541238561485e-10 -5.639090360026344e-10 -5.854570288806374e-10
        -6.078284073075379e-10 -6.310546340837215e-10 -6.551683742398482e-10 -6.802035409747598e-10
        -7.061953433487103e-10 -7.331803357988843e-10 -7.611964695469082e-10 -7.902831459706132e-10
        -8.204812720150720e-10 -8.518333177209001e-10 -8.843833759506248e-10 -9.181772243971739e-10
        -9.532623899616521e-10 -9.896882155909168e-10 -1.027505929668967e-9 -1.066768718059677e-9
        -1.107531798902214e-9 -1.149852500264291e-9 -1.193790340762428e-9 -1.239407113262621e-9
        -1.286766971779065e-9 -1.335936521693140e-9 -1.386984913419522e-9 -1.439983939651089e-9
        -1.495008136319381e-9 -1.552134887412547e-9 -1.611444533798168e-9 -1.673020486203979e-9
        -1.736949342515269e-9 -1.803321009554007e-9 -1.872228829510754e-9 -1.943769711207274e-9
        -2.018044266374285e-9 -2.095156951135994e-9 -2.175216212900350e-9 -2.258334642861470e-9
        -2.344629134328727e-9 -2.434221047105031e-9 -2.527236378145408e-9 -2.623805938735855e-9
        -2.724065538441467e-9 -2.828156176082526e-9 -2.936224238007009e-9 -3.048421703938180e-9
        -3.164906360686773e-9 -3.285842024028089e-9 -3.411398769055958e-9 -3.541753169337428e-9
        -3.677088545204259e-9 -3.817595221530404e-9 -3.963470795357662e-9 -4.114920413745859e-9
        -4.272157062238036e-9 -4.435401864346092e-9 -4.604884392477986e-9 -4.780842990743345e-9
        -4.963525110091397e-9 -5.153187656252189e-9 -5.350097350970079e-9 -5.554531107037421e-9
        -5.766776417655310e-9 -5.987131760668807e-9 -6.215907018244751e-9 -6.453423912581803e-9
        -6.700016458265416e-9 -6.956031431903096e-9 -7.221828859700174e-9 -7.497782523661320e-9
        -7.784280487128918e-9 -8.081725640397185e-9 -8.390536267168338e-9 -8.711146632647218e-9
        -9.044007594100481e-9 -9.389587234738229e-9 -9.748371521809128e-9 -1.012086498983319e-8
        -1.050759144993261e-8 -1.090909472625715e-8 -1.132593942053846e-8 -1.175871170584809e-8
        -1.220802015067366e-8 -1.267449657447144e-8 -1.315879693589703e-8 -1.366160225496180e-8
        -1.418361957041084e-8 -1.472558293366673e-8 -1.528825444073590e-8 -1.587242530352655e-8
        -1.647891696208295e-8 -1.710858223929859e-8 -1.776230653972944e-8 -1.844100909419145e-8
        -1.914564425188983e-8 -1.987720282189515e-8 -2.063671346584913e-8 -2.142524414385693e-8
        -2.224390361559546e-8 -2.309384299874566e-8 -2.397625738693689e-8 -2.489238752947476e-8
        -2.584352157521109e-8 -2.683099688300370e-8 -2.785620190130773e-8 -2.892057811953732e-8
        -3.002562209393551e-8 -3.117288755079750e-8 -3.236398756999802e-8 -3.360059685188753e-8
        -3.488445407073934e-8 -3.621736431804817e-8 -3.760120163911180e-8 -3.903791166645181e-8
        -4.052951435377032e-8 -4.207810681427812e-8 -4.368586626737441e-8 -4.535505309781417e-8
        -4.708801403165264e-8 -4.888718543342176e-8 -5.075509672916388e-8 -5.269437396012101e-8
        -5.470774347206596e-8 -5.679803574544620e-8 -5.896818937171194e-8 -6.122125518140267e-8
        -6.356040052977916e-8 -6.598891374600923e-8 -6.851020875214226e-8 -7.112782985834696e-8
        -7.384545674113268e-8 -7.666690961152800e-8 -7.959615458046143e-8 -8.263730922885822e-8
        -8.579464839025764e-8 -8.907261015405116e-8 -9.247580209774682e-8 -9.600900775699229e-8
        -9.967719334241206e-8 -1.034855147126659e-7 -1.074393246134914e-7 -1.115441801928587e-7
        -1.158058508027639e-7 -1.202303260985798e-7 -1.248238244472631e-7 -1.295928016562443e-7
        -1.345439600352456e-7 -1.396842578034290e-7 -1.450209188554274e-7 -1.505614428997477e-7
        -1.563136159834619e-7 -1.622855214183948e-7 -1.684855511237444e-7 -1.749224174009282e-7
        -1.816051651574356e-7 -1.885431845964306e-7 -1.957462243900845e-7 -2.032244053547616e-7
        -2.109882346475629e-7 -2.190486205034732e-7 -2.274168875342478e-7 -2.361047926101526e-7
        -2.451245413464687e-7 -2.544888052182619e-7 -2.642107393269590e-7 -2.743040008433976e-7
        -2.847827681535308e-7 -2.956617607328353e-7 -3.069562597777753e-7 -3.186821296225401e-7
        -3.308558399711198e-7 -3.434944889756813e-7 -3.566158271933655e-7 -3.702382824546610e-7
        -3.843809856782243e-7 -3.990637976680601e-7 -4.143073369298835e-7 -4.301330085457841e-7
        -4.465630341474113e-7 -4.636204830287877e-7 -4.813293044423663e-7 -4.997143611230539e-7
        -5.188014640869176e-7 -5.386174087525143e-7 -5.591900124350588e-7 -5.805481532657357e-7
        -6.027218105895912e-7 -6.257421068983556e-7 -6.496413513562437e-7 -6.744530849784740e-7
        -7.002121275260803e-7 -7.269546261805264e-7 -7.547181060668927e-7 -7.835415226939264e-7
        -8.134653163850091e-7 -8.445314687736801e-7 -8.767835614426851e-7 -9.102668367873822e-7
        -9.450282611866374e-7 -9.811165905693242e-7 -1.018582438466074e-6 -1.057478346639781e-6
        -1.097858858393294e-6 -1.139780594652718e-6 -1.183302332934059e-6 -1.228485089298605e-6
        -1.275392203411696e-6 -1.324089426820609e-6 -1.374645014572207e-6 -1.427129820297491e-6
        -1.481617394891099e-6 -1.538184088922354e-6 -1.596909158917511e-6 -1.657874877657544e-6
        -1.721166648643142e-6 -1.786873124883092e-6 -1.855086332166426e-6 -1.925901796988042e-6
        -1.999418679301002e-6 -2.075739910275734e-6 -2.154972335254187e-6 -2.237226862091845e-6
        -2.322618615089310e-6 -2.411267094722487e-6 -2.503296343385926e-6 -2.598835117375859e-6
        -2.698017065341611e-6 -2.800980913450645e-6 -2.907870657512524e-6 -3.018835762322857e-6
        -3.134031368495138e-6 -3.253618507056441e-6 -3.377764322097371e-6 -3.506642301772112e-6
        -3.640432517959384e-6 -3.779321874903985e-6 -3.923504367169448e-6 -4.073181347247931e-6
        -4.228561803180943e-6 -4.389862646561920e-6 -4.557309011300211e-6 -4.731134563545155e-6
        -4.911581823177070e-6 -5.098902497291790e-6 -5.293357826117239e-6 -5.495218941818009e-6
        -5.704767240657117e-6 -5.922294769005097e-6 -6.148104623700746e-6 -6.382511367285931e-6
        -6.625841458655321e-6 -6.878433699682485e-6 -7.140639698400136e-6 -7.412824349336540e-6
        -7.695366331626790e-6 -7.988658625540691e-6 -8.293109048094925e-6 -8.609140808432670e-6
        -8.937193083682368e-6 -9.277721616033439e-6 -9.631199331784206e-6 -9.998116983151624e-6
        -1.037898381365485e-5 -1.077432824790964e-5 -1.118469860670456e-5 -1.161066384825534e-5
        -1.205281433656316e-5 -1.251176263783517e-5 -1.298814434595771e-5 -1.348261893804137e-5
        -1.399587066109494e-5 -1.452860945091753e-5 -1.508157188433342e-5 -1.565552216592926e-5
        -1.625125315049429e-5 -1.686958740239760e-5 -1.751137829317817e-5 -1.817751113866400e-5
        -1.886890437697575e-5 -1.958651078881320e-5 -2.033131876146729e-5 -2.110435359804133e-5
        -2.190667887341259e-5 -2.273939783851295e-5 -2.360365487454700e-5 -2.450063699882399e-5
        -2.543157542392004e-5 -2.639774717194243e-5 -2.740047674571618e-5 -2.844113785876359e-5
        -2.952115522600182e-5 -3.064200641713914e-5 -3.180522377479332e-5 -3.301239639942743e-5
        -3.426517220323715e-5 -3.556526003519126e-5 -3.691443187947493e-5 -3.831452512964931e-5
        -3.976744494089211e-5 -4.127516666274519e-5 -4.283973835484994e-5 -4.446328338821244e-5
        -4.614800313459008e-5 -4.789617974666066e-5 -4.971017903167740e-5 -5.159245342138172e-5
        -5.354554504099145e-5 -5.557208888014451e-5 -5.767481606872159e-5 -5.985655726053408e-5
        -6.212024612790228e-5 -6.446892297020350e-5 -6.690573843951487e-5 -6.943395738651114e-5
        -7.205696282982800e-5 -7.477826005212878e-5 -7.760148082614807e-5 -8.053038777401147e-5
        -8.356887886315917e-5 -8.672099204220995e-5 -8.999091002011891e-5 -9.338296519198916e-5
        -9.690164471488636e-5 -1.005515957370076e-4 -1.043376307835209e-4 -1.082647333023796e-4
        -1.123380633733647e-4 -1.165629635835575e-4 -1.209449650723933e-4 -1.254897937493555e-4
        -1.302033766872901e-4 -1.350918486942010e-4 -1.401615590662790e-4 -1.454190785247560e-4
        -1.508712063390257e-4 -1.565249776382824e-4 -1.623876709137238e-4 -1.684668157131206e-4
        -1.747702005293158e-4 -1.813058808839027e-4 -1.880821876070248e-4 -1.951077353138927e-4
        -2.023914310781880e-4 -2.099424833021503e-4 -2.177704107826172e-4 -2.258850519718107e-4
        -2.342965744310820e-4 -2.430154844752194e-4 -2.520526370042591e-4 -2.614192455190103e-4
        -2.711268923157196e-4 -2.811875388544485e-4 -2.916135362948155e-4 -3.024176361917631e-4
        -3.136130013429161e-4 -3.252132167779625e-4 -3.372323008792217e-4 -3.496847166212061e-4
        -3.625853829155806e-4 -3.759496860463148e-4 -3.897934911782004e-4 -4.041331539200793e-4
        -4.189855319222475e-4 -4.343679964854238e-4 -4.502984441564800e-4 -4.667953082837951e-4
        -4.838775705025834e-4 -5.015647721178546e-4 -5.198770253498497e-4 -5.388350244037213e-4
        -5.584600563219972e-4 -5.787740115749378e-4 -5.997993943401982e-4 -6.215593324193537e-4
        -6.440775867346639e-4 -6.673785603451032e-4 -6.914873069159936e-4 -7.164295385716494e-4
        -7.422316330552434e-4 -7.689206401145188e-4 -7.965242870261690e-4 -8.250709831655032e-4
        -8.545898235214512e-4 -8.851105910501628e-4 -9.166637577530716e-4 -9.492804843577293e-4
        -9.829926184716159e-4 -1.017832691070631e-3 -1.053833911175140e-3 -1.091030158556970e-3
        -1.129455974311053e-3 -1.169146549115039e-3 -1.210137708989444e-3 -1.252465898359652e-3
        -1.296168160209289e-3 -1.341282113102146e-3 -1.387845924837112e-3 -1.435898282487065e-3
        -1.485478358558954e-3 -1.536625772997741e-3 -1.589380550741945e-3 -1.643783074523081e-3
        -1.699874032585154e-3 -1.757694360983930e-3 -1.817285180108579e-3 -1.878687725050771e-3
        -1.941943269428352e-3 -2.007093042252178e-3 -2.074178137406059e-3 -2.143239415290395e-3
        -2.214317396160720e-3 -2.287452144672725e-3 -2.362683145125164e-3 -2.440049166872591e-3
        -2.519588119359297e-3 -2.601336896206414e-3 -2.685331207764443e-3 -2.771605401523860e-3
        -2.860192269758251e-3 -2.951122843755752e-3 -3.044426173977706e-3 -3.140129095467297e-3
        -3.238255977815652e-3 -3.338828458980227e-3 -3.441865162238131e-3 -3.547381395548146e-3
        -3.655388832588313e-3 -3.765895174731470e-3 -3.878903793221044e-3 -3.994413350811624e-3
        -4.112417402146249e-3 -4.232903972154222e-3 -4.355855111769623e-3 -4.481246430294353e-3
        -4.609046603758022e-3 -4.739216858664016e-3 -4.871710430555523e-3 -5.006471996887974e-3
        -5.143437083758041e-3 -5.282531446111745e-3 -5.423670421139761e-3 -5.566758254665348e-3
        -5.711687400440777e-3 -5.858337792395031e-3 -6.006576090016309e-3 -6.156254897212748e-3
        -6.307211955172570e-3 -6.459269309941811e-3 -6.612232455658409e-3 -6.765889454622044e-3
        -6.920010035646882e-3 -7.074344672436618e-3 -7.228623644040938e-3 -7.382556079802793e-3
        -7.535828991585072e-3 -7.688106296478271e-3 -7.839027833637115e-3 -7.988208379375155e-3
        -8.135236665165703e-3 -8.279674403752992e-3 -8.421055329173758e-3 -8.558884257125252e-3
        -8.692636172791833e-3 -8.821755353961542e-3 -8.945654538022950e-3 -9.063714142234399e-3
        -9.175281547500262e-3 -9.279670456769818e-3 -9.376160340095707e-3 -9.463995979343862e-3
        -9.542387126535923e-3 -9.610508290822819e-3 -9.667498670129396e-3 -9.712462244570396e-3
        -9.744468049808559e-3 -9.762550649600049e-3 -9.765710827839314e-3 -9.752916521464455e-3
        -9.723104016602282e-3 -9.675179431304331e-3 -9.608020509134658e-3 -9.520478748697814e-3
        -9.411381894921293e-3 -9.279536818504614e-3 -9.123732810394282e-3 -8.942745318408360e-3
        -8.735340153185705e-3 -8.500278190440179e-3 -8.236320596017691e-3 -7.942234599448803e-3
        -7.616799840513433e-3 -7.258815311742907e-3 -6.867106917730981e-3 -6.440535669551948e-3
        -5.978006529444635e-3 -5.478477917152052e-3 -4.940971884854897e-3 -4.364584962446036e-3
        -3.748499668895469e-3 -3.091996678606643e-3 -2.394467623895672e-3 -1.655428505990038e-3
        -8.745336771957824e-4 -5.159034606829448e-5 8.134264544754476e-4 1.720358509186886e-3
        2.668848759888967e-3 3.658325444748179e-3 4.687986156289070e-3 5.756781954442393e-3
        6.863401689333287e-3 8.006256707810277e-3 9.183466137755582e-3 1.039284296484820e-2
        1.163188113742922e-2 1.289774395620988e-2 1.418725402643484e-2 1.549688507039175e-2
        1.682275591743029e-2 1.816062700638824e-2 1.950589975097956e-2 2.085361913162175e-2
        2.219847988664422e-2 2.353483668106382e-2 2.485671863122970e-2 2.615784855773333e-2
        2.743166732602004e-2 2.867136361306942e-2 2.986990940825110e-2 3.102010151583212e-2
        3.211460927451109e-2 3.314602864461849e-2 3.410694273517518e-2 3.498998874985196e-2
        3.578793122211468e-2 3.649374128479848e-2 3.710068157753987e-2 3.760239623674177e-2
        3.799300523726032e-2 3.826720216341890e-2 3.842035428047845e-2 3.844860355812530e-2
        3.834896706743229e-2 3.811943493546008e-2 3.775906380148396e-2 3.726806348104796e-2
        3.664787431506001e-2 3.590123246850348e-2 3.503222025583255e-2 3.404629841776284e-2
        3.295031716820190e-2 3.175250278292736e-2 3.046241652678047e-2 2.909088282798251e-2
        2.764988382171368e-2 2.615241771559405e-2 2.461231889235659e-2 2.304403827421145e-2
        2.146238324225875e-2 1.988221734370200e-2 1.831812113729378e-2 1.678401682706201e-2
        1.529276081411744e-2 1.385570994786999e-2 1.248226906486476e-2 1.117942933981664e-2
        9.951309002624866e-3 8.798710048248168e-3 7.718706621066302e-3 6.706527656863387e-3
        5.763373751340506e-3 4.891923429465233e-3 4.094343886362484e-3 3.372201867199304e-3
        2.726371776796771e-3 2.156946721612318e-3 1.663157263321946e-3 1.243301343552383e-3
        8.946874671814097e-4 6.135920598581146e-4 3.952310735812481e-4 2.337454214484946e-4
        1.221996256588476e-4 5.259307529953405e-5 1.588342410008270e-5 2.021840378674256e-6
        0.000000000000000e0 0.000000000000000e0 0.000000000000000e0 0.000000000000000e0
        0.000000000000000e0 0.000000000000000e0 0.000000000000000e0 0.000000000000000e0
        0.000000000000000e0 0.000000000000000e0 0.000000000000000e0 0.000000000000000e0
        0.000000000000000e0 0.000000000000000e0 0.000000000000000e0 0.000000000000000e0
        0.000000000000000e0 0.000000000000000e0 0.000000000000000e0 0.000000000000000e0
        0.000000000000000e0 0.000000000000000e0 0.000000000000000e0 0.000000000000000e0
        0.000000000000000e0 0.000000000000000e0 0.000000000000000e0 0.000000000000000e0
        0.000000000000000e0 0.000000000000000e0 0.000000000000000e0 0.000000000000000e0
        0.000000000000000e0 0.000000000000000e0 0.000000000000000e0 0.000000000000000e0
        0.000000000000000e0 0.000000000000000e0 0.000000000000000e0 0.000000000000000e0
        0.000000000000000e0 0.000000000000000e0 0.000000000000000e0 0.000000000000000e0
        0.000000000000000e0 0.000000000000000e0 0.000000000000000e0 0.000000000000000e0
        0.000000000000000e0 0.000000000000000e0 0.000000000000000e0 0.000000000000000e0
        0.000000000000000e0 0.000000000000000e0 0.000000000000000e0 0.000000000000000e0
        0.000000000000000e0 0.000000000000000e0 0.000000000000000e0 0.000000000000000e0
        0.000000000000000e0 0.000000000000000e0 0.000000000000000e0 0.000000000000000e0
        0.000000000000000e0 0.000000000000000e0 0.000000000000000e0 0.000000000000000e0
        0.000000000000000e0 0.000000000000000e0 0.000000000000000e0 0.000000000000000e0
        0.000000000000000e0 0.000000000000000e0 0.000000000000000e0 0.000000000000000e0
        0.000000000000000e0 0.000000000000000e0 0.000000000000000e0 0.000000000000000e0
        0.000000000000000e0 0.000000000000000e0 0.000000000000000e0 0.000000000000000e0
        0.000000000000000e0 0.000000000000000e0 0.000000000000000e0 0.000000000000000e0
        0.000000000000000e0 0.000000000000000e0 0.000000000000000e0 0.000000000000000e0
        0.000000000000000e0 0.000000000000000e0 0.000000000000000e0 0.000000000000000e0
        0.000000000000000e0 0.000000000000000e0 0.000000000000000e0 0.000000000000000e0
        0.000000000000000e0 0.000000000000000e0 0.000000000000000e0 0.000000000000000e0
        0.000000000000000e0 0.000000000000000e0 0.000000000000000e0 0.000000000000000e0
        0.000000000000000e0 0.000000000000000e0 0.000000000000000e0 0.000000000000000e0
        0.000000000000000e0 0.000000000000000e0 0.000000000000000e0 0.000000000000000e0
        0.000000000000000e0 0.000000000000000e0 0.000000000000000e0 0.000000000000000e0
        0.000000000000000e0 0.000000000000000e0 0.000000000000000e0 0.000000000000000e0
        0.000000000000000e0 0.000000000000000e0 0.000000000000000e0 0.000000000000000e0
        0.000000000000000e0 0.000000000000000e0 0.000000000000000e0 0.000000000000000e0
        0.000000000000000e0 0.000000000000000e0 0.000000000000000e0 0.000000000000000e0
        0.000000000000000e0 0.000000000000000e0 0.000000000000000e0 0.000000000000000e0
        0.000000000000000e0 0.000000000000000e0 0.000000000000000e0 0.000000000000000e0
        0.000000000000000e0 0.000000000000000e0 0.000000000000000e0 0.000000000000000e0
        0.000000000000000e0 0.000000000000000e0 0.000000000000000e0 0.000000000000000e0
        0.000000000000000e0 0.000000000000000e0 0.000000000000000e0 0.000000000000000e0
        0.000000000000000e0 0.000000000000000e0 0.000000000000000e0 0.000000000000000e0
        0.000000000000000e0 0.000000000000000e0 0.000000000000000e0 0.000000000000000e0
        0.000000000000000e0 0.000000000000000e0 0.000000000000000e0 0.000000000000000e0
        0.000000000000000e0 0.000000000000000e0 0.000000000000000e0 0.000000000000000e0
        0.000000000000000e0 0.000000000000000e0 0.000000000000000e0 0.000000000000000e0
        0.000000000000000e0 0.000000000000000e0 0.000000000000000e0 0.000000000000000e0
        0.000000000000000e0 0.000000000000000e0 0.000000000000000e0 0.000000000000000e0
        0.000000000000000e0 0.000000000000000e0 0.000000000000000e0 0.000000000000000e0
        0.000000000000000e0 0.000000000000000e0 0.000000000000000e0 0.000000000000000e0
        0.000000000000000e0 0.000000000000000e0 0.000000000000000e0 0.000000000000000e0
        0.000000000000000e0 0.000000000000000e0 0.000000000000000e0 0.000000000000000e0
        0.000000000000000e0 0.000000000000000e0 0.000000000000000e0 0.000000000000000e0
        0.000000000000000e0 0.000000000000000e0 0.000000000000000e0 0.000000000000000e0
        0.000000000000000e0 0.000000000000000e0 0.000000000000000e0 0.000000000000000e0
        0.000000000000000e0 0.000000000000000e0 0.000000000000000e0 0.000000000000000e0
        0.000000000000000e0 0.000000000000000e0 0.000000000000000e0 0.000000000000000e0
        0.000000000000000e0 0.000000000000000e0 0.000000000000000e0 0.000000000000000e0
        0.000000000000000e0 0.000000000000000e0 0.000000000000000e0 0.000000000000000e0
        0.000000000000000e0 0.000000000000000e0 0.000000000000000e0 0.000000000000000e0
        0.000000000000000e0 0.000000000000000e0 0.000000000000000e0 0.000000000000000e0
        0.000000000000000e0 0.000000000000000e0 0.000000000000000e0 0.000000000000000e0
        0.000000000000000e0 0.000000000000000e0 0.000000000000000e0 0.000000000000000e0
        0.000000000000000e0 0.000000000000000e0 0.000000000000000e0 0.000000000000000e0
        0.000000000000000e0 0.000000000000000e0 0.000000000000000e0 0.000000000000000e0
        0.000000000000000e0 0.000000000000000e0 0.000000000000000e0 0.000000000000000e0
        0.000000000000000e0 0.000000000000000e0 0.000000000000000e0 0.000000000000000e0
        0.000000000000000e0 0.000000000000000e0 0.000000000000000e0 0.000000000000000e0
        0.000000000000000e0 0.000000000000000e0 0.000000000000000e0 0.000000000000000e0
        0.000000000000000e0 0.000000000000000e0 0.000000000000000e0 0.000000000000000e0
        0.000000000000000e0 0.000000000000000e0 0.000000000000000e0 0.000000000000000e0
        0.000000000000000e0 0.000000000000000e0 0.000000000000000e0 0.000000000000000e0
        0.000000000000000e0 0.000000000000000e0 0.000000000000000e0 0.000000000000000e0
        0.000000000000000e0 0.000000000000000e0 0.000000000000000e0 0.000000000000000e0
        0.000000000000000e0 0.000000000000000e0 0.000000000000000e0 0.000000000000000e0
        0.000000000000000e0 0.000000000000000e0 0.000000000000000e0 0.000000000000000e0
        0.000000000000000e0 0.000000000000000e0 0.000000000000000e0 0.000000000000000e0
        0.000000000000000e0 0.000000000000000e0 0.000000000000000e0 0.000000000000000e0
        0.000000000000000e0 0.000000000000000e0 0.000000000000000e0 0.000000000000000e0
        0.000000000000000e0 0.000000000000000e0 0.000000000000000e0 0.000000000000000e0
        0.000000000000000e0 0.000000000000000e0 0.000000000000000e0 0.000000000000000e0
        0.000000000000000e0 0.000000000000000e0 0.000000000000000e0
        </PP_QIJL.1.3.1>
      <PP_QIJL.1.4.1 first_index="1" second_index="4" composite_index="7" angular_momentum="1">
        -1.948650203556111e-14 -2.023112014714259e-14 -2.100419160077792e-14 -2.180680365529377e-14
        -2.264008511583515e-14 -2.350520792143258e-14 -2.440338879323287e-14 -2.533589094571250e-14
        -2.630402586327936e-14 -2.730915514476266e-14 -2.835269241838354e-14 -2.943610532990064e-14
        -3.056091760672750e-14 -3.172871120092238e-14 -3.294112851406795e-14 -3.419987470716536e-14
        -3.550672009879661e-14 -3.686350265492340e-14 -3.827213057382664e-14 -3.973458496982254e-14
        -4.125292265952689e-14 -4.282927905458921e-14 -4.446587116496378e-14 -4.616500071694087e-14
        -4.792905739032554e-14 -4.976052217931227e-14 -5.166197088178885e-14 -5.363607772197111e-14
        -5.568561911146531e-14 -5.781347755405007e-14 -6.002264569966495e-14 -6.231623055331186e-14
        -6.469745784478564e-14 -6.716967656538062e-14 -6.973636367795435e-14 -7.240112900697076e-14
        -7.516772031540126e-14 -7.804002857562551e-14 -8.102209344174192e-14 -8.411810893098695e-14
        -8.733242932224991e-14 -9.066957527998518e-14 -9.413424021212647e-14 -9.773129687095288e-14
        -1.014658042061854e-13 -1.053430144799516e-13 -1.093683806536282e-13 -1.135475640569508e-13
        -1.178864423501708e-13 -1.223911177904651e-13 -1.270679258142187e-13 -1.319234439472538e-13
        -1.369645010555345e-13 -1.421981869493603e-13 -1.476318623545519e-13 -1.532731692646560e-13
        -1.591300416887268e-13 -1.652107168098009e-13 -1.715237465697572e-13 -1.780780096968593e-13
        -1.848827241928871e-13 -1.919474602974310e-13 -1.992821539475706e-13 -2.068971207518792e-13
        -2.148030704983939e-13 -2.230111222169657e-13 -2.315328198171704e-13 -2.403801483237714e-13
        -2.495655507325700e-13 -2.591019455103493e-13 -2.690027447635208e-13 -2.792818731010315e-13
        -2.899537872180542e-13 -3.010334962280074e-13 -3.125365827714998e-13 -3.244792249318845e-13
        -3.368782189882427e-13 -3.497510030378082e-13 -3.631156815210384e-13 -3.769910506838404e-13
        -3.913966250127452e-13 -4.063526646802240e-13 -4.218802040387364e-13 -4.380010812035856e-13
        -4.547379687661905e-13 -4.721144056809587e-13 -4.901548303706194e-13 -5.088846150965693e-13
        -5.283301016425578e-13 -5.485186383619292e-13 -5.694786186404793e-13 -5.912395208290601e-13
        -6.138319497020747e-13 -6.372876795001665e-13 -6.616396986176523e-13 -6.869222559975272e-13
        -7.131709092993005e-13 -7.404225749074235e-13 -7.687155798505946e-13 -7.980897157050165e-13
        -8.285862945573557e-13 -8.602482071061639e-13 -8.931199829834306e-13 -9.272478533811393e-13
        -9.626798160708647e-13 -9.994657029078923e-13 -1.037657249914753e-12 -1.077308170042791e-12
        -1.118474228714042e-12 -1.161213322249699e-12 -1.205585559295437e-12 -1.251653345358132e-12
        -1.299481470572865e-12 -1.349137200823623e-12 -1.400690372345874e-12 -1.454213489944017e-12
        -1.509781828961907e-12 -1.567473541149794e-12 -1.627369764576595e-12 -1.689554737742094e-12
        -1.754115918049484e-12 -1.821144104804981e-12 -1.890733566917340e-12 -1.962982175477027e-12
        -2.037991541401373e-12 -2.115867158339345e-12 -2.196718551036883e-12 -2.280659429371525e-12
        -2.367807848272818e-12 -2.458286373753572e-12 -2.552222255285297e-12 -2.649747604760382e-12
        -2.750999582292608e-12 -2.856120589117309e-12 -2.965258467862563e-12 -3.078566710472810e-12
        -3.196204674077630e-12 -3.318337805109044e-12 -3.445137871982552e-12 -3.576783206669259e-12
        -3.713458955498555e-12 -3.855357339544444e-12 -4.002677924961302e-12 -4.155627903649522e-12
        -4.314422384645692e-12 -4.479284696646940e-12 -4.650446702095110e-12 -4.828149123262337e-12
        -5.012641880796616e-12 -5.204184445203484e-12 -5.403046201758094e-12 -5.609506829360773e-12
        -5.823856693869113e-12 -6.046397256459279e-12 -6.277441497591418e-12 -6.517314357174642e-12
        -6.766353191551286e-12 -7.024908247942680e-12 -7.293343157023687e-12 -7.572035444318860e-12
        -7.861377061139128e-12 -8.161774935805891e-12 -8.473651545937509e-12 -8.797445512603106e-12
        -9.133612217179198e-12 -9.482624441776220e-12 -9.844973034136457e-12 -1.022116759793719e-11
        -1.061173720947072e-11 -1.101723116170899e-11 -1.143821973679811e-11 -1.187529500807092e-11
        -1.232907167270351e-11 -1.280018791618762e-11 -1.328930630983481e-11 -1.379711474257313e-11
        -1.432432738834846e-11 -1.487168571048892e-11 -1.543995950444618e-11 -1.602994798037934e-11
        -1.664248088710320e-11 -1.727841967898274e-11 -1.793865872741292e-11 -1.862412657858865e-11
        -1.933578725933338e-11 -2.007464163282092e-11 -2.084172880610000e-11 -2.163812759139702e-11
        -2.246495802325443e-11 -2.332338293363718e-11 -2.421460958722102e-11 -2.513989137916425e-11
        -2.610052959774742e-11 -2.709787525436171e-11 -2.813333098341797e-11 -2.920835301484695e-11
        -3.032445322196718e-11 -3.148320124759531e-11 -3.268622671139318e-11 -3.393522150155142e-11
        -3.523194215403289e-11 -3.657821232272338e-11 -3.797592534395804e-11 -3.942704689903334e-11
        -4.093361777844677e-11 -4.249775675174817e-11 -4.412166354704302e-11 -4.580762194432964e-11
        -4.755800298702600e-11 -4.937526831619682e-11 -5.126197363216959e-11 -5.322077228840822e-11
        -5.525441902269273e-11 -5.736577383085519e-11 -5.955780598851427e-11 -6.183359822646219e-11
        -6.419635106557829e-11 -6.664938731735753e-11 -6.919615675638331e-11 -7.184024097131446e-11
        -7.458535840120168e-11 -7.743536956421917e-11 -8.039428248615337e-11 -8.346625833628787e-11
        -8.665561727860206e-11 -8.996684454650671e-11 -9.340459674966318e-11 -9.697370842174085e-11
        -1.006791988183237e-10 -1.045262789745205e-10 -1.085203590321915e-10 -1.126670558471033e-10
        -1.169722008866885e-10 -1.214418484295232e-10 -1.260822840780395e-10 -1.309000335964364e-10
        -1.359018720862209e-10 -1.410948335122539e-10 -1.464862205927115e-10 -1.520836150668455e-10
        -1.578948883549742e-10 -1.639282126256949e-10 -1.701920722858512e-10 -1.766952759094200e-10
        -1.834469686220708e-10 -1.904566449587975e-10 -1.977341622127010e-10 -2.052897542936635e-10
        -2.131340461163991e-10 -2.212780685380951e-10 -2.297332738666193e-10 -2.385115519611029e-10
        -2.476252469474964e-10 -2.570871745726018e-10 -2.669106402209464e-10 -2.771094576198174e-10
        -2.876979682587286e-10 -2.986910615506021e-10 -3.101041957629837e-10 -3.219534197486889e-10
        -3.342553955064142e-10 -3.470274216029829e-10 -3.602874574901389e-10 -3.740541487500366e-10
        -3.883468533048717e-10 -4.031856686274744e-10 -4.185914599910702e-10 -4.345858897978741e-10
        -4.511914480277143e-10 -4.684314838494249e-10 -4.863302384394023e-10 -5.049128790533977e-10
        -5.242055343993913e-10 -5.442353313611877e-10 -5.650304331243171e-10 -5.866200787577300e-10
        -6.090346243068727e-10 -6.323055854558051e-10 -6.564656818182489e-10 -6.815488829197379e-10
        -7.075904559353723e-10 -7.346270152502089e-10 -7.626965739117990e-10 -7.918385970471008e-10
        -8.220940573186905e-10 -8.535054924980955e-10 -8.861170652370241e-10 -9.199746251203102e-10
        -9.551257730876694e-10 -9.916199283145911e-10 -1.029508397646176e-9 -1.068844447681308e-9
        -1.109683379608257e-9 -1.152082606896613e-9 -1.196101735954568e-9 -1.241802649864512e-9
        -1.289249595314481e-9 -1.338509272847175e-9 -1.389650930553169e-9 -1.442746461339568e-9
        -1.497870503910445e-9 -1.555100547600585e-9 -1.614517041209407e-9 -1.676203505987554e-9
        -1.740246652934485e-9 -1.806736504571292e-9 -1.875766521359415e-9 -1.947433732942189e-9
        -2.021838874393150e-9 -2.099086527661756e-9 -2.179285268414603e-9 -2.262547818477739e-9
        -2.348991204093398e-9 -2.438736920212658e-9 -2.531911101053999e-9 -2.628644697166287e-9
        -2.729073659244050e-9 -2.833339128952044e-9 -2.941587637026100e-9 -3.053971308927279e-9
        -3.170648078336776e-9 -3.291781908790312e-9 -3.417543023761502e-9 -3.548108145516016e-9
        -3.683660743070200e-9 -3.824391289600721e-9 -3.970497529664471e-9 -4.122184756602566e-9
        -4.279666100515136e-9 -4.443162827209552e-9 -4.612904648539052e-9 -4.789130044565033e-9
        -4.972086597992496e-9 -5.162031341345374e-9 -5.359231117365746e-9 -5.563962953139798e-9
        -5.776514448471888e-9 -5.997184179048363e-9 -6.226282114952715e-9 -6.464130055115423e-9
        -6.711062078303486e-9 -6.967425011277628e-9 -7.233578914769461e-9 -7.509897587954224e-9
        -7.796769092121949e-9 -8.094596294274908e-9 -8.403797431407670e-9 -8.724806696254312e-9
        -9.058074845316856e-9 -9.404069830019797e-9 -9.763277451867769e-9 -1.013620204251556e-8
        -1.052336716969515e-8 -1.092531636997903e-8 -1.134261390939667e-8 -1.177584557295868e-8
        -1.222561948418309e-8 -1.269256695576006e-8 -1.317734337253246e-8 -1.368062910801583e-8
        -1.420313047572598e-8 -1.474558071663013e-8 -1.530874102408808e-8 -1.589340160769930e-8
        -1.650038279752709e-8 -1.713053619022380e-8 -1.778474583863983e-8 -1.846392948655852e-8
        -1.916903985025858e-8 -1.990106594867169e-8 -2.066103448396805e-8 -2.145001127446942e-8
        -2.226910274185951e-8 -2.311945745476371e-8 -2.400226773075593e-8 -2.491877129903657e-8
        -2.587025302615478e-8 -2.685804670693590e-8 -2.788353692320966e-8 -2.894816097286647e-8
        -3.005341087203576e-8 -3.120083543263815e-8 -3.239204241876746e-8 -3.362870078450313e-8
        -3.491254299617530e-8 -3.624536744252103e-8 -3.762904093557393e-8 -3.906550130631680e-8
        -4.055676009799322e-8 -4.210490536111116e-8 -4.371210455397724e-8 -4.538060755235037e-8
        -4.711274977278638e-8 -4.891095541332144e-8 -5.077774081647258e-8 -5.271571795886993e-8
        -5.472759807171662e-8 -5.681619539817310e-8 -5.898443109147722e-8 -6.123533725955667e-8
        -6.357206116201658e-8 -6.599786956434961e-8 -6.851615325553205e-8 -7.113043173555342e-8
        -7.384435807820418e-8 -7.666172397630902e-8 -7.958646497612079e-8 -8.262266590738248e-8
        -8.577456651693250e-8 -8.904656731250862e-8 -9.244323562573678e-8 -9.596931190069800e-8
        -9.962971621815704e-8 -1.034295550624757e-7 -1.073741283415139e-7 -1.114689366674352e-7
        -1.157196889092679e-7 -1.201323100263534e-7 -1.247129491924854e-7 -1.294679882231491e-7
        -1.344040503144935e-7 -1.395280091072848e-7 -1.448469980867467e-7 -1.503684203304177e-7
        -1.560999586170710e-7 -1.620495859094116e-7 -1.682255762241712e-7 -1.746365159031624e-7
        -1.812913153007210e-7 -1.881992209010698e-7 -1.953698278821148e-7 -2.028130931414726e-7
        -2.105393488003690e-7 -2.185593162039224e-7 -2.268841204338703e-7 -2.355253053530108e-7
        -2.444948492000650e-7 -2.538051807536448e-7 -2.634691960866176e-7 -2.735002759301723e-7
        -2.839123036702413e-7 -2.947196839979172e-7 -3.059373622364792e-7 -3.175808443686154e-7
        -3.296662177885352e-7 -3.422101728045097e-7 -3.552300249145390e-7 -3.687437378881476e-7
        -3.827699476746070e-7 -3.973279871699376e-7 -4.124379118736828e-7 -4.281205264595806e-7
        -4.443974122974863e-7 -4.612909559541317e-7 -4.788243787077187e-7 -4.970217671107897e-7
        -5.159081046320901e-7 -5.355093044200573e-7 -5.558522432181285e-7 -5.769647964730264e-7
        -5.988758746770921e-7 -6.216154609765314e-7 -6.452146500995655e-7 -6.697056886332215e-7
        -6.951220166985197e-7 -7.214983110738505e-7 -7.488705297965531e-7 -7.772759583082061e-7
        -8.067532571744064e-7 -8.373425114405940e-7 -8.690852816640275e-7 -9.020246566828785e-7
        -9.362053081653553e-7 -9.716735469944039e-7 -1.008477381551502e-6 -1.046666577938794e-6
        -1.086292722209235e-6 -1.127409284657223e-6 -1.170071686228642e-6 -1.214337367107232e-6
        -1.260265857542997e-6 -1.307918850978753e-6 -1.357360279538185e-6 -1.408656391939466e-6
        -1.461875833896433e-6 -1.517089731069589e-6 -1.574371774632835e-6 -1.633798309521372e-6
        -1.695448425423130e-6 -1.759404050577756e-6 -1.825750048452984e-6 -1.894574317354690e-6
        -1.965967893045102e-6 -2.040025054417114e-6 -2.116843432307119e-6 -2.196524121489824e-6
        -2.279171795924384e-6 -2.364894827305816e-6 -2.453805406987088e-6 -2.546019671309709e-6
        -2.641657830411279e-6 -2.740844300546288e-6 -2.843707839972724e-6 -2.950381688438988e-6
        -3.061003710313832e-6 -3.175716541385446e-6 -3.294667739357358e-6 -3.418009938064255e-6
        -3.545901005410137e-6 -3.678504205048669e-6 -3.815988361786385e-6 -3.958528030706763e-6
        -4.106303669986954e-6 -4.259501817370027e-6 -4.418315270254971e-6 -4.582943269327947e-6
        -4.753591685678707e-6 -4.930473211288800e-6 -5.113807552798896e-6 -5.303821628420973e-6
        -5.500749767838519e-6 -5.704833914932347e-6 -5.916323833133884e-6 -6.135477313166728e-6
        -6.362560382951931e-6 -6.597847519366981e-6 -6.841621861547164e-6 -7.094175425391143e-6
        -7.355809318852455e-6 -7.626833957599820e-6 -7.907569280551097e-6 -8.198344964761107e-6
        -8.499500639070668e-6 -8.811386095876808e-6 -9.134361500323353e-6 -9.468797596139250e-6
        -9.815075907285104e-6 -1.017358893449909e-5 -1.054474034572459e-5 -1.092894515935441e-5
        -1.132662991909534e-5 -1.173823285918437e-5 -1.216420405854669e-5 -1.260500558241564e-5
        -1.306111160975603e-5 -1.353300854475424e-5 -1.402119511044125e-5 -1.452618242241684e-5
        -1.504849404043487e-5 -1.558866599546330e-5 -1.614724678963255e-5 -1.672479736629677e-5
        -1.732189104720884e-5 -1.793911343359961e-5 -1.857706226768691e-5 -1.923634725090467e-5
        -1.991758981485232e-5 -2.062142284067737e-5 -2.134849032228333e-5 -2.209944696843358e-5
        -2.287495773845573e-5 -2.367569730587108e-5 -2.450234944387629e-5 -2.535560632617933e-5
        -2.623616773620991e-5 -2.714474017726633e-5 -2.808203587563638e-5 -2.904877166814840e-5
        -3.004566776507636e-5 -3.107344637864429e-5 -3.213283020676334e-5 -3.322454076088404e-5
        -3.434929652613907e-5 -3.550781094113109e-5 -3.670079018390138e-5 -3.792893074968341e-5
        -3.919291680515368e-5 -4.049341730282433e-5 -4.183108283820609e-5 -4.320654223119393e-5
        -4.462039881198010e-5 -4.607322639048363e-5 -4.756556488695320e-5 -4.909791560000054e-5
        -5.067073608677520e-5 -5.228443462842857e-5 -5.393936425230072e-5 -5.563581628051638e-5
        -5.737401337272725e-5 -5.915410202884041e-5 -6.097614451534394e-5 -6.284011017676007e-5
        -6.474586609125417e-5 -6.669316702710876e-5 -6.868164465403254e-5 -7.071079596060004e-5
        -7.277997082617388e-5 -7.488835869264438e-5 -7.703497427807436e-5 -7.921864227094670e-5
        -8.143798094020163e-5 -8.369138459244587e-5 -8.597700480382414e-5 -8.829273034991099e-5
        -9.063616575261676e-5 -9.300460835861157e-5 -9.539502385895362e-5 -9.780402015463899e-5
        -1.002278194675971e-4 -1.026622285911001e-4 -1.051026071680027e-4 -1.075438338790482e-4
        -1.099802704174758e-4 -1.124057231194953e-4 -1.148134021135470e-4 -1.171958778441611e-4
        -1.195450348189606e-4 -1.218520224197197e-4 -1.241072026105571e-4 -1.263000943681049e-4
        -1.284193146501337e-4 -1.304525157103438e-4 -1.323863185579983e-4 -1.342062423518977e-4
        -1.358966295085509e-4 -1.374405662947084e-4 -1.388197986643489e-4 -1.400146430899875e-4
        -1.410038921277625e-4 -1.417647144451273e-4 -1.422725490292090e-4 -1.425009932830928e-4
        -1.424216847062945e-4 -1.420041758447659e-4 -1.412158021848612e-4 -1.400215426547867e-4
        -1.383838723864595e-4 -1.362626073801400e-4 -1.336147407041343e-4 -1.303942698520292e-4
        -1.265520148708501e-4 -1.220354268646365e-4 -1.167883864704564e-4 -1.107509918966115e-4
        -1.038593361071391e-4 -9.604527273192593e-5 -8.723617027866192e-5 -7.735465422124789e-5
        -6.631833653959620e-5 -5.403953228829642e-5 -4.042496277640272e-5 -2.537544494828460e-5
        -8.785566566111170e-6 9.456653191458088e-6 2.947011808177589e-5 5.138102444744676e-5
        7.532324648085654e-5 1.014387373907233e-4 1.298779467197655e-4 1.608002540186459e-4
        1.943744190304589e-4 2.307790484819610e-4 2.702030795108338e-4 3.128462796830366e-4
        3.589197634687553e-4 4.086465249496232e-4 4.622619864224596e-4 5.200145624446838e-4
        5.821662387335012e-4 6.489931651827768e-4 7.207862620981792e-4 7.978518385712094e-4
        8.805122217139926e-4 9.691063952601926e-4 1.063990645798863e-3 1.165539214648980e-3
        1.274144953099796e-3 1.390219978434347e-3 1.514196327821479e-3 1.646526606800297e-3
        1.787684628692887e-3 1.938166040861944e-3 2.098488933279235e-3 2.269194424388918e-3
        2.450847218732085e-3 2.644036130248162e-3 2.849374564581689e-3 3.067500953098383e-3
        3.299079130655112e-3 3.544798648468666e-3 3.805375012693808e-3 4.081549838548433e-3
        4.374090909013784e-3 4.683792126295534e-3 5.011473343352446e-3 5.357980061892414e-3
        5.724182982299631e-3 6.110977389995407e-3 6.519282361758012e-3 6.950039774532097e-3
        7.404213098260128e-3 7.882785953271232e-3 8.386760411773443e-3 8.917155022034027e-3
        9.475002532898946e-3 1.006134729542294e-2 1.067724231756602e-2 1.132374594717704e-2
        1.200191815786074e-2 1.271281641182033e-2 1.345749107342238e-2 1.423698034706565e-2
        1.505230471297829e-2 1.590446083486825e-2 1.679441491392336e-2 1.772309546456530e-2
        1.869138548863380e-2 1.970011402636036e-2 2.075004706465217e-2 2.184187778587195e-2
        2.297621614355330e-2 2.415357775537425e-2 2.537437210828618e-2 2.663889007604228e-2
        2.794729075552469e-2 2.929958763532797e-2 3.069563411806521e-2 3.213510842688373e-2
        3.361749793679669e-2 3.514208298267238e-2 3.670792020816753e-2 3.831382553356338e-2
        3.995835683539775e-2 4.163979644703057e-2 4.335613360680027e-2 4.510504699925258e-2
        4.688388755499311e-2 4.868966169596650e-2 5.051901523533910e-2 5.236821816448353e-2
        5.423315058371438e-2 5.610929005816314e-2 5.799170070524127e-2 5.987502434523693e-2
        6.175347407128891e-2 6.362083061887630e-2 6.547044193750113e-2 6.729522638781172e-2
        6.908768000535676e-2 7.083988828664534e-2 7.254354296338384e-2 7.418996423567505e-2
        7.577012893352178e-2 7.727470506705960e-2 7.869409320824460e-2 8.001847511897125e-2
        8.123787000135366e-2 8.234219869372929e-2 8.332135606937284e-2 8.416529181240271e-2
        8.486409964550928e-2 8.540811496549574e-2 8.578802070393124e-2 8.599496107036869e-2
        8.602066265368736e-2 8.585756215264293e-2 8.549893977947612e-2 8.493905713079281e-2
        8.417329804881478e-2 8.319831070517671e-2 8.201214883119068e-2 8.061440969638195e-2
        7.900636610566174e-2 7.719108935052159e-2 7.517355971825459e-2 7.296076084399996e-2
        7.056175389358903e-2 6.798772730251600e-2 6.525201758141851e-2 6.237009654644426e-2
        5.935952026062637e-2 5.623983499833985e-2 5.303243568870585e-2 4.976037257622236e-2
        4.644810227928375e-2 4.312118005096234e-2 3.980589087236481e-2 3.652881805631202e-2
        3.331634932498497e-2 3.019412186280578e-2 2.718640964339810e-2 2.431545838886050e-2
        2.160077583425336e-2 1.905838752377546e-2 1.670007112921948e-2 1.453258521372713e-2
        1.255691140674639e-2 1.076753203395119e-2 9.151768264339333e-3 7.693250617804736e-3
        6.386020414551052e-3 5.226424791485385e-3 4.209638511368796e-3 3.329654434692964e-3
        2.579299946979141e-3 1.950287149509789e-3 1.433301502869577e-3 1.018130391132049e-3
        6.938302734552648e-4 4.489289793402074e-4 2.716583191458288e-4 1.502114006021182e-4
        7.301867435480225e-5 2.903658867367542e-5 8.042668462715508e-6 9.307541233849470e-7
        0.000000000000000e0 0.000000000000000e0 0.000000000000000e0 0.000000000000000e0
        0.000000000000000e0 0.000000000000000e0 0.000000000000000e0 0.000000000000000e0
        0.000000000000000e0 0.000000000000000e0 0.000000000000000e0 0.000000000000000e0
        0.000000000000000e0 0.000000000000000e0 0.000000000000000e0 0.000000000000000e0
        0.000000000000000e0 0.000000000000000e0 0.000000000000000e0 0.000000000000000e0
        0.000000000000000e0 0.000000000000000e0 0.000000000000000e0 0.000000000000000e0
        0.000000000000000e0 0.000000000000000e0 0.000000000000000e0 0.000000000000000e0
        0.000000000000000e0 0.000000000000000e0 0.000000000000000e0 0.000000000000000e0
        0.000000000000000e0 0.000000000000000e0 0.000000000000000e0 0.000000000000000e0
        0.000000000000000e0 0.000000000000000e0 0.000000000000000e0 0.000000000000000e0
        0.000000000000000e0 0.000000000000000e0 0.000000000000000e0 0.000000000000000e0
        0.000000000000000e0 0.000000000000000e0 0.000000000000000e0 0.000000000000000e0
        0.000000000000000e0 0.000000000000000e0 0.000000000000000e0 0.000000000000000e0
        0.000000000000000e0 0.000000000000000e0 0.000000000000000e0 0.000000000000000e0
        0.000000000000000e0 0.000000000000000e0 0.000000000000000e0 0.000000000000000e0
        0.000000000000000e0 0.000000000000000e0 0.000000000000000e0 0.000000000000000e0
        0.000000000000000e0 0.000000000000000e0 0.000000000000000e0 0.000000000000000e0
        0.000000000000000e0 0.000000000000000e0 0.000000000000000e0 0.000000000000000e0
        0.000000000000000e0 0.000000000000000e0 0.000000000000000e0 0.000000000000000e0
        0.000000000000000e0 0.000000000000000e0 0.000000000000000e0 0.000000000000000e0
        0.000000000000000e0 0.000000000000000e0 0.000000000000000e0 0.000000000000000e0
        0.000000000000000e0 0.000000000000000e0 0.000000000000000e0 0.000000000000000e0
        0.000000000000000e0 0.000000000000000e0 0.000000000000000e0 0.000000000000000e0
        0.000000000000000e0 0.000000000000000e0 0.000000000000000e0 0.000000000000000e0
        0.000000000000000e0 0.000000000000000e0 0.000000000000000e0 0.000000000000000e0
        0.000000000000000e0 0.000000000000000e0 0.000000000000000e0 0.000000000000000e0
        0.000000000000000e0 0.000000000000000e0 0.000000000000000e0 0.000000000000000e0
        0.000000000000000e0 0.000000000000000e0 0.000000000000000e0 0.000000000000000e0
        0.000000000000000e0 0.000000000000000e0 0.000000000000000e0 0.000000000000000e0
        0.000000000000000e0 0.000000000000000e0 0.000000000000000e0 0.000000000000000e0
        0.000000000000000e0 0.000000000000000e0 0.000000000000000e0 0.000000000000000e0
        0.000000000000000e0 0.000000000000000e0 0.000000000000000e0 0.000000000000000e0
        0.000000000000000e0 0.000000000000000e0 0.000000000000000e0 0.000000000000000e0
        0.000000000000000e0 0.000000000000000e0 0.000000000000000e0 0.000000000000000e0
        0.000000000000000e0 0.000000000000000e0 0.000000000000000e0 0.000000000000000e0
        0.000000000000000e0 0.000000000000000e0 0.000000000000000e0 0.000000000000000e0
        0.000000000000000e0 0.000000000000000e0 0.000000000000000e0 0.000000000000000e0
        0.000000000000000e0 0.000000000000000e0 0.000000000000000e0 0.000000000000000e0
        0.000000000000000e0 0.000000000000000e0 0.000000000000000e0 0.000000000000000e0
        0.000000000000000e0 0.000000000000000e0 0.000000000000000e0 0.000000000000000e0
        0.000000000000000e0 0.000000000000000e0 0.000000000000000e0 0.000000000000000e0
        0.000000000000000e0 0.000000000000000e0 0.000000000000000e0 0.000000000000000e0
        0.000000000000000e0 0.000000000000000e0 0.000000000000000e0 0.000000000000000e0
        0.000000000000000e0 0.000000000000000e0 0.000000000000000e0 0.000000000000000e0
        0.000000000000000e0 0.000000000000000e0 0.000000000000000e0 0.000000000000000e0
        0.000000000000000e0 0.000000000000000e0 0.000000000000000e0 0.000000000000000e0
        0.000000000000000e0 0.000000000000000e0 0.000000000000000e0 0.000000000000000e0
        0.000000000000000e0 0.000000000000000e0 0.000000000000000e0 0.000000000000000e0
        0.000000000000000e0 0.000000000000000e0 0.000000000000000e0 0.000000000000000e0
        0.000000000000000e0 0.000000000000000e0 0.000000000000000e0 0.000000000000000e0
        0.000000000000000e0 0.000000000000000e0 0.000000000000000e0 0.000000000000000e0
        0.000000000000000e0 0.000000000000000e0 0.000000000000000e0 0.000000000000000e0
        0.000000000000000e0 0.000000000000000e0 0.000000000000000e0 0.000000000000000e0
        0.000000000000000e0 0.000000000000000e0 0.000000000000000e0 0.000000000000000e0
        0.000000000000000e0 0.000000000000000e0 0.000000000000000e0 0.000000000000000e0
        0.000000000000000e0 0.000000000000000e0 0.000000000000000e0 0.000000000000000e0
        0.000000000000000e0 0.000000000000000e0 0.000000000000000e0 0.000000000000000e0
        0.000000000000000e0 0.000000000000000e0 0.000000000000000e0 0.000000000000000e0
        0.000000000000000e0 0.000000000000000e0 0.000000000000000e0 0.000000000000000e0
        0.000000000000000e0 0.000000000000000e0 0.000000000000000e0 0.000000000000000e0
        0.000000000000000e0 0.000000000000000e0 0.000000000000000e0 0.000000000000000e0
        0.000000000000000e0 0.000000000000000e0 0.000000000000000e0 0.000000000000000e0
        0.000000000000000e0 0.000000000000000e0 0.000000000000000e0 0.000000000000000e0
        0.000000000000000e0 0.000000000000000e0 0.000000000000000e0 0.000000000000000e0
        0.000000000000000e0 0.000000000000000e0 0.000000000000000e0 0.000000000000000e0
        0.000000000000000e0 0.000000000000000e0 0.000000000000000e0 0.000000000000000e0
        0.000000000000000e0 0.000000000000000e0 0.000000000000000e0 0.000000000000000e0
        0.000000000000000e0 0.000000000000000e0 0.000000000000000e0 0.000000000000000e0
        0.000000000000000e0 0.000000000000000e0 0.000000000000000e0 0.000000000000000e0
        0.000000000000000e0 0.000000000000000e0 0.000000000000000e0 0.000000000000000e0
        0.000000000000000e0 0.000000000000000e0 0.000000000000000e0 0.000000000000000e0
        0.000000000000000e0 0.000000000000000e0 0.000000000000000e0 0.000000000000000e0
        0.000000000000000e0 0.000000000000000e0 0.000000000000000e0 0.000000000000000e0
        0.000000000000000e0 0.000000000000000e0 0.000000000000000e0 0.000000000000000e0
        0.000000000000000e0 0.000000000000000e0 0.000000000000000e0 0.000000000000000e0
        0.000000000000000e0 0.000000000000000e0 0.000000000000000e0 0.000000000000000e0
        0.000000000000000e0 0.000000000000000e0 0.000000000000000e0 0.000000000000000e0
        0.000000000000000e0 0.000000000000000e0 0.000000000000000e0 0.000000000000000e0
        0.000000000000000e0 0.000000000000000e0 0.000000000000000e0 0.000000000000000e0
        0.000000000000000e0 0.000000000000000e0 0.000000000000000e0
        </PP_QIJL.1.4.1>
      <PP_QIJL.2.2.0 first_index="2" second_index="2" composite_index="3" angular_momentum="0">
        -2.738304738029101e-9 -2.807625251409977e-9 -2.878700621885766e-9 -2.951575273872447e-9
        -3.026294756395306e-9 -3.102905771558532e-9 -3.181456203735544e-9 -3.261995149498280e-9
        -3.344572948304124e-9 -3.429241213959720e-9 -3.516052866881235e-9 -3.605062167171336e-9
        -3.696324748533519e-9 -3.789897653044949e-9 -3.885839366809618e-9 -3.984209856514023e-9
        -4.085070606908293e-9 -4.188484659236133e-9 -4.294516650637624e-9 -4.403232854549552e-9
        -4.514701222128387e-9 -4.628991424721983e-9 -4.746174897416394e-9 -4.866324883685102e-9
        -4.989516481168570e-9 -5.115826688612628e-9 -5.245334453995208e-9 -5.378120723871358e-9
        -5.514268493967410e-9 -5.653862861056034e-9 -5.796991076144378e-9 -5.943742599008806e-9
        -6.094209154110093e-9 -6.248484787924156e-9 -6.406665927724154e-9 -6.568851441850569e-9
        -6.735142701507107e-9 -6.905643644120950e-9 -7.080460838306956e-9 -7.259703550476504e-9
        -7.443483813132411e-9 -7.631916494892879e-9 -7.825119372288039e-9 -8.023213203374024e-9
        -8.226321803210672e-9 -8.434572121249790e-9 -8.648094320682663e-9 -8.867021859796179e-9
        -9.091491575388520e-9 -9.321643768296525e-9 -9.557622291088135e-9 -9.799574637974828e-9
        -1.004765203700021e-8 -1.030200954456231e-8 -1.056280614232882e-8 -1.083020483660555e-8
        -1.110437276022064e-8 -1.138548127698780e-8 -1.167370608881418e-8 -1.196922734551956e-8
        -1.227222975743569e-8 -1.258290271085609e-8 -1.290144038640841e-8 -1.322804188042350e-8
        -1.356291132937688e-8 -1.390625803748040e-8 -1.425829660750400e-8 -1.461924707490915e-8
        -1.498933504537790e-8 -1.536879183582362e-8 -1.575785461897113e-8 -1.615676657159719e-8
        -1.656577702652353e-8 -1.698514162845767e-8 -1.741512249377889e-8 -1.785598837436899e-8
        -1.830801482559066e-8 -1.877148437851813e-8 -1.924668671652787e-8 -1.973391885635967e-8
        -2.023348533376130e-8 -2.074569839383271e-8 -2.127087818618892e-8 -2.180935296506336e-8
        -2.236145929447694e-8 -2.292754225860082e-8 -2.350795567744459e-8 -2.410306232800474e-8
        -2.471323417101125e-8 -2.533885258341452e-8 -2.598030859675753e-8 -2.663800314158242e-8
        -2.731234729802432e-8 -2.800376255274887e-8 -2.871268106239429e-8 -2.943954592368208e-8
        -3.018481145036601e-8 -3.094894345719186e-8 -3.173241955104555e-8 -3.253572942947194e-8
        -3.335937518675030e-8 -3.420387162771815e-8 -3.506974658953977e-8 -3.595754127161995e-8
        -3.686781057386999e-8 -3.780112344353603e-8 -3.875806323080822e-8 -3.973922805343158e-8
        -4.074523117054723e-8 -4.177670136599730e-8 -4.283428334133299e-8 -4.391863811877196e-8
        -4.503044345435625e-8 -4.617039426156940e-8 -4.733920304567768e-8 -4.853760034906582e-8
        -4.976633520784719e-8 -5.102617562003285e-8 -5.231790902555176e-8 -5.364234279842344e-8
        -5.500030475138910e-8 -5.639264365331822e-8 -5.782022975971231e-8 -5.928395535663943e-8
        -6.078473531843748e-8 -6.232350767953575e-8 -6.390123422075240e-8 -6.551890107043380e-8
        -6.717751932081137e-8 -6.887812565996221e-8 -7.062178301976618e-8 -7.240958124026767e-8
        -7.424263775085405e-8 -7.612209826867897e-8 -7.804913751476608e-8 -8.002495994823986e-8
        -8.205080051914415e-8 -8.412792544031815e-8 -8.625763297881148e-8 -8.844125426733518e-8
        -9.068015413625215e-8 -9.297573196663144e-8 -9.532942256489607e-8 -9.774269705961242e-8
        -1.002170638209825e-7 -1.027540694036112e-7 -1.053552995131410e-7 -1.080223799973556e-7
        -1.107569778623736e-7 -1.135608023145672e-7 -1.164356058288549e-7 -1.193831852440392e-7
        -1.224053828858726e-7 -1.255040877185515e-7 -1.286812365253628e-7 -1.319388151192142e-7
        -1.352788595838123e-7 -1.387034575462578e-7 -1.422147494818571e-7 -1.458149300519650e-7
        -1.495062494756919e-7 -1.532910149363382e-7 -1.571715920234295e-7 -1.611504062112563e-7
        -1.652299443748445e-7 -1.694127563442968e-7 -1.737014564984876e-7 -1.780987253990957e-7
        -1.826073114660045e-7 -1.872300326951143e-7 -1.919697784196351e-7 -1.968295111159739e-7
        -2.018122682553265e-7 -2.069211642021491e-7 -2.121593921606851e-7 -2.175302261707629e-7
        -2.230370231541257e-7 -2.286832250125499e-7 -2.344723607790852e-7 -2.404080488237482e-7
        -2.464939991150468e-7 -2.527340155387626e-7 -2.591319982754200e-7 -2.656919462379467e-7
        -2.724179595710385e-7 -2.793142422137884e-7 -2.863851045271959e-7 -2.936349659881771e-7
        -3.010683579517788e-7 -3.086899264833134e-7 -3.165044352621785e-7 -3.245167685591974e-7
        -3.327319342893106e-7 -3.411550671415549e-7 -3.497914317882687e-7 -3.586464261755288e-7
        -3.677255848968928e-7 -3.770345826525283e-7 -3.865792377959131e-7 -3.963655159703166e-7
        -4.063995338373191e-7 -4.166875628997348e-7 -4.272360334212819e-7 -4.380515384454887e-7
        -4.491408379163271e-7 -4.605108629031431e-7 -4.721687199325513e-7 -4.841216954299643e-7
        -4.963772602735629e-7 -5.089430744635377e-7 -5.218269919095146e-7 -5.350370653391813e-7
        -5.485815513311448e-7 -5.624689154751968e-7 -5.767078376631998e-7 -5.913072175138836e-7
        -6.062761799349829e-7 -6.216240808261420e-7 -6.373605129261854e-7 -6.534953118083999e-7
        -6.700385620275555e-7 -6.870006034225420e-7 -7.043920375785191e-7 -7.222237344526472e-7
        -7.405068391675313e-7 -7.592527789766010e-7 -7.784732704058270e-7 -7.981803265761772e-7
        -8.183862647114321e-7 -8.391037138360367e-7 -8.603456226677753e-7 -8.821252677102549e-7
        -9.044562615501844e-7 -9.273525613646882e-7 -9.508284776439510e-7 -9.748986831346150e-7
        -9.995782220095839e-7 -1.024882519269879e-6 -1.050827390384490e-6 -1.077429051174212e-6
        -1.104704127945618e-6 -1.132669667881580e-6 -1.161343149694717e-6 -1.190742494550520e-6
        -1.220886077266928e-6 -1.251792737797357e-6 -1.283481793004379e-6 -1.315973048731355e-6
        -1.349286812179628e-6 -1.383443904598951e-6 -1.418465674299100e-6 -1.454374009990807e-6
        -1.491191354464322e-6 -1.528940718614166e-6 -1.567645695818832e-6 -1.607330476684401e-6
        -1.648019864161304e-6 -1.689739289043639e-6 -1.732514825860758e-6 -1.776373209171023e-6
        -1.821341850267905e-6 -1.867448854308888e-6 -1.914723037877823e-6 -1.963193946991751e-6
        -2.012891875563420e-6 -2.063847884330982e-6 -2.116093820266775e-6 -2.169662336477225e-6
        -2.224586912606338e-6 -2.280901875755521e-6 -2.338642421932752e-6 -2.397844638044562e-6
        -2.458545524444461e-6 -2.520783018051980e-6 -2.584596016056708e-6 -2.650024400222111e-6
        -2.717109061804353e-6 -2.785891927101613e-6 -2.856415983649884e-6 -2.928725307081623e-6
        -3.002865088663916e-6 -3.078881663533492e-6 -3.156822539646069e-6 -3.236736427458176e-6
        -3.318673270359959e-6 -3.402684275877940e-6 -3.488821947667225e-6 -3.577140118313080e-6
        -3.667693982962409e-6 -3.760540133806049e-6 -3.855736595433403e-6 -3.953342861081533e-6
        -4.053419929801217e-6 -4.156030344563230e-6 -4.261238231328623e-6 -4.369109339107275e-6
        -4.479711081029830e-6 -4.593112576458522e-6 -4.709384694163198e-6 -4.828600096589488e-6
        -4.950833285246628e-6 -5.076160647243365e-6 -5.204660503000811e-6 -5.336413155172122e-6
        -5.471500938799425e-6 -5.610008272739238e-6 -5.752021712388494e-6 -5.897630003743983e-6
        -6.046924138828912e-6 -6.199997412521165e-6 -6.356945480818517e-6 -6.517866420577376e-6
        -6.682860790761946e-6 -6.852031695242211e-6 -7.025484847179775e-6 -7.203328635041575e-6
        -7.385674190282733e-6 -7.572635456740548e-6 -7.764329261782907e-6 -7.960875389255455e-6
        -8.162396654272790e-6 -8.369018979900376e-6 -8.580871475774847e-6 -8.798086518711596e-6
        -9.020799835349841e-6 -9.249150586886703e-6 -9.483281455952620e-6 -9.723338735682692e-6
        -9.969472421038880e-6 -1.022183630244012e-5 -1.048058806175851e-5 -1.074588937074106e-5
        -1.101790599191856e-5 -1.129680788206399e-5 -1.158276929826476e-5 -1.187596890667503e-5
        -1.217658989401506e-5 -1.248482008188756e-5 -1.280085204398147e-5 -1.312488322623625e-5
        -1.345711607004127e-5 -1.379775813854650e-5 -1.414702224616335e-5 -1.450512659133559e-5
        -1.487229489266305e-5 -1.524875652846236e-5 -1.563474667985117e-5 -1.603050647744492e-5
        -1.643628315175687e-5 -1.685233018739447e-5 -1.727890748114816e-5 -1.771628150406965e-5
        -1.816472546764111e-5 -1.862451949413732e-5 -1.909595079128674e-5 -1.957931383133955e-5
        -2.007491053465299e-5 -2.058305045790846e-5 -2.110405098707593e-5 -2.163823753524548e-5
        -2.218594374544823e-5 -2.274751169859148e-5 -2.332329212663735e-5 -2.391364463115598e-5
        -2.451893790738833e-5 -2.513954997395720e-5 -2.577586840836751e-5 -2.642829058844204e-5
        -2.709722393984066e-5 -2.778308618981619e-5 -2.848630562736305e-5 -2.920732136991857e-5
        -2.994658363678201e-5 -3.070455402941879e-5 -3.148170581882279e-5 -3.227852424011357e-5
        -3.309550679454881e-5 -3.393316355913881e-5 -3.479201750405210e-5 -3.567260481800771e-5
        -3.657547524185359e-5 -3.750119241053539e-5 -3.845033420366595e-5 -3.942349310491000e-5
        -4.042127657040390e-5 -4.144430740643626e-5 -4.249322415662099e-5 -4.356868149879778e-5
        -4.467135065190520e-5 -4.580191979307230e-5 -4.696109448518532e-5 -4.814959811518928e-5
        -4.936817234339154e-5 -5.061757756404194e-5 -5.189859337746945e-5 -5.321201907406205e-5
        -5.455867413038558e-5 -5.593939871774118e-5 -5.735505422347140e-5 -5.880652378533123e-5
        -6.029471283924685e-5 -6.182054968079548e-5 -6.338498604074472e-5 -6.498899767500042e-5
        -6.663358496931917e-5 -6.831977355915044e-5 -7.004861496498290e-5 -7.182118724357576e-5
        -7.363859565547025e-5 -7.550197334918018e-5 -7.741248206247358e-5 -7.937131284116701e-5
        -8.137968677586169e-5 -8.343885575706480e-5 -8.555010324914653e-5 -8.771474508359516e-5
        -8.993413027204509e-5 -9.220964183956017e-5 -9.454269767867094e-5 -9.693475142467181e-5
        -9.938729335269915e-5 -1.019018512971221e-4 -1.044799915937894e-4 -1.071233200456914e-4
        -1.098334829126064e-4 -1.126121679253150e-4 -1.154611053249803e-4 -1.183820689283030e-4
        -1.213768772190791e-4 -1.244473944667982e-4 -1.275955318729365e-4 -1.308232487456154e-4
        -1.341325537033069e-4 -1.375255059082903e-4 -1.410042163305734e-4 -1.445708490430113e-4
        -1.482276225483725e-4 -1.519768111391160e-4 -1.558207462906655e-4 -1.597618180889781e-4
        -1.638024766932287e-4 -1.679452338344445e-4 -1.721926643509444e-4 -1.765474077614597e-4
        -1.810121698768267e-4 -1.855897244511643e-4 -1.902829148734713e-4 -1.950946559005894e-4
        -2.000279354325145e-4 -2.050858163310413e-4 -2.102714382827626e-4 -2.155880197074563e-4
        -2.210388597129187e-4 -2.266273400973273e-4 -2.323569274002335e-4 -2.382311750033127e-4
        -2.442537252820205e-4 -2.504283118093258e-4 -2.567587616127210e-4 -2.632489974857261e-4
        -2.699030403551317e-4 -2.767250117052554e-4 -2.837191360604956e-4 -2.908897435275131e-4
        -2.982412723983797e-4 -3.057782718160631e-4 -3.135054045036521e-4 -3.214274495587321e-4
        -3.295493053143732e-4 -3.378759922681990e-4 -3.464126560810372e-4 -3.551645706466877e-4
        -3.641371412343522e-4 -3.733359077053233e-4 -3.827665478055280e-4 -3.924348805355721e-4
        -4.023468695999474e-4 -4.125086269370851e-4 -4.229264163319851e-4 -4.336066571131567e-4
        -4.445559279356446e-4 -4.557809706519401e-4 -4.672886942725923e-4 -4.790861790183820e-4
        -4.911806804659227e-4 -5.035796337885915e-4 -5.162906580947211e-4 -5.293215608649840e-4
        -5.426803424909633e-4 -5.563752009168875e-4 -5.704145363865534e-4 -5.848069562974747e-4
        -5.995612801643027e-4 -6.146865446936158e-4 -6.301920089721522e-4 -6.460871597706025e-4
        -6.623817169651004e-4 -6.790856390785192e-4 -6.962091289437613e-4 -7.137626394911766e-4
        -7.317568796622855e-4 -7.502028204519851e-4 -7.691117010814058e-4 -7.884950353036118e-4
        -8.083646178443132e-4 -8.287325309797623e-4 -8.496111512540129e-4 -8.710131563376732e-4
        -8.929515320303230e-4 -9.154395794086936e-4 -9.384909221227243e-4 -9.621195138415716e-4
        -9.863396458515950e-4 -1.011165954808357e-3 -1.036613430644582e-3 -1.062697424635996e-3
        -1.089433657626936e-3 -1.116838228417497e-3 -1.144927622314003e-3 -1.173718719844444e-3
        -1.203228805640483e-3 -1.233475577487535e-3 -1.264477155544300e-3 -1.296252091733094e-3
        -1.328819379302120e-3 -1.362198462560764e-3 -1.396409246788834e-3 -1.431472108320493e-3
        -1.467407904803554e-3 -1.504237985634527e-3 -1.541984202569710e-3 -1.580668920512379e-3
        -1.620315028475897e-3 -1.660945950722394e-3 -1.702585658076353e-3 -1.745258679412224e-3
        -1.788990113314886e-3 -1.833805639911433e-3 -1.879731532872552e-3 -1.926794671581265e-3
        -1.975022553466570e-3 -2.024443306499042e-3 -2.075085701845055e-3 -2.126979166675891e-3
        -2.180153797127446e-3 -2.234640371405813e-3 -2.290470363033478e-3 -2.347675954230209e-3
        -2.406290049422288e-3 -2.466346288872954e-3 -2.527879062426300e-3 -2.590923523356196e-3
        -2.655515602310949e-3 -2.721692021343767e-3 -2.789490308018081e-3 -2.858948809576037e-3
        -2.930106707157427e-3 -3.003004030055335e-3 -3.077681669993832e-3 -3.154181395411808e-3
        -3.232545865735931e-3 -3.312818645624513e-3 -3.395044219162673e-3 -3.479268003987944e-3
        -3.565536365323938e-3 -3.653896629898163e-3 -3.744397099718641e-3 -3.837087065681979e-3
        -3.932016820984232e-3 -4.029237674303610e-3 -4.128801962722402e-3 -4.230763064353422e-3
        -4.335175410633926e-3 -4.442094498248031e-3 -4.551576900636050e-3 -4.663680279046738e-3
        -4.778463393085990e-3 -4.895986110712494e-3 -5.016309417628459e-3 -5.139495426010092e-3
        -5.265607382519687e-3 -5.394709675537847e-3 -5.526867841550792e-3 -5.662148570624477e-3
        -5.800619710893175e-3 -5.942350271986473e-3 -6.087410427314629e-3 -6.235871515127688e-3
        -6.387806038259834e-3 -6.543287662465358e-3 -6.702391213248188e-3 -6.865192671081726e-3
        -7.031769164910541e-3 -7.202198963820332e-3 -7.376561466756502e-3 -7.554937190166289e-3
        -7.737407753433063e-3 -7.924055861965106e-3 -8.114965287794927e-3 -8.310220847538073e-3
        -8.509908377553611e-3 -8.714114706141187e-3 -8.922927622601804e-3 -9.136435842982310e-3
        -9.354728972314902e-3 -9.577897463155182e-3 -9.806032570213686e-3 -1.003922630086681e-2
        -1.027757136132458e-2 -1.052116109822285e-2 -1.077008943539858e-2 -1.102445080559673e-2
        -1.128434007684744e-2 -1.154985247324223e-2 -1.182108348982718e-2 -1.209812880132082e-2
        -1.238108416435344e-2 -1.267004531291363e-2 -1.296510784667700e-2 -1.326636711188050e-2
        -1.357391807439475e-2 -1.388785518463514e-2 -1.420827223394124e-2 -1.453526220204268e-2
        -1.486891709521804e-2 -1.520932777474228e-2 -1.555658377520710e-2 -1.591077311228709e-2
        -1.627198207951489e-2 -1.664029503361711e-2 -1.701579416795346e-2 -1.739855927359195e-2
        -1.778866748754348e-2 -1.818619302767191e-2 -1.859120691378724e-2 -1.900377667442331e-2
        -1.942396603879605e-2 -1.985183461343293e-2 -2.028743754296251e-2 -2.073082515454977e-2
        -2.118204258546371e-2 -2.164112939326532e-2 -2.210811914810681e-2 -2.258303900664067e-2
        -2.306590926704332e-2 -2.355674290467044e-2 -2.405554508787558e-2 -2.456231267353825e-2
        -2.507703368187224e-2 -2.559968675010540e-2 -2.613024056465361e-2 -2.666865327144448e-2
        -2.721487186408234e-2 -2.776883154959304e-2 -2.833045509153249e-2 -2.889965213030071e-2
        -2.947631848056480e-2 -3.006033540576112e-2 -3.065156886972728e-2 -3.124986876559576e-2
        -3.185506812217653e-2 -3.246698228815987e-2 -3.308540809457963e-2 -3.371012299610576e-2
        -3.434088419186450e-2 -3.497742772663440e-2 -3.561946757342460e-2 -3.626669469861191e-2
        -3.691877611100346e-2 -3.757535389638791e-2 -3.823604423935762e-2 -3.890043643441620e-2
        -3.956809188863222e-2 -4.023854311837093e-2 -4.091129274291609e-2 -4.158581247810069e-2
        -4.226154213338829e-2 -4.293788861618673e-2 -4.361422494754505e-2 -4.428988929376281e-2
        -4.496418401885180e-2 -4.563637476321642e-2 -4.630568955436484e-2 -4.697131795594050e-2
        -4.763241026184854e-2 -4.828807674277068e-2 -4.893738695289462e-2 -4.957936910523566e-2
        -5.021300952450554e-2 -5.083725218706845e-2 -5.145099835813377e-2 -5.205310633695306e-2
        -5.264239132141789e-2 -5.321762540409730e-2 -5.377753771239316e-2 -5.432081470613892e-2
        -5.484610064660753e-2 -5.535199825152429e-2 -5.583706955129990e-2 -5.629983696229239e-2
        -5.673878459347397e-2 -5.715235980340916e-2 -5.753897502493115e-2 -5.789700987533179e-2
        -5.822481357023701e-2 -5.852070765961782e-2 -5.878298910457151e-2 -5.900993371358098e-2
        -5.919979995691307e-2 -5.935083317762356e-2 -5.946127021728643e-2 -5.952934447403353e-2
        -5.955329140975679e-2 -5.953135452237123e-2 -5.946179179783186e-2 -5.934288265512401e-2
        -5.917293539567263e-2 -5.895029516651996e-2 -5.867335244417040e-2 -5.834055204317306e-2
        -5.795040265027245e-2 -5.750148688128248e-2 -5.699247185369777e-2 -5.642212026341924e-2
        -5.578930194881910e-2 -5.509300591966931e-2 -5.433235282219226e-2 -5.350660780464550e-2
        -5.261519374039634e-2 -5.165770475738730e-2 -5.063392001421516e-2 -4.954381765376082e-2
        -4.838758885542604e-2 -4.716565189656512e-2 -4.587866612269754e-2 -4.452754571457779e-2
        -4.311347312825099e-2 -4.163791207192375e-2 -4.010261987089342e-2 -3.850965905906770e-2
        -3.686140802286198e-2 -3.516057051067642e-2 -3.341018380891790e-2 -3.161362537383451e-2
        -2.977461769756218e-2 -2.789723117698728e-2 -2.598588474563889e-2 -2.404534402219893e-2
        -2.208071672470426e-2 -2.009744509758493e-2 -1.810129509974007e-2 -1.609834210641670e-2
        -1.409495288624575e-2 -1.209776362791498e-2 -1.011365380924253e-2 -8.149715725381260e-3
        -6.213219523162270e-3 -4.311573625752984e-3 -2.452280476398286e-3 -6.428875826244747e-4
        1.109066096663249e-3 2.796108308808789e-3 4.410896018224857e-3 5.946281990344398e-3
        7.395385070657174e-3 8.751663673542078e-3 1.000899187944244e-2 1.116173741450522e-2
        1.220484065508404e-2 1.313389366176944e-2 1.394521810561307e-2 1.463594080508217e-2
        1.520406544872162e-2 1.564853893869531e-2 1.596931065813977e-2 1.616738284500680e-2
        1.624485015185601e-2 1.620492639060965e-2 1.605195640998143e-2 1.579141103814413e-2
        1.542986305181099e-2 1.497494221338057e-2 1.443526755863177e-2 1.382035532740906e-2
        1.314050121759549e-2 1.240663601701242e-2 1.163015413678428e-2 1.082271514032789e-2
        9.996019040313289e-3 9.161556925708913e-3 8.330339383923974e-3 7.512606197631708e-3
        6.717521916795574e-3 5.952863123909018e-3 5.224704509305331e-3 4.537112232188372e-3
        3.891854433392995e-3 3.288140151545951e-3 2.722399230543324e-3 2.192038450811465e-3
        1.706885144080031e-3 1.276999365819487e-3 9.087393031548610e-4 6.049058751191049e-4
        3.649948497027617e-4 1.855580393618529e-4 6.067092882852025e-5 -1.750231751476704e-5
        -5.806347443054445e-5 -7.068013373147732e-5 -6.486488323107116e-5 -4.927522461070644e-5
        -3.108138923803988e-5 -1.545271141230320e-5 -5.214032760200715e-6 -7.213283203799659e-7
        0.000000000000000e0 0.000000000000000e0 0.000000000000000e0 0.000000000000000e0
        0.000000000000000e0 0.000000000000000e0 0.000000000000000e0 0.000000000000000e0
        0.000000000000000e0 0.000000000000000e0 0.000000000000000e0 0.000000000000000e0
        0.000000000000000e0 0.000000000000000e0 0.000000000000000e0 0.000000000000000e0
        0.000000000000000e0 0.000000000000000e0 0.000000000000000e0 0.000000000000000e0
        0.000000000000000e0 0.000000000000000e0 0.000000000000000e0 0.000000000000000e0
        0.000000000000000e0 0.000000000000000e0 0.000000000000000e0 0.000000000000000e0
        0.000000000000000e0 0.000000000000000e0 0.000000000000000e0 0.000000000000000e0
        0.000000000000000e0 0.000000000000000e0 0.000000000000000e0 0.000000000000000e0
        0.000000000000000e0 0.000000000000000e0 0.000000000000000e0 0.000000000000000e0
        0.000000000000000e0 0.000000000000000e0 0.000000000000000e0 0.000000000000000e0
        0.000000000000000e0 0.000000000000000e0 0.000000000000000e0 0.000000000000000e0
        0.000000000000000e0 0.000000000000000e0 0.000000000000000e0 0.000000000000000e0
        0.000000000000000e0 0.000000000000000e0 0.000000000000000e0 0.000000000000000e0
        0.000000000000000e0 0.000000000000000e0 0.000000000000000e0 0.000000000000000e0
        0.000000000000000e0 0.000000000000000e0 0.000000000000000e0 0.000000000000000e0
        0.000000000000000e0 0.000000000000000e0 0.000000000000000e0 0.000000000000000e0
        0.000000000000000e0 0.000000000000000e0 0.000000000000000e0 0.000000000000000e0
        0.000000000000000e0 0.000000000000000e0 0.000000000000000e0 0.000000000000000e0
        0.000000000000000e0 0.000000000000000e0 0.000000000000000e0 0.000000000000000e0
        0.000000000000000e0 0.000000000000000e0 0.000000000000000e0 0.000000000000000e0
        0.000000000000000e0 0.000000000000000e0 0.000000000000000e0 0.000000000000000e0
        0.000000000000000e0 0.000000000000000e0 0.000000000000000e0 0.000000000000000e0
        0.000000000000000e0 0.000000000000000e0 0.000000000000000e0 0.000000000000000e0
        0.000000000000000e0 0.000000000000000e0 0.000000000000000e0 0.000000000000000e0
        0.000000000000000e0 0.000000000000000e0 0.000000000000000e0 0.000000000000000e0
        0.000000000000000e0 0.000000000000000e0 0.000000000000000e0 0.000000000000000e0
        0.000000000000000e0 0.000000000000000e0 0.000000000000000e0 0.000000000000000e0
        0.000000000000000e0 0.000000000000000e0 0.000000000000000e0 0.000000000000000e0
        0.000000000000000e0 0.000000000000000e0 0.000000000000000e0 0.000000000000000e0
        0.000000000000000e0 0.000000000000000e0 0.000000000000000e0 0.000000000000000e0
        0.000000000000000e0 0.000000000000000e0 0.000000000000000e0 0.000000000000000e0
        0.000000000000000e0 0.000000000000000e0 0.000000000000000e0 0.000000000000000e0
        0.000000000000000e0 0.000000000000000e0 0.000000000000000e0 0.000000000000000e0
        0.000000000000000e0 0.000000000000000e0 0.000000000000000e0 0.000000000000000e0
        0.000000000000000e0 0.000000000000000e0 0.000000000000000e0 0.000000000000000e0
        0.000000000000000e0 0.000000000000000e0 0.000000000000000e0 0.000000000000000e0
        0.000000000000000e0 0.000000000000000e0 0.000000000000000e0 0.000000000000000e0
        0.000000000000000e0 0.000000000000000e0 0.000000000000000e0 0.000000000000000e0
        0.000000000000000e0 0.000000000000000e0 0.000000000000000e0 0.000000000000000e0
        0.000000000000000e0 0.000000000000000e0 0.000000000000000e0 0.000000000000000e0
        0.000000000000000e0 0.000000000000000e0 0.000000000000000e0 0.000000000000000e0
        0.000000000000000e0 0.000000000000000e0 0.000000000000000e0 0.000000000000000e0
        0.000000000000000e0 0.000000000000000e0 0.000000000000000e0 0.000000000000000e0
        0.000000000000000e0 0.000000000000000e0 0.000000000000000e0 0.000000000000000e0
        0.000000000000000e0 0.000000000000000e0 0.000000000000000e0 0.000000000000000e0
        0.000000000000000e0 0.000000000000000e0 0.000000000000000e0 0.000000000000000e0
        0.000000000000000e0 0.000000000000000e0 0.000000000000000e0 0.000000000000000e0
        0.000000000000000e0 0.000000000000000e0 0.000000000000000e0 0.000000000000000e0
        0.000000000000000e0 0.000000000000000e0 0.000000000000000e0 0.000000000000000e0
        0.000000000000000e0 0.000000000000000e0 0.000000000000000e0 0.000000000000000e0
        0.000000000000000e0 0.000000000000000e0 0.000000000000000e0 0.000000000000000e0
        0.000000000000000e0 0.000000000000000e0 0.000000000000000e0 0.000000000000000e0
        0.000000000000000e0 0.000000000000000e0 0.000000000000000e0 0.000000000000000e0
        0.000000000000000e0 0.000000000000000e0 0.000000000000000e0 0.000000000000000e0
        0.000000000000000e0 0.000000000000000e0 0.000000000000000e0 0.000000000000000e0
        0.000000000000000e0 0.000000000000000e0 0.000000000000000e0 0.000000000000000e0
        0.000000000000000e0 0.000000000000000e0 0.000000000000000e0 0.000000000000000e0
        0.000000000000000e0 0.000000000000000e0 0.000000000000000e0 0.000000000000000e0
        0.000000000000000e0 0.000000000000000e0 0.000000000000000e0 0.000000000000000e0
        0.000000000000000e0 0.000000000000000e0 0.000000000000000e0 0.000000000000000e0
        0.000000000000000e0 0.000000000000000e0 0.000000000000000e0 0.000000000000000e0
        0.000000000000000e0 0.000000000000000e0 0.000000000000000e0 0.000000000000000e0
        0.000000000000000e0 0.000000000000000e0 0.000000000000000e0 0.000000000000000e0
        0.000000000000000e0 0.000000000000000e0 0.000000000000000e0 0.000000000000000e0
        0.000000000000000e0 0.000000000000000e0 0.000000000000000e0 0.000000000000000e0
        0.000000000000000e0 0.000000000000000e0 0.000000000000000e0 0.000000000000000e0
        0.000000000000000e0 0.000000000000000e0 0.000000000000000e0 0.000000000000000e0
        0.000000000000000e0 0.000000000000000e0 0.000000000000000e0 0.000000000000000e0
        0.000000000000000e0 0.000000000000000e0 0.000000000000000e0 0.000000000000000e0
        0.000000000000000e0 0.000000000000000e0 0.000000000000000e0 0.000000000000000e0
        0.000000000000000e0 0.000000000000000e0 0.000000000000000e0 0.000000000000000e0
        0.000000000000000e0 0.000000000000000e0 0.000000000000000e0 0.000000000000000e0
        0.000000000000000e0 0.000000000000000e0 0.000000000000000e0 0.000000000000000e0
        0.000000000000000e0 0.000000000000000e0 0.000000000000000e0 0.000000000000000e0
        0.000000000000000e0 0.000000000000000e0 0.000000000000000e0 0.000000000000000e0
        0.000000000000000e0 0.000000000000000e0 0.000000000000000e0 0.000000000000000e0
        0.000000000000000e0 0.000000000000000e0 0.000000000000000e0 0.000000000000000e0
        0.000000000000000e0 0.000000000000000e0 0.000000000000000e0 0.000000000000000e0
        0.000000000000000e0 0.000000000000000e0 0.000000000000000e0
        </PP_QIJL.2.2.0>
      <PP_QIJL.2.3.1 first_index="2" second_index="3" composite_index="5" angular_momentum="1">
        -9.073485694884390e-13 -9.420201699098289e-13 -9.780166413951548e-13 -1.015388609911694e-12
        -1.054188635945922e-12 -1.094471288425329e-12 -1.136293221464962e-12 -1.179713254046598e-12
        -1.224792452742606e-12 -1.271594217600882e-12 -1.320184371311572e-12 -1.370631251781076e-12
        -1.423005808243465e-12 -1.477381701044512e-12 -1.533835405238689e-12 -1.592446318144757e-12
        -1.653296871011332e-12 -1.716472644949381e-12 -1.782062491294722e-12 -1.850158656569858e-12
        -1.920856912220778e-12 -1.994256689311333e-12 -2.070461218364505e-12 -2.149577674547305e-12
        -2.231717328403490e-12 -2.316995702346023e-12 -2.405532733129491e-12 -2.497452940530863e-12
        -2.592885602475893e-12 -2.691964936857479e-12 -2.794830290301592e-12 -2.901626334146401e-12
        -3.012503267910090e-12 -3.127617030533635e-12 -3.247129519695560e-12 -3.371208819507124e-12
        -3.500029436908224e-12 -3.633772547096454e-12 -3.772626248334467e-12 -3.916785826494091e-12
        -4.066454029709097e-12 -4.221841353523094e-12 -4.383166336933433e-12 -4.550655869747556e-12
        -4.724545511684061e-12 -4.905079823667168e-12 -5.092512711780691e-12 -5.287107784365141e-12
        -5.489138722760185e-12 -5.698889666213988e-12 -5.916655611500586e-12 -6.142742827807501e-12
        -6.377469287477058e-12 -6.621165113207086e-12 -6.874173042340171e-12 -7.136848908894144e-12
        -7.409562144012073e-12 -7.692696295535319e-12 -7.986649567430570e-12 -8.291835379829459e-12
        -8.608682950468292e-12 -8.937637898345827e-12 -9.279162870447999e-12 -9.633738192420987e-12
        -1.000186254410790e-11 -1.038405366089876e-11 -1.078084906188084e-11 -1.119280680581271e-11
        -1.162050627598572e-11 -1.206454899507667e-11 -1.252555947113725e-11 -1.300418607591079e-11
        -1.350110195671094e-11 -1.401700598314513e-11 -1.455262373001438e-11 -1.510870849777109e-11
        -1.568604237197112e-11 -1.628543732320924e-11 -1.690773634908545e-11 -1.755381465980796e-11
        -1.822458090910034e-11 -1.892097847214416e-11 -1.964398677235424e-11 -2.039462265885247e-11
        -2.117394183657800e-11 -2.198304035104397e-11 -2.282305612983046e-11 -2.369517058298041e-11
        -2.460061026454989e-11 -2.554064859764968e-11 -2.651660766540346e-11 -2.752986007034261e-11
        -2.858183086485162e-11 -2.967399955537981e-11 -3.080790218323804e-11 -3.198513348490592e-11
        -3.320734913488943e-11 -3.447626807428196e-11 -3.579367492830405e-11 -3.716142251622276e-11
        -3.858143445717856e-11 -4.005570787558707e-11 -4.158631620991891e-11 -4.317541212880816e-11
        -4.482523055859186e-11 -4.653809182653612e-11 -4.831640492417209e-11 -5.016267089532986e-11
        -5.207948635363548e-11 -5.406954713441863e-11 -5.613565208616579e-11 -5.828070700685307e-11
        -6.050772873069300e-11 -6.281984937104397e-11 -6.522032072544980e-11 -6.771251884900281e-11
        -7.029994880246493e-11 -7.298624958182330e-11 -7.577519923621280e-11 -7.867072018140514e-11
        -8.167688471633483e-11 -8.479792075042340e-11 -8.803821774975422e-11 -9.140233291046261e-11
        -9.489499756802280e-11 -9.852112385144391e-11 -1.022858115917375e-10 -1.061943554943690e-10
        -1.102522525857817e-10 -1.144652099444679e-10 -1.188391527274555e-10 -1.233802325035039e-10
        -1.280948359047256e-10 -1.329895936088020e-10 -1.380713896644278e-10 -1.433473711730936e-10
        -1.488249583408306e-10 -1.545118549140504e-10 -1.604160590141540e-10 -1.665458743861564e-10
        -1.729099220771334e-10 -1.795171525609310e-10 -1.863768583261758e-10 -1.934986869452977e-10
        -2.008926546429452e-10 -2.085691603828690e-10 -2.165390004930945e-10 -2.248133838499466e-10
        -2.334039476422809e-10 -2.423227737380986e-10 -2.515824056765509e-10 -2.611958663092435e-10
        -2.711766761156430e-10 -2.815388722183466e-10 -2.922970281249610e-10 -3.034662742243443e-10
        -3.150623190660526e-10 -3.271014714529070e-10 -3.396006633777515e-10 -3.525774738366703e-10
        -3.660501535521377e-10 -3.800376506408907e-10 -3.945596372626061e-10 -4.096365372868691e-10
        -4.252895550173487e-10 -4.415407050135518e-10 -4.584128430521427e-10 -4.759296982713146e-10
        -4.941159065434703e-10 -5.129970451231198e-10 -5.325996686187150e-10 -5.529513463390541e-10
        -5.740807010667162e-10 -5.960174493131105e-10 -6.187924431117322e-10 -6.424377134083774e-10
        -6.669865151094072e-10 -6.924733738513265e-10 -7.189341345575251e-10 -7.464060118504481e-10
        -7.749276423900497e-10 -8.045391392122335e-10 -8.352821481435852e-10 -8.671999063718250e-10
        -9.003373032543200e-10 -9.347409434501353e-10 -9.704592124645105e-10 -1.007542344697815e-9
        -1.046042494094782e-9 -1.086013807493343e-9 -1.127512500776177e-9 -1.170596937932176e-9
        -1.215327713138874e-9 -1.261767735981398e-9 -1.309982319927736e-9 -1.360039274184699e-9
        -1.412008999063896e-9 -1.465964584991671e-9 -1.521981915302365e-9 -1.580139772959431e-9
        -1.640519951354422e-9 -1.703207369339823e-9 -1.768290190657310e-9 -1.835859947929541e-9
        -1.906011671389809e-9 -1.978844022530499e-9 -2.054459432858508e-9 -2.132964247952507e-9
        -2.214468877024845e-9 -2.299087948198334e-9 -2.386940469716213e-9 -2.478149997312213e-9
        -2.572844807975825e-9 -2.671158080357348e-9 -2.773228082066352e-9 -2.879198364126836e-9
        -2.989217962862823e-9 -3.103441609497957e-9 -3.222029947764105e-9 -3.345149759824940e-9
        -3.472974200832030e-9 -3.605683042443641e-9 -3.743462925648303e-9 -3.886507623248958e-9
        -4.035018312376771e-9 -4.189203857417562e-9 -4.349281103749282e-9 -4.515475182702913e-9
        -4.688019828176168e-9 -4.867157705345092e-9 -5.053140751935501e-9 -5.246230532534798e-9
        -5.446698606441666e-9 -5.654826909571500e-9 -5.870908150954413e-9 -6.095246224383112e-9
        -6.328156635790156e-9 -6.569966946954759e-9 -6.821017236163773e-9 -7.081660576474274e-9
        -7.352263532250154e-9 -7.633206674671509e-9 -7.924885116940919e-9 -8.227709069939891e-9
        -8.542104419116454e-9 -8.868513323415129e-9 -9.207394837091623e-9 -9.559225555286307e-9
        -9.924500284264598e-9 -1.030373273726640e-8 -1.069745625694315e-8 -1.110622456539835e-8
        -1.153061254288609e-8 -1.197121703626259e-8 -1.242865769832752e-8 -1.290357785923510e-8
        -1.339664543120056e-8 -1.390855384777359e-8 -1.444002303899998e-8 -1.499180044384211e-8
        -1.556466206128186e-8 -1.615941354158426e-8 -1.677689131925536e-8 -1.741796378928821e-8
        -1.808353252835007e-8 -1.877453356262787e-8 -1.949193868411506e-8 -2.023675681718958e-8
        -2.101003543740498e-8 -2.181286204448942e-8 -2.264636569162260e-8 -2.351171857314216e-8
        -2.441013767290992e-8 -2.534288647565693e-8 -2.631127674371244e-8 -2.731667036161451e-8
        -2.836048125119611e-8 -2.944417735983834e-8 -3.056928272468627e-8 -3.173737961572947e-8
        -3.295011076075880e-8 -3.420918165532908e-8 -3.551636296097307e-8 -3.687349299503888e-8
        -3.828248031565129e-8 -3.974530640542892e-8 -4.126402845773216e-8 -4.284078226935573e-8
        -4.447778524373420e-8 -4.617733950888070e-8 -4.794183515444094e-8 -4.977375359241414e-8
        -5.167567104626267e-8 -5.365026217331572e-8 -5.570030382555823e-8 -5.782867895408970e-8
        -6.003838066274233e-8 -6.233251641655401e-8 -6.471431241101135e-8 -6.718711810820416e-8
        -6.975441094626433e-8 -7.241980122870999e-8 -7.518703720056332e-8 -7.806001031837795e-8
        -8.104276072158051e-8 -8.413948291281345e-8 -8.735453165526483e-8 -9.069242809526708e-8
        -9.415786611877229e-8 -9.775571895063276e-8 -1.014910460059590e-7 -1.053691000031852e-7
        -1.093953343488300e-7 -1.135754108043346e-7 -1.179152074457446e-7 -1.224208269274194e-7
        -1.270986050613810e-7 -1.319551197243495e-7 -1.369972001049825e-7 -1.422319363043071e-7
        -1.476666893028268e-7 -1.533091013083087e-7 -1.591671064987812e-7 -1.652489421758341e-7
        -1.715631603438841e-7 -1.781186397316721e-7 -1.849245982728665e-7 -1.919906060633119e-7
        -1.993265988131093e-7 -2.069428918124233e-7 -2.148501944306254e-7 -2.230596251691294e-7
        -2.315827272890616e-7 -2.404314850356998e-7 -2.496183404824631e-7 -2.591562110181035e-7
        -2.690585075016374e-7 -2.793391531105161e-7 -2.900126029084832e-7 -3.010938641605881e-7
        -3.125985174238728e-7 -3.245427384433200e-7 -3.369433208838113e-7 -3.498176999299787e-7
        -3.631839767870755e-7 -3.770609441172478e-7 -3.914681124468817e-7 -4.064257375820998e-7
        -4.219548490708479e-7 -4.380772797515117e-7 -4.548156964295135e-7 -4.721936317249033e-7
        -4.902355171356363e-7 -5.089667173628882e-7 -5.284135659465541e-7 -5.486034022608991e-7
        -5.695646099222316e-7 -5.913266566624584e-7 -6.139201357244126e-7 -6.373768088369866e-7
        -6.617296508303204e-7 -6.870128959535481e-7 -7.132620859600541e-7 -7.405141200275976e-7
        -7.688073065832595e-7 -7.981814171058382e-7 -8.286777419810340e-7 -8.603391484877132e-7
        -8.932101409963909e-7 -9.273369234645143e-7 -9.627674643153769e-7 -9.995515637925900e-7
        -1.037740923883400e-6 -1.077389220908938e-6 -1.118552180883869e-6 -1.161287657749975e-6
        -1.205655714593229e-6 -1.251718707957857e-6 -1.299541375377059e-6 -1.349190926239837e-6
        -1.400737136123910e-6 -1.454252444724557e-6 -1.509812057517760e-6 -1.567494051298382e-6
        -1.627379483742961e-6 -1.689552507147357e-6 -1.754100486501061e-6 -1.821114122061794e-6
        -1.890687576600684e-6 -1.962918607498104e-6 -2.037908703872499e-6 -2.115763228934236e-6
        -2.196591567765184e-6 -2.280507280725614e-6 -2.367628262708013e-6 -2.458076908456718e-6
        -2.551980284183112e-6 -2.649470305719182e-6 -2.750683923455424e-6 -2.855763314321067e-6
        -2.964856081072888e-6 -3.078115459175637e-6 -3.195700531554674e-6 -3.317776451524909e-6
        -3.444514674207406e-6 -3.576093196749536e-6 -3.712696807690120e-6 -3.854517345810986e-6
        -4.001753968841013e-6 -4.154613432376575e-6 -4.313310379418690e-6 -4.478067640917073e-6
        -4.649116547747987e-6 -4.826697254551751e-6 -5.011059075886344e-6 -5.202460835158329e-6
        -5.401171226816111e-6 -5.607469192311720e-6 -5.821644310345868e-6 -6.043997201943751e-6
        -6.274839950917328e-6 -6.514496540300396e-6 -6.763303305355929e-6 -7.021609403789513e-6
        -7.289777303810602e-6 -7.568183290723439e-6 -7.857217992744991e-6 -8.157286926774489e-6
        -8.468811064871268e-6 -8.792227422219336e-6 -9.127989667393784e-6 -9.476568755765118e-6
        -9.838453586920357e-6 -1.021415168699798e-5 -1.060418991688679e-5 -1.100911520725131e-5
        -1.142949532140510e-5 -1.186591964706878e-5 -1.231900001811341e-5 -1.278937156740214e-5
        -1.327769361191393e-5 -1.378465057135182e-5 -1.431095292149989e-5 -1.485733818362927e-5
        -1.542457195131397e-5 -1.601344895605019e-5 -1.662479417314218e-5 -1.725946396935989e-5
        -1.791834729393674e-5 -1.860236691452426e-5 -1.931248069979513e-5 -2.004968295042993e-5
        -2.081500578030622e-5 -2.160952054975505e-5 -2.243433935283694e-5 -2.329061656065409e-5
        -2.417955042277927e-5 -2.510238472897828e-5 -2.606041053346749e-5 -2.705496794403022e-5
        -2.808744797840908e-5 -2.915929449048159e-5 -3.027200616878721e-5 -3.142713861012523e-5
        -3.262630647097458e-5 -3.387118569964667e-5 -3.516351585213683e-5 -3.650510249479265e-5
        -3.789781969699024e-5 -3.934361261715236e-5 -4.084450018555152e-5 -4.240257788746328e-5
        -4.402002065036679e-5 -4.569908583901945e-5 -4.744211636237095e-5 -4.925154389642715e-5
        -5.112989222730651e-5 -5.307978071890158e-5 -5.510392790970073e-5 -5.720515524349033e-5
        -5.938639093883285e-5 -6.165067400236631e-5 -6.400115839117073e-5 -6.644111732963172e-5
        -6.897394778639107e-5 -7.160317511720828e-5 -7.433245787973033e-5 -7.716559282639880e-5
        -8.010652008190450e-5 -8.315932851187041e-5 -8.632826128962069e-5 -8.961772166817068e-5
        -9.303227896478703e-5 -9.657667476573694e-5 -1.002558293590980e-4 -1.040748484037548e-4
        -1.080390298430028e-4 -1.121538710714460e-4 -1.164250763641721e-4 -1.208585645774843e-4
        -1.254604771307882e-4 -1.302371862795215e-4 -1.351953036893673e-4 -1.403416893223261e-4
        -1.456834606455244e-4 -1.512280021740468e-4 -1.569829753594110e-4 -1.629563288356580e-4
        -1.691563090354543e-4 -1.755914711889684e-4 -1.822706907186811e-4 -1.892031750437070e-4
        -1.963984758076286e-4 -2.038665015442660e-4 -2.116175307962613e-4 -2.196622257017655e-4
        -2.280116460650474e-4 -2.366772639272235e-4 -2.456709786538711e-4 -2.550051325567131e-4
        -2.646925270670961e-4 -2.747464394794763e-4 -2.851806402836345e-4 -2.960094111048861e-4
        -3.072475632720610e-4 -3.189104570335959e-4 -3.310140214425699e-4 -3.435747749321560e-4
        -3.566098466034243e-4 -3.701369982480581e-4 -3.841746471291044e-4 -3.987418895434153e-4
        -4.138585251900485e-4 -4.295450823694480e-4 -4.458228440388309e-4 -4.627138747497233e-4
        -4.802410484942214e-4 -4.984280774870651e-4 -5.172995419112373e-4 -5.368809206552850e-4
        -5.571986230711432e-4 -5.782800217817748e-4 -6.001534865684318e-4 -6.228484193678586e-4
        -6.463952904102552e-4 -6.708256755292082e-4 -6.961722946753406e-4 -7.224690516656851e-4
        -7.497510752012935e-4 -7.780547611858333e-4 -8.074178163782024e-4 -8.378793034125279e-4
        -8.694796872189448e-4 -9.022608828788330e-4 -9.362663049481288e-4 -9.715409182823999e-4
        -1.008131290397226e-3 -1.046085645397302e-3 -1.085453919507358e-3 -1.126287818237717e-3
        -1.168640875216671e-3 -1.212568512721469e-3 -1.258128103938740e-3 -1.305379036984529e-3
        -1.354382780712923e-3 -1.405202952341124e-3 -1.457905386917475e-3 -1.512558208657275e-3
        -1.569231904169579e-3 -1.627999397596047e-3 -1.688936127680716e-3 -1.752120126787106e-3
        -1.817632101876129e-3 -1.885555517455358e-3 -1.955976680506715e-3 -2.028984827395793e-3
        -2.104672212762114e-3 -2.183134200384813e-3 -2.264469356013547e-3 -2.348779542148871e-3
        -2.436170014750458e-3 -2.526749521845189e-3 -2.620630404000051e-3 -2.717928696617518e-3
        -2.818764234002514e-3 -2.923260755141652e-3 -3.031546011125624e-3 -3.143751874135406e-3
        -3.260014447901966e-3 -3.380474179537092e-3 -3.505275972620242e-3 -3.634569301412535e-3
        -3.768508326054099e-3 -3.907252008585493e-3 -4.050964229616489e-3 -4.199813905447837e-3
        -4.353975105431878e-3 -4.513627169337245e-3 -4.678954824461006e-3 -4.850148302207595e-3
        -5.027403453829126e-3 -5.210921864994750e-3 -5.400910968828100e-3 -5.597584157022045e-3
        -5.801160888607335e-3 -6.011866795917817e-3 -6.229933787258872e-3 -6.455600145746853e-3
        -6.689110623747389e-3 -6.930716532296795e-3 -7.180675824845797e-3 -7.439253174616656e-3
        -7.706720044813858e-3 -7.983354750875762e-3 -8.269442513897447e-3 -8.565275504296308e-3
        -8.871152874729484e-3 -9.187380781206262e-3 -9.514272391270552e-3 -9.852147878055471e-3
        -1.020133439893715e-2 -1.056216605743534e-2 -1.093498384692559e-2 -1.132013557464159e-2
        -1.171797576435574e-2 -1.212886553603232e-2 -1.255317246064958e-2 -1.299127038828546e-2
        -1.344353924745667e-2 -1.391036481359087e-2 -1.439213844439916e-2 -1.488925677979950e-2
        -1.540212140392067e-2 -1.593113846659376e-2 -1.647671826161018e-2 -1.703927475889563e-2
        -1.761922508761663e-2 -1.821698896710023e-2 -1.883298808231112e-2 -1.946764540049011e-2
        -2.012138442541792e-2 -2.079462838562775e-2 -2.148779935274724e-2 -2.220131728601345e-2
        -2.293559899886162e-2 -2.369105704335526e-2 -2.446809850809256e-2 -2.526712372509299e-2
        -2.608852488105109e-2 -2.693268452822529e-2 -2.779997399012743e-2 -2.869075165708452e-2
        -2.960536116665951e-2 -3.054412946385657e-2 -3.150736473598216e-2 -3.249535421700692e-2
        -3.350836185626807e-2 -3.454662584636598e-2 -3.561035600516470e-2 -3.669973100687973e-2
        -3.781489545735800e-2 -3.895595680881441e-2 -4.012298210948630e-2 -4.131599458392937e-2
        -4.253497003997827e-2 -4.377983309876959e-2 -4.505045324466001e-2 -4.634664069237542e-2
        -4.766814206932260e-2 -4.901463591165964e-2 -5.038572797349373e-2 -5.178094634944489e-2
        -5.319973641178349e-2 -5.464145556445698e-2 -5.610536781753110e-2 -5.759063818693681e-2
        -5.909632692591491e-2 -6.062138359620096e-2 -6.216464098882547e-2 -6.372480890638594e-2
        -6.530046782083514e-2 -6.689006242320044e-2 -6.849189508421674e-2 -7.010411924765528e-2
        -7.172473278112648e-2 -7.335157131238118e-2 -7.498230158260987e-2 -7.661441485195053e-2
        -7.824522039639545e-2 -7.987183913949547e-2 -8.149119746674373e-2 -8.310002127524939e-2
        -8.469483031628712e-2 -8.627193289354885e-2 -8.782742098537705e-2 -8.935716586496099e-2
        -9.085681429837557e-2 -9.232178540642460e-2 -9.374726828250740e-2 -9.512822046509250e-2
        -9.645936736984840e-2 -9.773520279298118e-2 -9.894999060380652e-2 -1.000977677509926e-1
        -1.011723487131468e-1 -1.021673315304269e-1 -1.030761055595184e-1 -1.038918610995306e-1
        -1.046076010410089e-1 -1.052161546941861e-1 -1.057101939556693e-1 -1.060822519747953e-1
        -1.063247444817092e-1 -1.064299939386340e-1 -1.063902566735691e-1 -1.061977531515650e-1
        -1.058447015325025e-1 -1.053233546556966e-1 -1.046260405803639e-1 -1.037452067967255e-1
        -1.026734682049705e-1 -1.014036589381297e-1 -9.992888807980533e-2 -9.824259929828678e-2
        -9.633863438457411e-2 -9.421130064284416e-2 -9.185544203764112e-2 -8.926651395225067e-2
        -8.644066135702206e-2 -8.337480012464303e-2 -8.006670116132192e-2 -7.651507694837391e-2
        -7.271967000782781e-2 -6.868134271833727e-2 -6.440216781414127e-2 -5.988551880027392e-2
        -5.513615941215066e-2 -5.016033113768805e-2 -4.496583770596454e-2 -3.956212532926289e-2
        -3.396035736629730e-2 -2.817348195515833e-2 -2.221629104687176e-2 -1.610546915655207e-2
        -9.859630041632414e-3 -3.499339418332810e-3 2.952878258204839e-3 9.472550994115259e-3
        1.603329053042930e-2 2.260684580724100e-2 2.916318072974181e-2 3.567057830636554e-2
        4.209577314724103e-2 4.840411418229513e-2 5.455975927631927e-2 6.052590317699130e-2
        6.626503992483423e-2 7.173926047527610e-2 7.691058582668214e-2 8.174133540908162e-2
        8.619452986212597e-2 9.023432661420307e-2 9.382648586586841e-2 9.693886367995194e-2
        9.954192789007974e-2 1.016092914641063e-1 1.031182568072379e-1 1.040503632734907e-1
        1.043919288898124e-1 1.041345760056732e-1 1.032757292885679e-1 1.018190732246789e-1
        9.977495509219493e-2 9.716071829714213e-2 9.400095004944358e-2 9.032762666822816e-2
        8.618013940462557e-2 8.160518362766213e-2 7.665649460978647e-2 7.139441405220315e-2
        6.588527298771785e-2 6.020057887143670e-2 5.441599759538600e-2 4.861012491369677e-2
        4.286304640153892e-2 3.725469063904624e-2 3.186298683594976e-2 2.676184559087999e-2
        2.201898987500427e-2 1.769367256513393e-2 1.383432680010695e-2 1.047620591337156e-2
        7.639080457554570e-3 5.325070566583754e-3 3.516702205132116e-3 2.175285261976842e-3
        1.239719401614131e-3 6.258394674326789e-4 2.264153293342047e-4 -6.523672036981565e-5
        -2.788245123132999e-4 -4.233881889350033e-4 -5.083363536128455e-4 -5.432985316210295e-4
        -5.379530392172482e-4 -5.018311689080450e-4 -4.441016644802613e-4 -3.733420949967219e-4
        -2.973057038605682e-4 -2.226935721311718e-4 -1.549425977735025e-4 -9.804001410057550e-5
        -5.437510334511952e-5 -2.463851103920445e-5 -7.779183982842275e-6 -1.028440332284664e-6
        2.775557561562891e-17 0.000000000000000e0 0.000000000000000e0 0.000000000000000e0
        0.000000000000000e0 0.000000000000000e0 0.000000000000000e0 0.000000000000000e0
        0.000000000000000e0 0.000000000000000e0 0.000000000000000e0 0.000000000000000e0
        0.000000000000000e0 0.000000000000000e0 0.000000000000000e0 0.000000000000000e0
        0.000000000000000e0 0.000000000000000e0 0.000000000000000e0 0.000000000000000e0
        0.000000000000000e0 0.000000000000000e0 0.000000000000000e0 0.000000000000000e0
        0.000000000000000e0 0.000000000000000e0 0.000000000000000e0 0.000000000000000e0
        0.000000000000000e0 0.000000000000000e0 0.000000000000000e0 0.000000000000000e0
        0.000000000000000e0 0.000000000000000e0 0.000000000000000e0 0.000000000000000e0
        0.000000000000000e0 0.000000000000000e0 0.000000000000000e0 0.000000000000000e0
        0.000000000000000e0 0.000000000000000e0 0.000000000000000e0 0.000000000000000e0
        0.000000000000000e0 0.000000000000000e0 0.000000000000000e0 0.000000000000000e0
        0.000000000000000e0 0.000000000000000e0 0.000000000000000e0 0.000000000000000e0
        0.000000000000000e0 0.000000000000000e0 0.000000000000000e0 0.000000000000000e0
        0.000000000000000e0 0.000000000000000e0 0.000000000000000e0 0.000000000000000e0
        0.000000000000000e0 0.000000000000000e0 0.000000000000000e0 0.000000000000000e0
        0.000000000000000e0 0.000000000000000e0 0.000000000000000e0 0.000000000000000e0
        0.000000000000000e0 0.000000000000000e0 0.000000000000000e0 0.000000000000000e0
        0.000000000000000e0 0.000000000000000e0 0.000000000000000e0 0.000000000000000e0
        0.000000000000000e0 0.000000000000000e0 0.000000000000000e0 0.000000000000000e0
        0.000000000000000e0 0.000000000000000e0 0.000000000000000e0 0.000000000000000e0
        0.000000000000000e0 0.000000000000000e0 0.000000000000000e0 0.000000000000000e0
        0.000000000000000e0 0.000000000000000e0 0.000000000000000e0 0.000000000000000e0
        0.000000000000000e0 0.000000000000000e0 0.000000000000000e0 0.000000000000000e0
        0.000000000000000e0 0.000000000000000e0 0.000000000000000e0 0.000000000000000e0
        0.000000000000000e0 0.000000000000000e0 0.000000000000000e0 0.000000000000000e0
        0.000000000000000e0 0.000000000000000e0 0.000000000000000e0 0.000000000000000e0
        0.000000000000000e0 0.000000000000000e0 0.000000000000000e0 0.000000000000000e0
        0.000000000000000e0 0.000000000000000e0 0.000000000000000e0 0.000000000000000e0
        0.000000000000000e0 0.000000000000000e0 0.000000000000000e0 0.000000000000000e0
        0.000000000000000e0 0.000000000000000e0 0.000000000000000e0 0.000000000000000e0
        0.000000000000000e0 0.000000000000000e0 0.000000000000000e0 0.000000000000000e0
        0.000000000000000e0 0.000000000000000e0 0.000000000000000e0 0.000000000000000e0
        0.000000000000000e0 0.000000000000000e0 0.000000000000000e0 0.000000000000000e0
        0.000000000000000e0 0.000000000000000e0 0.000000000000000e0 0.000000000000000e0
        0.000000000000000e0 0.000000000000000e0 0.000000000000000e0 0.000000000000000e0
        0.000000000000000e0 0.000000000000000e0 0.000000000000000e0 0.000000000000000e0
        0.000000000000000e0 0.000000000000000e0 0.000000000000000e0 0.000000000000000e0
        0.000000000000000e0 0.000000000000000e0 0.000000000000000e0 0.000000000000000e0
        0.000000000000000e0 0.000000000000000e0 0.000000000000000e0 0.000000000000000e0
        0.000000000000000e0 0.000000000000000e0 0.000000000000000e0 0.000000000000000e0
        0.000000000000000e0 0.000000000000000e0 0.000000000000000e0 0.000000000000000e0
        0.000000000000000e0 0.000000000000000e0 0.000000000000000e0 0.000000000000000e0
        0.000000000000000e0 0.000000000000000e0 0.000000000000000e0 0.000000000000000e0
        0.000000000000000e0 0.000000000000000e0 0.000000000000000e0 0.000000000000000e0
        0.000000000000000e0 0.000000000000000e0 0.000000000000000e0 0.000000000000000e0
        0.000000000000000e0 0.000000000000000e0 0.000000000000000e0 0.000000000000000e0
        0.000000000000000e0 0.000000000000000e0 0.000000000000000e0 0.000000000000000e0
        0.000000000000000e0 0.000000000000000e0 0.000000000000000e0 0.000000000000000e0
        0.000000000000000e0 0.000000000000000e0 0.000000000000000e0 0.000000000000000e0
        0.000000000000000e0 0.000000000000000e0 0.000000000000000e0 0.000000000000000e0
        0.000000000000000e0 0.000000000000000e0 0.000000000000000e0 0.000000000000000e0
        0.000000000000000e0 0.000000000000000e0 0.000000000000000e0 0.000000000000000e0
        0.000000000000000e0 0.000000000000000e0 0.000000000000000e0 0.000000000000000e0
        0.000000000000000e0 0.000000000000000e0 0.000000000000000e0 0.000000000000000e0
        0.000000000000000e0 0.000000000000000e0 0.000000000000000e0 0.000000000000000e0
        0.000000000000000e0 0.000000000000000e0 0.000000000000000e0 0.000000000000000e0
        0.000000000000000e0 0.000000000000000e0 0.000000000000000e0 0.000000000000000e0
        0.000000000000000e0 0.000000000000000e0 0.000000000000000e0 0.000000000000000e0
        0.000000000000000e0 0.000000000000000e0 0.000000000000000e0 0.000000000000000e0
        0.000000000000000e0 0.000000000000000e0 0.000000000000000e0 0.000000000000000e0
        0.000000000000000e0 0.000000000000000e0 0.000000000000000e0 0.000000000000000e0
        0.000000000000000e0 0.000000000000000e0 0.000000000000000e0 0.000000000000000e0
        0.000000000000000e0 0.000000000000000e0 0.000000000000000e0 0.000000000000000e0
        0.000000000000000e0 0.000000000000000e0 0.000000000000000e0 0.000000000000000e0
        0.000000000000000e0 0.000000000000000e0 0.000000000000000e0 0.000000000000000e0
        0.000000000000000e0 0.000000000000000e0 0.000000000000000e0 0.000000000000000e0
        0.000000000000000e0 0.000000000000000e0 0.000000000000000e0 0.000000000000000e0
        0.000000000000000e0 0.000000000000000e0 0.000000000000000e0 0.000000000000000e0
        0.000000000000000e0 0.000000000000000e0 0.000000000000000e0 0.000000000000000e0
        0.000000000000000e0 0.000000000000000e0 0.000000000000000e0 0.000000000000000e0
        0.000000000000000e0 0.000000000000000e0 0.000000000000000e0 0.000000000000000e0
        0.000000000000000e0 0.000000000000000e0 0.000000000000000e0 0.000000000000000e0
        0.000000000000000e0 0.000000000000000e0 0.000000000000000e0 0.000000000000000e0
        0.000000000000000e0 0.000000000000000e0 0.000000000000000e0 0.000000000000000e0
        0.000000000000000e0 0.000000000000000e0 0.000000000000000e0 0.000000000000000e0
        0.000000000000000e0 0.000000000000000e0 0.000000000000000e0 0.000000000000000e0
        0.000000000000000e0 0.000000000000000e0 0.000000000000000e0 0.000000000000000e0
        0.000000000000000e0 0.000000000000000e0 0.000000000000000e0 0.000000000000000e0
        0.000000000000000e0 0.000000000000000e0 0.000000000000000e0
        </PP_QIJL.2.3.1>
      <PP_QIJL.2.4.1 first_index="2" second_index="4" composite_index="8" angular_momentum="1">
        1.134856553994877e-12 1.178221688806810e-12 1.223243891990248e-12 1.269986483434809e-12
        1.318515202609422e-12 1.368898301019253e-12 1.421206638195628e-12 1.475513781353915e-12
        1.531896108859511e-12 1.590432917647517e-12 1.651206534747072e-12 1.714302433067298e-12
        1.779809351607644e-12 1.847819420261697e-12 1.918428289390028e-12 1.991735264344211e-12
        2.067843445131341e-12 2.146859871415365e-12 2.228895673059219e-12 2.314066226419503e-12
        2.402491316613421e-12 2.494295305986333e-12 2.589607309016742e-12 2.688561373904774e-12
        2.791296671099518e-12 2.897957689030317e-12 3.008694437317423e-12 3.123662657747666e-12
        3.243024043311951e-12 3.366946465612644e-12 3.495604210960556e-12 3.629178225493765e-12
        3.767856369662836e-12 3.911833682440479e-12 4.061312655627170e-12 4.216503518638492e-12
        4.377624534174812e-12 4.544902305189091e-12 4.718572093584478e-12 4.898878151090092e-12
        5.086074062780042e-12 5.280423103719172e-12 5.482198609236839e-12 5.691684359349597e-12
        5.909174977873528e-12 6.134976346787263e-12 6.369406036428802e-12 6.612793752130940e-12
        6.865481797923500e-12 7.127825557954619e-12 7.400193996307978e-12 7.682970175919111e-12
        7.976551797320569e-12 8.281351757973477e-12 8.597798732972461e-12 8.926337777940169e-12
        9.267430954959867e-12 9.621557982425951e-12 9.989216909726661e-12 1.037092481770772e-11
        1.076721854590198e-11 1.117865544754807e-11 1.160581417345973e-11 1.204929548584836e-11
        1.250972310324336e-11 1.298774457769845e-11 1.348403220551782e-11 1.399928397278297e-11
        1.453422453700991e-11 1.508960624631752e-11 1.566621019754019e-11 1.626484733477309e-11
        1.688635958989507e-11 1.753162106667306e-11 1.820153927011372e-11 1.889705638279050e-11
        1.961915058994208e-11 2.036883745520537e-11 2.114717134891780e-11 2.195524693099811e-11
        2.279420069049046e-11 2.366521254393803e-11 2.456950749483333e-11 2.550835735647928e-11
        2.648308254068463e-11 2.749505391480819e-11 2.854569472976501e-11 2.963648262170506e-11
        3.076895169018003e-11 3.194469465572126e-11 3.316536509986221e-11 3.443267979075721e-11
        3.574842109766627e-11 3.711443949770215e-11 3.853265617836542e-11 4.000506573952654e-11
        4.153373899865684e-11 4.312082590325248e-11 4.476855855454734e-11 4.647925434676901e-11
        4.825531922635017e-11 5.009925107568193e-11 5.201364322616671e-11 5.400118810551100e-11
        5.606468102438967e-11 5.820702410780387e-11 6.043123037666538e-11 6.274042798534557e-11
        6.513786462114908e-11 6.762691207190028e-11 7.021107096806514e-11 7.289397570607951e-11
        7.567939955980652e-11 7.857125998731286e-11 8.157362414042748e-11 8.469071458482961e-11
        8.792691523871381e-11 9.128677753838186e-11 9.477502683943325e-11 9.839656906255899e-11
        1.021564975932811e-10 1.060601004453462e-10 1.101128676978453e-10 1.143204992165195e-10
        1.186889126701127e-10 1.232242518530416e-10 1.279328953260928e-10 1.328214653872964e-10
        1.378968373855926e-10 1.431661493903935e-10 1.486368122306320e-10 1.543165199174265e-10
        1.602132604650112e-10 1.663353271251565e-10 1.726913300508770e-10 1.792902084058294e-10
        1.861412429364337e-10 1.932540690244003e-10 2.006386902380142e-10 2.083054924012427e-10
        2.162652582004446e-10 2.245291823492323e-10 2.331088873328091e-10 2.420164397539246e-10
        2.512643673034432e-10 2.608656763793816e-10 2.708338703792071e-10 2.811829686911147e-10
        2.919275264109940e-10 3.030826548128212e-10 3.146640426012517e-10 3.266879779763220e-10
        3.391713715412746e-10 3.521317800857365e-10 3.655874312776934e-10 3.795572492989814e-10
        3.940608814603639e-10 4.091187258336111e-10 4.247519599394485e-10 4.409825705317286e-10
        4.578333845196902e-10 4.753281010718297e-10 4.934913249465003e-10 5.123486010961347e-10
        5.319264505937612e-10 5.522524079323075e-10 5.733550597492087e-10 5.952640850307105e-10
        6.180102968524686e-10 6.416256857151201e-10 6.661434645357581e-10 6.915981153586419e-10
        7.180254378507550e-10 7.454625996504838e-10 7.739481886401974e-10 8.035222672162169e-10
        8.342264286325751e-10 8.661038554977038e-10 8.991993805064066e-10 9.335595494924895e-10
        9.692326868906909e-10 1.006268963700078e-9 1.044720468044356e-9 1.084641278428432e-9
        1.126087539794223e-9 1.169117542482616e-9 1.213791804212757e-9 1.260173155193814e-9
        1.308326826489016e-9 1.358320541756209e-9 1.410224612493900e-9 1.464112036926865e-9
        1.520058602670213e-9 1.578142993316445e-9 1.638446899095343e-9 1.701055131762252e-9
        1.766055743876493e-9 1.833540152637452e-9 1.903603268452663e-9 1.976343628418637e-9
        2.051863534902072e-9 2.130269199416554e-9 2.211670891996808e-9 2.296183096280805e-9
        2.383924670517717e-9 2.475019014728083e-9 2.569594244251485e-9 2.667783369925521e-9
        2.769724485149681e-9 2.875560960097134e-9 2.985441643347425e-9 3.099521071223921e-9
        3.217959685130076e-9 3.340924057190376e-9 3.468587124513283e-9 3.601128432405361e-9
        3.738734386879099e-9 3.881598516808984e-9 4.029921746104911e-9 4.183912676285515e-9
        4.343787879848710e-9 4.509772204852318e-9 4.682099091132680e-9 4.861010898606306e-9
        5.046759248116137e-9 5.239605375301486e-9 5.439820497989894e-9 5.647686197626807e-9
        5.863494815280040e-9 6.087549862775761e-9 6.320166449543808e-9 6.561671725773326e-9
        6.812405342501046e-9 7.072719929279865e-9 7.342981590099265e-9 7.623570418254499e-9
        7.914881030889561e-9 8.217323123964421e-9 8.531322048427919e-9 8.857319408406090e-9
        9.195773682246887e-9 9.547160867295389e-9 9.911975149305173e-9 1.029072959742798e-8
        1.068395688575859e-8 1.109221004244949e-8 1.151606322744905e-8 1.195611253995629e-8
        1.241297685672826e-8 1.288729870241846e-8 1.337974515317007e-8 1.389100877473491e-8
        1.442180859643688e-8 1.497289112234964e-8 1.554503138111034e-8 1.613903401584542e-8
        1.675573441574118e-8 1.739599989085014e-8 1.806073089178509e-8 1.875086227601602e-8
        1.946736462254981e-8 2.021124559684222e-8 2.098355136786016e-8 2.178536807928782e-8
        2.261782337694438e-8 2.348208799456117e-8 2.437937740014832e-8 2.531095350526489e-8
        2.627812643959638e-8 2.728225639333474e-8 2.832475552995012e-8 2.940708997204556e-8
        3.053078186308440e-8 3.169741150789106e-8 3.290861959493358e-8 3.416610950351200e-8
        3.547164969909742e-8 3.682707622018797e-8 3.823429526017893e-8 3.969528584787663e-8
        4.121210263042348e-8 4.278687876254855e-8 4.442182890620302e-8 4.611925234479941e-8
        4.788153621643170e-8 4.971115887062123e-8 5.161069335330838e-8 5.358281102498709e-8
        5.563028531707054e-8 5.775599563176702e-8 5.996293139094769e-8 6.225419623969936e-8
        6.463301241046872e-8 6.710272525393448e-8 6.966680794297543e-8 7.232886635634475e-8
        7.509264414891827e-8 7.796202801563965e-8 8.094105315656346e-8 8.403390895067709e-8
        8.724494484647430e-8 9.057867647756190e-8 9.403979201189252e-8 9.763315874354808e-8
        1.013638299363384e-7 1.052370519288299e-7 1.092582715107940e-7 1.134331435814362e-7
        1.177675391001730e-7 1.222675533411254e-7 1.269395144629300e-7 1.317899924059114e-7
        1.368258081291145e-7 1.420540432001795e-7 1.474820497515331e-7 1.531174608168819e-7
        1.589682010625388e-7 1.650424979286500e-7 1.713488931959838e-7 1.778962549945284e-7
        1.846937902707683e-7 1.917510577311564e-7 1.990779812799630e-7 2.066848639703803e-7
        2.145824024884786e-7 2.227817021903627e-7 2.312942927136421e-7 2.401321441851550e-7
        2.493076840477003e-7 2.588338145294156e-7 2.687239307803382e-7 2.789919397016108e-7
        2.896522794937882e-7 3.007199399516859e-7 3.122104835342733e-7 3.241400672392039e-7
        3.365254653126810e-7 3.493840928265644e-7 3.627340301558097e-7 3.765940483906074e-7
        3.909836357189029e-7 4.059230248163185e-7 4.214332212819531e-7 4.375360331599477e-7
        4.542541015882727e-7 4.716109326177492e-7 4.896309302459511e-7 5.083394307123701e-7
        5.277627381029527e-7 5.479281613139792e-7 5.688640524271571e-7 5.905998465497535e-7
        6.131661031756906e-7 6.365945491256104e-7 6.609181231261529e-7 6.861710220909868e-7
        7.123887491684950e-7 7.396081636235246e-7 7.678675326231428e-7 7.972065849990253e-7
        8.276665670618842e-7 8.592903005461478e-7 8.921222427662013e-7 9.262085490684663e-7
        9.615971376668949e-7 9.983377569527642e-7 1.036482055373042e-6 1.076083653975573e-6
        1.117198221721736e-6 1.159883553674111e-6 1.204199652166346e-6 1.250208811070324e-6
        1.297975703278698e-6 1.347567471524698e-6 1.399053822666918e-6 1.452507125570757e-6
        1.508002512723885e-6 1.565617985727756e-6 1.625434524812988e-6 1.687536202531709e-6
        1.752010301786453e-6 1.818947438360361e-6 1.888441688119790e-6 1.960590719068475e-6
        2.035495928436626e-6 2.113262584997618e-6 2.193999976811061e-6 2.277821564597885e-6
        2.364845140964440e-6 2.455192995694458e-6 2.548992087344004e-6 2.646374221374859e-6
        2.747476235079411e-6 2.852440189552494e-6 2.961413568978840e-6 3.074549487516893e-6
        3.192006904062227e-6 3.313950845196857e-6 3.440552636633512e-6 3.571990143471989e-6
        3.708448019613563e-6 3.850117966672575e-6 3.997199002748594e-6 4.149897741436586e-6
        4.308428681461290e-6 4.473014507338801e-6 4.643886401487253e-6 4.821284368218509e-6
        5.005457570064036e-6 5.196664676901904e-6 5.395174228371581e-6 5.601265010080080e-6
        5.815226444123141e-6 6.037358994468102e-6 6.267974587752358e-6 6.507397050094211e-6
        6.755962560515250e-6 7.014020121608525e-6 7.281932048099354e-6 7.560074473985513e-6
        7.848837878958648e-6 8.148627634827299e-6 8.459864572718391e-6 8.782985571822131e-6
        9.118444170511676e-6 9.466711200680276e-6 9.828275446168952e-6 1.020364432620141e-5
        1.059334460477318e-5 1.099792312696777e-5 1.141794758323037e-5 1.185400730264179e-5
        1.230671407629916e-5 1.277670301193123e-5 1.326463342093620e-5 1.377118973906050e-5
        1.429708248198506e-5 1.484304923714234e-5 1.540985569312675e-5 1.599829670811192e-5
        1.660919741875070e-5 1.724341439108073e-5 1.790183681500984e-5 1.858538774403508e-5
        1.929502538188217e-5 2.003174441783957e-5 2.079657741261363e-5 2.159059623660535e-5
        2.241491356257334e-5 2.327068441472603e-5 2.415910777636617e-5 2.508142825826979e-5
        2.603893783009348e-5 2.703297761715619e-5 2.806493976505045e-5 2.913626937462795e-5
        3.024846650996776e-5 3.140308828209636e-5 3.260175101123912e-5 3.384613247058851e-5
        3.513797421458132e-5 3.647908399487900e-5 3.787133826728550e-5 3.931668479301982e-5
        4.081714533782517e-5 4.237481847258387e-5 4.399188247918645e-5 4.567059836557378e-5
        4.741331299401488e-5 4.922246232679697e-5 5.110057479369374e-5 5.305027478572429e-5
        5.507428627986335e-5 5.717543659954343e-5 5.935666031597813e-5 6.162100329548606e-5
        6.397162689820983e-5 6.641181233378779e-5 6.894496517977565e-5 7.157462006878888e-5
        7.430444555054915e-5 7.713824913527125e-5 8.007998252501649e-5 8.313374703989808e-5
        8.630379924626288e-5 8.959455679421053e-5 9.301060447210158e-5 9.655670048593926e-5
        1.002377829718083e-4 1.040589767498425e-4 1.080256003284622e-4 1.121431731679723e-4
        1.164174232128697e-4 1.208542947025859e-4 1.254599562706836e-4 1.302408093429188e-4
        1.352034968448642e-4 1.403549122302418e-4 1.457022088414100e-4 1.512528096139245e-4
        1.570144171373883e-4 1.629950240853359e-4 1.692029240272322e-4 1.756467226361370e-4
        1.823353493060651e-4 1.892780691934708e-4 1.964844956978427e-4 2.039646033968065e-4
        2.117287414516933e-4 2.197876475000367e-4 2.281524620519697e-4 2.368347434080798e-4
        2.458464831167996e-4 2.552001219900129e-4 2.649085666961504e-4 2.749852069506311e-4
        2.854439333241404e-4 2.962991556898491e-4 3.075658223314023e-4 3.192594397340373e-4
        3.313960930820148e-4 3.439924674861397e-4 3.570658699658821e-4 3.706342522113876e-4
        3.847162341513137e-4 3.993311283532324e-4 4.144989652841376e-4 4.302405194592787e-4
        4.465773365084309e-4 4.635317611894584e-4 4.811269663798731e-4 4.993869830778788e-4
        5.183367314452903e-4 5.380020529254894e-4 5.584097434705010e-4 5.795875879120653e-4
        6.015643955125332e-4 6.243700367321874e-4 6.480354812505407e-4 6.725928372799945e-4
        6.980753922111386e-4 7.245176546298237e-4 7.519553977469975e-4 7.804257042832096e-4
        8.099670128504156e-4 8.406191658747007e-4 8.724234591042201e-4 9.054226927474904e-4
        9.396612242880165e-4 9.751850230218215e-4 1.012041726365315e-3 1.050280697981480e-3
        1.089953087773052e-3 1.131111893791960e-3 1.173812026114713e-3 1.218110372734019e-3
        1.264065867517203e-3 1.311739560282337e-3 1.361194689043272e-3 1.412496754474819e-3
        1.465713596649431e-3 1.520915474096565e-3 1.578175145235855e-3 1.637567952234682e-3
        1.699171907340429e-3 1.763067781736932e-3 1.829339196973916e-3 1.898072719017035e-3
        1.969357954965132e-3 2.043287652479699e-3 2.119957801969928e-3 2.199467741574821e-3
        2.281920264981431e-3 2.367421732116062e-3 2.456082182742114e-3 2.548015452995220e-3
        2.643339294882713e-3 2.742175498770317e-3 2.844650018874840e-3 2.950893101776442e-3
        3.061039417958762e-3 3.175228196379444e-3 3.293603362066726e-3 3.416313676731065e-3
        3.543512882372728e-3 3.675359847857929e-3 3.812018718426967e-3 3.953659068087624e-3
        4.100456054836616e-3 4.252590578639860e-3 4.410249442089810e-3 4.573625513644548e-3
        4.742917893338285e-3 4.918332080837553e-3 5.100080145699821e-3 5.288380899673285e-3
        5.483460070856796e-3 5.685550479517732e-3 5.894892215343274e-3 6.111732815876099e-3
        6.336327445859852e-3 6.568939077192284e-3 6.809838669153889e-3 7.059305348549544e-3
        7.317626589366126e-3 7.585098391514168e-3 7.862025458183673e-3 8.148721371303525e-3
        8.445508764552162e-3 8.752719493320782e-3 9.070694800983365e-3 9.399785480776336e-3
        9.740352032536981e-3 1.009276481349346e-2 1.045740418223832e-2 1.083466063495495e-2
        1.122493493289896e-2 1.162863822006638e-2 1.204619212990693e-2 1.247802887986189e-2
        1.292459135242517e-2 1.338633316134019e-2 1.386371870145484e-2 1.435722318066343e-2
        1.486733263226557e-2 1.539454390596911e-2 1.593936463565751e-2 1.650231318192920e-2
        1.708391854730170e-2 1.768472026185073e-2 1.830526823693041e-2 1.894612258449022e-2
        1.960785339936951e-2 2.029104050181291e-2 2.099627313730559e-2 2.172414963068107e-2
        2.247527699130365e-2 2.325027046597139e-2 2.404975303603054e-2 2.487435485502894e-2
        2.572471262307390e-2 2.660146889389607e-2 2.750527131045086e-2 2.843677176472741e-2
        2.939662547726135e-2 3.038548999168696e-2 3.140402407949835e-2 3.245288655002581e-2
        3.353273496048216e-2 3.464422422077668e-2 3.578800508765462e-2 3.696472254258584e-2
        3.817501404769676e-2 3.941950767393720e-2 4.069882009556921e-2 4.201355444499236e-2
        4.336429802186228e-2 4.475161985041868e-2 4.617606807894127e-2 4.763816721526423e-2
        4.913841519234185e-2 5.067728025795336e-2 5.225519768276357e-2 5.387256628115079e-2
        5.552974473943775e-2 5.722704774646208e-2 5.896474192177841e-2 6.074304153720354e-2
        6.256210402792855e-2 6.442202528999496e-2 6.632283476161247e-2 6.826449028657033e-2
        7.024687275885972e-2 7.226978054863181e-2 7.433292371071327e-2 7.643591797815564e-2
        7.857827854467886e-2 8.075941364139354e-2 8.297861791489646e-2 8.523506561567743e-2
        8.752780360782941e-2 8.985574421327900e-2 9.221765790616983e-2 9.461216587568106e-2
        9.703773247839045e-2 9.949265760437200e-2 1.019750689845188e-1 1.044829144701038e-1
        1.070139543193873e-1 1.095657535300832e-1 1.121356742607753e-1 1.147208683888908e-1
        1.173182702575847e-1 1.199245896689014e-1 1.225363051857920e-1 1.251496578110169e-1
        1.277606451166076e-1 1.303650159033760e-1 1.329582654759502e-1 1.355356316248971e-1
        1.380920914136814e-1 1.406223588744263e-1 1.431208837226263e-1 1.455818512070993e-1
        1.479991832174148e-1 1.503665407767791e-1 1.526773280537688e-1 1.549246980312790e-1
        1.571015599755003e-1 1.592005888514991e-1 1.612142368349301e-1 1.631347470714034e-1
        1.649541698358577e-1 1.666643812438367e-1 1.682571046645498e-1 1.697239349818826e-1
        1.710563658438267e-1 1.722458200329090e-1 1.732836830798682e-1 1.741613402297664e-1
        1.748702168536965e-1 1.754018223799568e-1 1.757477977957276e-1 1.758999667436589e-1
        1.758503902070427e-1 1.755914247421858e-1 1.751157841769504e-1 1.744166046499798e-1
        1.734875128157065e-1 1.723226969856966e-1 1.709169809171490e-1 1.692658998944156e-1
        1.673657786793158e-1 1.652138108309325e-1 1.628081388157869e-1 1.601479342451782e-1
        1.572334774885908e-1 1.540662358211609e-1 1.506489391700689e-1 1.469856524306022e-1
        1.430818432287190e-1 1.389444439148767e-1 1.345819064854949e-1 1.300042490457321e-1
        1.252230923527618e-1 1.202516849150298e-1 1.151049150730868e-1 1.097993084548403e-1
        1.043530091859119e-1 9.878574324822104e-2 9.311876242085313e-2 8.737476731107005e-2
        8.157780809437718e-2 7.575316173520372e-2 6.992718465854486e-2 6.412714009191544e-2
        5.838099960019129e-2 5.271721869680983e-2 4.716448683601224e-2 4.175145257438762e-2
        3.650642523644359e-2 3.145705502770446e-2 2.662999420744297e-2 2.205054265701031e-2
        1.774228195207498e-2 1.372670285809652e-2 1.002283200537609e-2 6.646864346790883e-3
        3.611808837759441e-3 9.271555801741604e-4 -1.401426588477885e-3 -3.372352435353488e-3
        -4.988332464577288e-3 -6.256524366157632e-3 -7.188613186536998e-3 -7.800809773517527e-3
        -8.113757513980399e-3 -8.152338218606483e-3 -7.945369265512745e-3 -7.525185844034290e-3
        -6.927104385911875e-3 -6.188766071673846e-3 -5.349362682179171e-3 -4.448751041881999e-3
        -3.526466865609021e-3 -2.620653945545517e-3 -1.766930242803874e-3 -9.972184883707131e-4
        -3.385752234122130e-4 1.879413520061019e-4 5.683180175855216e-4 7.964949915382907e-4
        8.750782713984538e-4 8.157937131387932e-4 6.396179866313794e-4 3.765207818662436e-4
        6.475433387866712e-5 -2.503689904009149e-4 -5.182621149717216e-4 -6.973326391622459e-4
        -7.927133695118105e-4 -8.207482897129442e-4 -7.968361773941640e-4 -7.352059089403353e-4
        -6.487032089335099e-4 -5.485979933240737e-4 -4.444242304466449e-4 -3.438652632190113e-4
        -2.526967263953988e-4 -1.747967995043114e-4 -1.122299572579796e-4 -6.540602471760693e-5
        -3.331155584406637e-5 -1.380558082983430e-5 -3.966786370268593e-6 -4.743420454755842e-7
        0.000000000000000e0 0.000000000000000e0 0.000000000000000e0 0.000000000000000e0
        0.000000000000000e0 0.000000000000000e0 0.000000000000000e0 0.000000000000000e0
        0.000000000000000e0 0.000000000000000e0 0.000000000000000e0 0.000000000000000e0
        0.000000000000000e0 0.000000000000000e0 0.000000000000000e0 0.000000000000000e0
        0.000000000000000e0 0.000000000000000e0 0.000000000000000e0 0.000000000000000e0
        0.000000000000000e0 0.000000000000000e0 0.000000000000000e0 0.000000000000000e0
        0.000000000000000e0 0.000000000000000e0 0.000000000000000e0 0.000000000000000e0
        0.000000000000000e0 0.000000000000000e0 0.000000000000000e0 0.000000000000000e0
        0.000000000000000e0 0.000000000000000e0 0.000000000000000e0 0.000000000000000e0
        0.000000000000000e0 0.000000000000000e0 0.000000000000000e0 0.000000000000000e0
        0.000000000000000e0 0.000000000000000e0 0.000000000000000e0 0.000000000000000e0
        0.000000000000000e0 0.000000000000000e0 0.000000000000000e0 0.000000000000000e0
        0.000000000000000e0 0.000000000000000e0 0.000000000000000e0 0.000000000000000e0
        0.000000000000000e0 0.000000000000000e0 0.000000000000000e0 0.000000000000000e0
        0.000000000000000e0 0.000000000000000e0 0.000000000000000e0 0.000000000000000e0
        0.000000000000000e0 0.000000000000000e0 0.000000000000000e0 0.000000000000000e0
        0.000000000000000e0 0.000000000000000e0 0.000000000000000e0 0.000000000000000e0
        0.000000000000000e0 0.000000000000000e0 0.000000000000000e0 0.000000000000000e0
        0.000000000000000e0 0.000000000000000e0 0.000000000000000e0 0.000000000000000e0
        0.000000000000000e0 0.000000000000000e0 0.000000000000000e0 0.000000000000000e0
        0.000000000000000e0 0.000000000000000e0 0.000000000000000e0 0.000000000000000e0
        0.000000000000000e0 0.000000000000000e0 0.000000000000000e0 0.000000000000000e0
        0.000000000000000e0 0.000000000000000e0 0.000000000000000e0 0.000000000000000e0
        0.000000000000000e0 0.000000000000000e0 0.000000000000000e0 0.000000000000000e0
        0.000000000000000e0 0.000000000000000e0 0.000000000000000e0 0.000000000000000e0
        0.000000000000000e0 0.000000000000000e0 0.000000000000000e0 0.000000000000000e0
        0.000000000000000e0 0.000000000000000e0 0.000000000000000e0 0.000000000000000e0
        0.000000000000000e0 0.000000000000000e0 0.000000000000000e0 0.000000000000000e0
        0.000000000000000e0 0.000000000000000e0 0.000000000000000e0 0.000000000000000e0
        0.000000000000000e0 0.000000000000000e0 0.000000000000000e0 0.000000000000000e0
        0.000000000000000e0 0.000000000000000e0 0.000000000000000e0 0.000000000000000e0
        0.000000000000000e0 0.000000000000000e0 0.000000000000000e0 0.000000000000000e0
        0.000000000000000e0 0.000000000000000e0 0.000000000000000e0 0.000000000000000e0
        0.000000000000000e0 0.000000000000000e0 0.000000000000000e0 0.000000000000000e0
        0.000000000000000e0 0.000000000000000e0 0.000000000000000e0 0.000000000000000e0
        0.000000000000000e0 0.000000000000000e0 0.000000000000000e0 0.000000000000000e0
        0.000000000000000e0 0.000000000000000e0 0.000000000000000e0 0.000000000000000e0
        0.000000000000000e0 0.000000000000000e0 0.000000000000000e0 0.000000000000000e0
        0.000000000000000e0 0.000000000000000e0 0.000000000000000e0 0.000000000000000e0
        0.000000000000000e0 0.000000000000000e0 0.000000000000000e0 0.000000000000000e0
        0.000000000000000e0 0.000000000000000e0 0.000000000000000e0 0.000000000000000e0
        0.000000000000000e0 0.000000000000000e0 0.000000000000000e0 0.000000000000000e0
        0.000000000000000e0 0.000000000000000e0 0.000000000000000e0 0.000000000000000e0
        0.000000000000000e0 0.000000000000000e0 0.000000000000000e0 0.000000000000000e0
        0.000000000000000e0 0.000000000000000e0 0.000000000000000e0 0.000000000000000e0
        0.000000000000000e0 0.000000000000000e0 0.000000000000000e0 0.000000000000000e0
        0.000000000000000e0 0.000000000000000e0 0.000000000000000e0 0.000000000000000e0
        0.000000000000000e0 0.000000000000000e0 0.000000000000000e0 0.000000000000000e0
        0.000000000000000e0 0.000000000000000e0 0.000000000000000e0 0.000000000000000e0
        0.000000000000000e0 0.000000000000000e0 0.000000000000000e0 0.000000000000000e0
        0.000000000000000e0 0.000000000000000e0 0.000000000000000e0 0.000000000000000e0
        0.000000000000000e0 0.000000000000000e0 0.000000000000000e0 0.000000000000000e0
        0.000000000000000e0 0.000000000000000e0 0.000000000000000e0 0.000000000000000e0
        0.000000000000000e0 0.000000000000000e0 0.000000000000000e0 0.000000000000000e0
        0.000000000000000e0 0.000000000000000e0 0.000000000000000e0 0.000000000000000e0
        0.000000000000000e0 0.000000000000000e0 0.000000000000000e0 0.000000000000000e0
        0.000000000000000e0 0.000000000000000e0 0.000000000000000e0 0.000000000000000e0
        0.000000000000000e0 0.000000000000000e0 0.000000000000000e0 0.000000000000000e0
        0.000000000000000e0 0.000000000000000e0 0.000000000000000e0 0.000000000000000e0
        0.000000000000000e0 0.000000000000000e0 0.000000000000000e0 0.000000000000000e0
        0.000000000000000e0 0.000000000000000e0 0.000000000000000e0 0.000000000000000e0
        0.000000000000000e0 0.000000000000000e0 0.000000000000000e0 0.000000000000000e0
        0.000000000000000e0 0.000000000000000e0 0.000000000000000e0 0.000000000000000e0
        0.000000000000000e0 0.000000000000000e0 0.000000000000000e0 0.000000000000000e0
        0.000000000000000e0 0.000000000000000e0 0.000000000000000e0 0.000000000000000e0
        0.000000000000000e0 0.000000000000000e0 0.000000000000000e0 0.000000000000000e0
        0.000000000000000e0 0.000000000000000e0 0.000000000000000e0 0.000000000000000e0
        0.000000000000000e0 0.000000000000000e0 0.000000000000000e0 0.000000000000000e0
        0.000000000000000e0 0.000000000000000e0 0.000000000000000e0 0.000000000000000e0
        0.000000000000000e0 0.000000000000000e0 0.000000000000000e0 0.000000000000000e0
        0.000000000000000e0 0.000000000000000e0 0.000000000000000e0 0.000000000000000e0
        0.000000000000000e0 0.000000000000000e0 0.000000000000000e0 0.000000000000000e0
        0.000000000000000e0 0.000000000000000e0 0.000000000000000e0 0.000000000000000e0
        0.000000000000000e0 0.000000000000000e0 0.000000000000000e0 0.000000000000000e0
        0.000000000000000e0 0.000000000000000e0 0.000000000000000e0 0.000000000000000e0
        0.000000000000000e0 0.000000000000000e0 0.000000000000000e0 0.000000000000000e0
        0.000000000000000e0 0.000000000000000e0 0.000000000000000e0 0.000000000000000e0
        0.000000000000000e0 0.000000000000000e0 0.000000000000000e0 0.000000000000000e0
        0.000000000000000e0 0.000000000000000e0 0.000000000000000e0 0.000000000000000e0
        0.000000000000000e0 0.000000000000000e0 0.000000000000000e0
        </PP_QIJL.2.4.1>
      <PP_QIJL.3.3.0 first_index="3" second_index="3" composite_index="6" angular_momentum="0">
        1.381837422626125e-9 1.416818802922968e-9 1.452685741047266e-9 1.489460655000566e-9
        1.527166530298756e-9 1.565826934338732e-9 1.605466031128797e-9 1.646108596391944e-9
        1.687780033051476e-9 1.730506387108664e-9 1.774314363922327e-9 1.819231344900546e-9
        1.865285404614924e-9 1.912505328348100e-9 1.960920630085491e-9 2.010561570962456e-9
        2.061459178178501e-9 2.113645264390274e-9 2.167152447595487e-9 2.222014171520241e-9
        2.278264726522400e-9 2.335939271024182e-9 2.395073853487302e-9 2.455705434944417e-9
        2.517871912100971e-9 2.581612141021825e-9 2.646965961417572e-9 2.713974221545621e-9
        2.782678803741666e-9 2.853122650597509e-9 2.925349791801524e-9 2.999405371658650e-9
        3.075335677307013e-9 3.153188167648871e-9 3.233011503013961e-9 3.314855575573741e-9
        3.398771540525596e-9 3.484811848066482e-9 3.573030276175965e-9 3.663481964229190e-9
        3.756223447460721e-9 3.851312692300897e-9 3.948809132606670e-9 4.048773706809684e-9
        4.151268896004733e-9 4.256358763002411e-9 4.364108992370422e-9 4.474586931488528e-9
        4.587861632642784e-9 4.704003896185438e-9 4.823086314787367e-9 4.945183318810803e-9
        5.070371222830685e-9 5.198728273333661e-9 5.330334697624656e-9 5.465272753971423e-9
        5.603626783018596e-9 5.745483260503241e-9 5.890930851304919e-9 6.040060464864050e-9
        6.192965312003152e-9 6.349740963186536e-9 6.510485408254871e-9 6.675299117671893e-9
        6.844285105321632e-9 7.017548992895267e-9 7.195199075908027e-9 7.377346391387269e-9
        7.564104787274079e-9 7.755590993581825e-9 7.951924695356011e-9 8.153228607481184e-9
        8.359628551381554e-9 8.571253533663272e-9 8.788235826747643e-9 9.010711051545382e-9
        9.238818262223944e-9 9.472700033120672e-9 9.712502547856152e-9 9.958375690703537e-9
        1.021047314027075e-8 1.046895246555438e-8 1.073397522442517e-8 1.100570706460657e-8
        1.128431782720978e-8 1.156998165288945e-8 1.186287709068703e-8 1.216318720962931e-8
        1.247109971315215e-8 1.278680705642087e-8 1.311050656662045e-8 1.344240056629109e-8
        1.378269649978585e-8 1.413160706292962e-8 1.448935033596052e-8 1.485614991983639e-8
        1.523223507599227e-8 1.561784086963554e-8 1.601320831666869e-8 1.641858453433152e-8
        1.683422289565664e-8 1.726038318783513e-8 1.769733177459125e-8 1.814534176266755e-8
        1.860469317252473e-8 1.907567311336248e-8 1.955857596257115e-8 2.005370354972623e-8
        2.056136534524059e-8 2.108187865379248e-8 2.161556881265000e-8 2.216276939501632e-8
        2.272382241852253e-8 2.329907855899829e-8 2.388889736965444e-8 2.449364750581370e-8
        2.511370695533080e-8 2.574946327484551e-8 2.640131383201634e-8 2.706966605388658e-8
        2.775493768153734e-8 2.845755703118740e-8 2.917796326190258e-8 2.991660665008223e-8
        3.067394887089439e-8 3.145046328683512e-8 3.224663524359290e-8 3.306296237340286e-8
        3.389995490608003e-8 3.475813598792688e-8 3.563804200871320e-8 3.654022293693405e-8
        3.746524266355438e-8 3.841367935445545e-8 3.938612581180379e-8 4.038318984456723e-8
        4.140549464841120e-8 4.245367919521197e-8 4.352839863242977e-8 4.463032469259264e-8
        4.576014611314551e-8 4.691856906692820e-8 4.810631760355052e-8 4.932413410194071e-8
        5.057277973435034e-8 5.185303494210438e-8 5.316569992339581e-8 5.451159513342795e-8
        5.589156179721757e-8 5.730646243538022e-8 5.875718140322437e-8 6.024462544349351e-8
        6.176972425310019e-8 6.333343106420673e-8 6.493672324001611e-8 6.658060288564394e-8
        6.826609747445566e-8 6.999426049025830e-8 7.176617208574910e-8 7.358293975763299e-8
        7.544569903882898e-8 7.735561420820083e-8 7.931387901825316e-8 8.132171744124866e-8
        8.338038443421427e-8 8.549116672330992e-8 8.765538360805708e-8 8.987438778592184e-8
        9.214956619777436e-8 9.448234089475005e-8 9.687416992705245e-8 9.932654825525978e-8
        1.018410086846958e-7 1.044191228234565e-7 1.070625020646881e-7 1.097727985937276e-7
        1.125517064207442e-7 1.154009624395139e-7 1.183223475130011e-7 1.213176875864195e-7
        1.243888548284662e-7 1.275377688014498e-7 1.307663976610344e-7 1.340767593863564e-7
        1.374709230412807e-7 1.409510100675802e-7 1.445191956108571e-7 1.481777098800217e-7
        1.519288395411884e-7 1.557749291468567e-7 1.597183826012656e-7 1.637616646628487e-7
        1.679073024847139e-7 1.721578871941237e-7 1.765160755119563e-7 1.809845914131577e-7
        1.855662278292316e-7 1.902638483938185e-7 1.950803892324656e-7 2.000188607977016e-7
        2.050823497505576e-7 2.102740208897252e-7 2.155971191295371e-7 2.210549715280232e-7
        2.266509893663029e-7 2.323886702806060e-7 2.382716004482726e-7 2.443034568290760e-7
        2.504880094632862e-7 2.568291238279034e-7 2.633307632525287e-7 2.699969913963954e-7
        2.768319747880924e-7 2.838399854295787e-7 2.910254034661124e-7 2.983927199237556e-7
        3.059465395161825e-7 3.136915835225234e-7 3.216326927380595e-7 3.297748304996054e-7
        3.381230857874642e-7 3.466826764059108e-7 3.554589522441649e-7 3.644573986199148e-7
        3.736836397074720e-7 3.831434420526847e-7 3.928427181768402e-7 4.027875302717670e-7
        4.129840939884750e-7 4.234387823216938e-7 4.341581295927180e-7 4.451488355330846e-7
        4.564177694715897e-7 4.679719746272959e-7 4.798186725111987e-7 4.919652674392863e-7
        5.044193511598522e-7 5.171887075979020e-7 5.302813177196571e-7 5.437053645201777e-7
        5.574692381372114e-7 5.715815410944924e-7 5.860510936777255e-7 6.008869394466490e-7
        6.160983508866000e-7 6.316948352031124e-7 6.476861402631807e-7 6.640822606868802e-7
        6.808934440931668e-7 6.981301975037480e-7 7.158032939090231e-7 7.339237790002011e-7
        7.525029780717905e-7 7.715525030987830e-7 7.910842599929414e-7 8.111104560427290e-7
        8.316436075415218e-7 8.526965476088728e-7 8.742824342097050e-7 8.964147583764534e-7
        9.191073526392676e-7 9.423743996695697e-7 9.662304411423285e-7 9.906903868226205e-7
        1.015769523882121e-6 1.041483526451357e-6 1.067848465413682e-6 1.094880818447087e-6
        1.122597480320120e-6 1.151015773448334e-6 1.180153458717854e-6 1.210028746582840e-6
        1.240660308443730e-6 1.272067288313413e-6 1.304269314778583e-6 1.337286513263745e-6
        1.371139518605540e-6 1.405849487945212e-6 1.441438113947292e-6 1.477927638352733e-6
        1.515340865874933e-6 1.553701178447374e-6 1.593032549831696e-6 1.633359560595378e-6
        1.674707413468343e-6 1.717101949088065e-6 1.760569662143027e-6 1.805137717924558e-6
        1.850833969297421e-6 1.897686974099710e-6 1.945726012982898e-6 1.994981107703203e-6
        2.045483039875637e-6 2.097263370202457e-6 2.150354458188023e-6 2.204789482352295e-6
        2.260602460955660e-6 2.317828273247941e-6 2.376502681254853e-6 2.436662352115529e-6
        2.498344880984956e-6 2.561588814515705e-6 2.626433674933470e-6 2.692919984721533e-6
        2.761089291929471e-6 2.830984196121873e-6 2.902648374983299e-6 2.976126611595957e-6
        3.051464822407197e-6 3.128710085904180e-6 3.207910672013572e-6 3.289116072244646e-6
        3.372377030594478e-6 3.457745575234542e-6 3.545275050998425e-6 3.635020152690841e-6
        3.727036959238770e-6 3.821382968705880e-6 3.918117134192100e-6 4.017299900640663e-6
        4.118993242575496e-6 4.223260702792491e-6 4.330167432028659e-6 4.439780229633934e-6
        4.552167585270812e-6 4.667399721667912e-6 4.785548638453817e-6 4.906688157098713e-6
        5.030893966991567e-6 5.158243672681559e-6 5.288816842313169e-6 5.422695057284876e-6
        5.559961963162515e-6 5.700703321878768e-6 5.845007065251265e-6 5.992963349852582e-6
        6.144664613266068e-6 6.300205631762575e-6 6.459683579433819e-6 6.623198088819072e-6
        6.790851313062839e-6 6.962747989641944e-6 7.138995505701838e-6 7.319703965042292e-6
        7.504986256794308e-6 7.694958125830666e-6 7.889738244953682e-6 8.089448288905126e-6
        8.294213010243944e-6 8.504160317138840e-6 8.719421353124002e-6 8.940130578867045e-6
        9.166425856000160e-6 9.398448533066061e-6 9.636343533631976e-6 9.880259446626251e-6
        1.013034861895323e-5 1.038676725044385e-5 1.064967549120052e-5 1.091923754139644e-5
        1.119562175359103e-5 1.147900073762441e-5 1.176955146815604e-5 1.206745539491358e-5
        1.237289855572004e-5 1.268607169236899e-5 1.300717036941899e-5 1.333639509598086e-5
        1.367395145057228e-5 1.402005020911704e-5 1.437490747616752e-5 1.473874481943084e-5
        1.511178940768201e-5 1.549427415214833e-5 1.588643785145210e-5 1.628852534020072e-5
        1.670078764131511e-5 1.712348212219026e-5 1.755687265478343e-5 1.800122977972828e-5
        1.845683087457536e-5 1.892396032626186e-5 1.940290970791658e-5 1.989397796010790e-5
        2.039747157664554e-5 2.091370479504992e-5 2.144299979180527e-5 2.198568688251536e-5
        2.254210472708450e-5 2.311260054004836e-5 2.369753030618295e-5 2.429725900152312e-5
        2.491216081992445e-5 2.554261940530709e-5 2.618902808972196e-5 2.685179013738392e-5
        2.753131899482040e-5 2.822803854728617e-5 2.894238338160033e-5 2.967479905556443e-5
        3.042574237412394e-5 3.119568167244093e-5 3.198509710604764e-5 3.279448094825680e-5
        3.362433789500740e-5 3.447518537732925e-5 3.534755388161498e-5 3.624198727789019e-5
        3.715904315628061e-5 3.809929317187665e-5 3.906332339820204e-5 4.005173468949844e-5
        4.106514305204142e-5 4.210418002471029e-5 4.316949306903808e-5 4.426174596897371e-5
        4.538161924059436e-5 4.652981055201026e-5 4.770703515371221e-5 4.891402631961524e-5
        5.015153579905977e-5 5.142033428003725e-5 5.272121186391186e-5 5.405497855191967e-5
        5.542246474372934e-5 5.682452174835719e-5 5.826202230773688e-5 5.973586113324700e-5
        6.124695545551284e-5 6.279624558780008e-5 6.438469550332893e-5 6.601329342684357e-5
        6.768305244077842e-5 6.939501110637305e-5 7.115023410009236e-5 7.294981286571876e-5
        7.479486628249122e-5 7.668654134967181e-5 7.862601388793340e-5 8.061448925796633e-5
        8.265320309671337e-5 8.474342207165076e-5 8.688644465353999e-5 8.908360190808914e-5
        9.133625830696623e-5 9.364581255862092e-5 9.601369845937899e-5 9.844138576528218e-5
        1.009303810851609e-4 1.034822287954313e-4 1.060985119771236e-4 1.087808533756569e-4
        1.115309163838841e-4 1.143504060489479e-4 1.172410701034918e-4 1.202047000217865e-4
        1.232431321013432e-4 1.263582485705903e-4 1.295519787232121e-4 1.328263000797505e-4
        1.361832395770852e-4 1.396248747864243e-4 1.431533351604382e-4 1.467708033101965e-4
        1.504795163125665e-4 1.542817670487503e-4 1.581799055746530e-4 1.621763405237746e-4
        1.662735405433475e-4 1.704740357644413e-4 1.747804193067710e-4 1.791953488189648e-4
        1.837215480550475e-4 1.883618084879229e-4 1.931189909606362e-4 1.979960273762224e-4
        2.029959224269508e-4 2.081217553637895e-4 2.133766818069314e-4 2.187639355982268e-4
        2.242868306963861e-4 2.299487631158255e-4 2.357532129100371e-4 2.417037462003830e-4
        2.478040172512177e-4 2.540577705922554e-4 2.604688431891119e-4 2.670411666629530e-4
        2.737787695602044e-4 2.806857796732708e-4 2.877664264132325e-4 2.950250432354931e-4
        3.024660701193487e-4 3.100940561024776e-4 3.179136618713315e-4 3.259296624084276e-4
        3.341469496975482e-4 3.425705354878382e-4 3.512055541178227e-4 3.600572654003404e-4
        3.691310575694029e-4 3.784324502899886e-4 3.879670977317659e-4 3.977407917077542e-4
        4.077594648789083e-4 4.180291940256108e-4 4.285562033870556e-4 4.393468680694742e-4
        4.504077175241688e-4 4.617454390962782e-4 4.733668816451980e-4 4.852790592375537e-4
        4.974891549135904e-4 5.100045245278414e-4 5.228327006648845e-4 5.359813966309721e-4
        5.494585105222986e-4 5.632721293705922e-4 5.774305333667274e-4 5.919422001629596e-4
        6.068158092543623e-4 6.220602464399757e-4 6.376846083641157e-4 6.536982071382424e-4
        6.701105750436904e-4 6.869314693155038e-4 7.041708770075353e-4 7.218390199388568e-4
        7.399463597214730e-4 7.585036028691841e-4 7.775217059873549e-4 7.970118810432318e-4
        8.169856007162936e-4 8.374546038280263e-4 8.584309008503306e-4 8.799267794916320e-4
        9.019548103595978e-4 9.245278526991651e-4 9.476590602044423e-4 9.713618869027862e-4
        9.956500931091908e-4 1.020537751448877e-3 1.046039252945707e-3 1.072169313173855e-3
        1.098942978469812e-3 1.126375632201584e-3 1.154483001091592e-3 1.183281161589467e-3
        1.212786546290608e-3 1.243015950395989e-3 1.273986538208311e-3 1.305715849659215e-3
        1.338221806861804e-3 1.371522720682301e-3 1.405637297324175e-3 1.440584644917558e-3
        1.476384280106254e-3 1.513056134624041e-3 1.550620561851439e-3 1.589098343343421e-3
        1.628510695317923e-3 1.668879275094305e-3 1.710226187470168e-3 1.752573991024204e-3
        1.795945704331877e-3 1.840364812079953e-3 1.885855271064962e-3 1.932441516059702e-3
        1.980148465530998e-3 2.029001527190802e-3 2.079026603361660e-3 2.130250096136456e-3
        2.182698912311064e-3 2.236400468067404e-3 2.291382693382947e-3 2.347674036141417e-3
        2.405303465917982e-3 2.464300477410630e-3 2.524695093487982e-3 2.586517867822005e-3
        2.649799887072393e-3 2.714572772587633e-3 2.780868681585717e-3 2.848720307775699e-3
        2.918160881379035e-3 2.989224168507564e-3 3.061944469852792e-3 3.136356618638632e-3
        3.212495977787510e-3 3.290398436247036e-3 3.370100404421845e-3 3.451638808652496e-3
        3.535051084680301e-3 3.620375170034190e-3 3.707649495272389e-3 3.796912974008615e-3
        3.888204991649114e-3 3.981565392763317e-3 4.077034467007461e-3 4.174652933516644e-3
        4.274461923677013e-3 4.376502962185807e-3 4.480817946302737e-3 4.587449123192203e-3
        4.696439065251134e-3 4.807830643312980e-3 4.921666997613620e-3 5.037991506400097e-3
        5.156847752058411e-3 5.278279484631241e-3 5.402330582591553e-3 5.529045010732655e-3
        5.658466775029702e-3 5.790639874322495e-3 5.925608248663354e-3 6.063415724168406e-3
        6.204105954204710e-3 6.347722356739637e-3 6.494308047673197e-3 6.643905769967704e-3
        6.796557818383253e-3 6.952305959621466e-3 7.111191347673551e-3 7.273254434163126e-3
        7.438534873467790e-3 7.607071422397714e-3 7.778901834203616e-3 7.954062746680589e-3
        8.132589564129054e-3 8.314516332928314e-3 8.499875610473405e-3 8.688698327221033e-3
        8.881013641585724e-3 9.076848787423744e-3 9.276228913838160e-3 9.479176917035803e-3
        9.685713263964322e-3 9.895855807455488e-3 1.010961959260045e-2 1.032701665408191e-2
        1.054805580418944e-2 1.077274241124582e-2 1.100107816817522e-2 1.123306085094908e-2
        1.146868406665009e-2 1.170793699090330e-2 1.195080409443191e-2 1.219726485850578e-2
        1.244729347906490e-2 1.270085855931409e-2 1.295792279060334e-2 1.321844262142934e-2
        1.348236791441487e-2 1.374964159115157e-2 1.402019926481881e-2 1.429396886052586e-2
        1.457087022336174e-2 1.485081471417669e-2 1.513370479316707e-2 1.541943359138358e-2
        1.570788447033930e-2 1.599893056995511e-2 1.629243434514500e-2 1.658824709141853e-2
        1.688620845995481e-2 1.718614596268995e-2 1.748787446805247e-2 1.779119568808193e-2
        1.809589765777619e-2 1.840175420762873e-2 1.870852443044526e-2 1.901595214366459e-2
        1.932376534855313e-2 1.963167568780033e-2 1.993937790320658e-2 2.024654929533398e-2
        2.055284918717899e-2 2.085791839412488e-2 2.116137870264696e-2 2.146283236046520e-2
        2.176186158107830e-2 2.205802806586217e-2 2.235087254717738e-2 2.263991435620745e-2
        2.292465101953553e-2 2.320455788876858e-2 2.347908780783138e-2 2.374767082287491e-2
        2.400971394008200e-2 2.426460093699668e-2 2.451169223336048e-2 2.475032482780303e-2
        2.497981230710340e-2 2.519944493511701e-2 2.540848982884020e-2 2.560619122946624e-2
        2.579177087666583e-2 2.596442849469807e-2 2.612334239932668e-2 2.626767023486924e-2
        2.639654985104740e-2 2.650910032962390e-2 2.660442317110357e-2 2.668160365203653e-2
        2.673971236368152e-2 2.677780694296392e-2 2.679493400678348e-2 2.679013130078612e-2
        2.676243007370143e-2 2.671085768825239e-2 2.663444047945652e-2 2.653220687084447e-2
        2.640319075871347e-2 2.624643517399167e-2 2.606099623060510e-2 2.584594736839407e-2
        2.560038389760461e-2 2.532342785077066e-2 2.501423314637936e-2 2.467199106706764e-2
        2.429593605320623e-2 2.388535181057466e-2 2.343957772840044e-2 2.295801560130328e-2
        2.244013664564343e-2 2.188548879739579e-2 2.129370427494917e-2 2.066450738614984e-2
        1.999772255445079e-2 1.929328253419652e-2 1.855123677984949e-2 1.777175992835311e-2
        1.695516034783338e-2 1.610188869946158e-2 1.521254645256834e-2 1.428789428601639e-2
        1.332886030144825e-2 1.233654796636686e-2 1.131224369711556e-2 1.025742398378803e-2
        9.173761950966359e-3 8.063133240064904e-3 6.927621091053847e-3 5.769520493556869e-3
        4.591341269930376e-3 3.395809946073369e-3 2.185870259585906e-3 9.646821496975996e-4
        -2.643809306659261e-4 -1.497736542939144e-3 -2.731599794314228e-3 -3.961992034670972e-3
        -5.184751877890536e-3 -6.395548700437592e-3 -7.589898761100495e-3 -8.763184073418063e-3
        -9.910674146180178e-3 -1.102755068707433e-2 -1.210893533968804e-2 -1.314992049424202e-2
        -1.414560317729155e-2 -1.509112198482387e-2 -1.598169697640744e-2 -1.681267239508731e-2
        -1.757956201837702e-2 -1.827809687993322e-2 -1.890427502933907e-2 -1.945441291906633e-2
        -1.992519792349970e-2 -2.031374140543221e-2 -2.061763165148273e-2 -2.083498590047447e-2
        -2.096450058930088e-2 -2.100549884085139e-2 -2.095797412019733e-2 -2.082262889086829e-2
        -2.060090701549973e-2 -2.029501856767577e-2 -1.990795565813705e-2 -1.944349783285113e-2
        -1.890620557736725e-2 -1.830140046645948e-2 -1.763513053573688e-2 -1.691411952843712e-2
        -1.614569879204228e-2 -1.533772077178471e-2 -1.449845327768445e-2 -1.363645399436881e-2
        -1.276042506405121e-2 -1.187904800746366e-2 -1.100079975896727e-2 -1.013375118289002e-2
        -9.285350108877417e-3 -8.462191672993530e-3 -7.669779573983739e-3 -6.912282742700344e-3
        -6.192292865556091e-3 -5.510589183873192e-3 -4.865917989038127e-3 -4.256094143953421e-3
        -3.682503868532611e-3 -3.147456766154994e-3 -2.653018167935311e-3 -2.200943480092699e-3
        -1.792607578966571e-3 -1.428932775342201e-3 -1.110318381115832e-3 -8.365741337147403e-4
        -6.068588879650505e-4 -4.196252421490021e-4 -2.725702202364122e-4 -1.625918097588330e-4
        -8.575102929839208e-5 -3.723922122364498e-5 -1.135037995109167e-5 -1.458487269540010e-6
        5.551115123125783e-17 0.000000000000000e0 0.000000000000000e0 0.000000000000000e0
        0.000000000000000e0 0.000000000000000e0 0.000000000000000e0 0.000000000000000e0
        0.000000000000000e0 0.000000000000000e0 0.000000000000000e0 0.000000000000000e0
        0.000000000000000e0 0.000000000000000e0 0.000000000000000e0 0.000000000000000e0
        0.000000000000000e0 0.000000000000000e0 0.000000000000000e0 0.000000000000000e0
        0.000000000000000e0 0.000000000000000e0 0.000000000000000e0 0.000000000000000e0
        0.000000000000000e0 0.000000000000000e0 0.000000000000000e0 0.000000000000000e0
        0.000000000000000e0 0.000000000000000e0 0.000000000000000e0 0.000000000000000e0
        0.000000000000000e0 0.000000000000000e0 0.000000000000000e0 0.000000000000000e0
        0.000000000000000e0 0.000000000000000e0 0.000000000000000e0 0.000000000000000e0
        0.000000000000000e0 0.000000000000000e0 0.000000000000000e0 0.000000000000000e0
        0.000000000000000e0 0.000000000000000e0 0.000000000000000e0 0.000000000000000e0
        0.000000000000000e0 0.000000000000000e0 0.000000000000000e0 0.000000000000000e0
        0.000000000000000e0 0.000000000000000e0 0.000000000000000e0 0.000000000000000e0
        0.000000000000000e0 0.000000000000000e0 0.000000000000000e0 0.000000000000000e0
        0.000000000000000e0 0.000000000000000e0 0.000000000000000e0 0.000000000000000e0
        0.000000000000000e0 0.000000000000000e0 0.000000000000000e0 0.000000000000000e0
        0.000000000000000e0 0.000000000000000e0 0.000000000000000e0 0.000000000000000e0
        0.000000000000000e0 0.000000000000000e0 0.000000000000000e0 0.000000000000000e0
        0.000000000000000e0 0.000000000000000e0 0.000000000000000e0 0.000000000000000e0
        0.000000000000000e0 0.000000000000000e0 0.000000000000000e0 0.000000000000000e0
        0.000000000000000e0 0.000000000000000e0 0.000000000000000e0 0.000000000000000e0
        0.000000000000000e0 0.000000000000000e0 0.000000000000000e0 0.000000000000000e0
        0.000000000000000e0 0.000000000000000e0 0.000000000000000e0 0.000000000000000e0
        0.000000000000000e0 0.000000000000000e0 0.000000000000000e0 0.000000000000000e0
        0.000000000000000e0 0.000000000000000e0 0.000000000000000e0 0.000000000000000e0
        0.000000000000000e0 0.000000000000000e0 0.000000000000000e0 0.000000000000000e0
        0.000000000000000e0 0.000000000000000e0 0.000000000000000e0 0.000000000000000e0
        0.000000000000000e0 0.000000000000000e0 0.000000000000000e0 0.000000000000000e0
        0.000000000000000e0 0.000000000000000e0 0.000000000000000e0 0.000000000000000e0
        0.000000000000000e0 0.000000000000000e0 0.000000000000000e0 0.000000000000000e0
        0.000000000000000e0 0.000000000000000e0 0.000000000000000e0 0.000000000000000e0
        0.000000000000000e0 0.000000000000000e0 0.000000000000000e0 0.000000000000000e0
        0.000000000000000e0 0.000000000000000e0 0.000000000000000e0 0.000000000000000e0
        0.000000000000000e0 0.000000000000000e0 0.000000000000000e0 0.000000000000000e0
        0.000000000000000e0 0.000000000000000e0 0.000000000000000e0 0.000000000000000e0
        0.000000000000000e0 0.000000000000000e0 0.000000000000000e0 0.000000000000000e0
        0.000000000000000e0 0.000000000000000e0 0.000000000000000e0 0.000000000000000e0
        0.000000000000000e0 0.000000000000000e0 0.000000000000000e0 0.000000000000000e0
        0.000000000000000e0 0.000000000000000e0 0.000000000000000e0 0.000000000000000e0
        0.000000000000000e0 0.000000000000000e0 0.000000000000000e0 0.000000000000000e0
        0.000000000000000e0 0.000000000000000e0 0.000000000000000e0 0.000000000000000e0
        0.000000000000000e0 0.000000000000000e0 0.000000000000000e0 0.000000000000000e0
        0.000000000000000e0 0.000000000000000e0 0.000000000000000e0 0.000000000000000e0
        0.000000000000000e0 0.000000000000000e0 0.000000000000000e0 0.000000000000000e0
        0.000000000000000e0 0.000000000000000e0 0.000000000000000e0 0.000000000000000e0
        0.000000000000000e0 0.000000000000000e0 0.000000000000000e0 0.000000000000000e0
        0.000000000000000e0 0.000000000000000e0 0.000000000000000e0 0.000000000000000e0
        0.000000000000000e0 0.000000000000000e0 0.000000000000000e0 0.000000000000000e0
        0.000000000000000e0 0.000000000000000e0 0.000000000000000e0 0.000000000000000e0
        0.000000000000000e0 0.000000000000000e0 0.000000000000000e0 0.000000000000000e0
        0.000000000000000e0 0.000000000000000e0 0.000000000000000e0 0.000000000000000e0
        0.000000000000000e0 0.000000000000000e0 0.000000000000000e0 0.000000000000000e0
        0.000000000000000e0 0.000000000000000e0 0.000000000000000e0 0.000000000000000e0
        0.000000000000000e0 0.000000000000000e0 0.000000000000000e0 0.000000000000000e0
        0.000000000000000e0 0.000000000000000e0 0.000000000000000e0 0.000000000000000e0
        0.000000000000000e0 0.000000000000000e0 0.000000000000000e0 0.000000000000000e0
        0.000000000000000e0 0.000000000000000e0 0.000000000000000e0 0.000000000000000e0
        0.000000000000000e0 0.000000000000000e0 0.000000000000000e0 0.000000000000000e0
        0.000000000000000e0 0.000000000000000e0 0.000000000000000e0 0.000000000000000e0
        0.000000000000000e0 0.000000000000000e0 0.000000000000000e0 0.000000000000000e0
        0.000000000000000e0 0.000000000000000e0 0.000000000000000e0 0.000000000000000e0
        0.000000000000000e0 0.000000000000000e0 0.000000000000000e0 0.000000000000000e0
        0.000000000000000e0 0.000000000000000e0 0.000000000000000e0 0.000000000000000e0
        0.000000000000000e0 0.000000000000000e0 0.000000000000000e0 0.000000000000000e0
        0.000000000000000e0 0.000000000000000e0 0.000000000000000e0 0.000000000000000e0
        0.000000000000000e0 0.000000000000000e0 0.000000000000000e0 0.000000000000000e0
        0.000000000000000e0 0.000000000000000e0 0.000000000000000e0 0.000000000000000e0
        0.000000000000000e0 0.000000000000000e0 0.000000000000000e0 0.000000000000000e0
        0.000000000000000e0 0.000000000000000e0 0.000000000000000e0 0.000000000000000e0
        0.000000000000000e0 0.000000000000000e0 0.000000000000000e0 0.000000000000000e0
        0.000000000000000e0 0.000000000000000e0 0.000000000000000e0 0.000000000000000e0
        0.000000000000000e0 0.000000000000000e0 0.000000000000000e0 0.000000000000000e0
        0.000000000000000e0 0.000000000000000e0 0.000000000000000e0 0.000000000000000e0
        0.000000000000000e0 0.000000000000000e0 0.000000000000000e0 0.000000000000000e0
        0.000000000000000e0 0.000000000000000e0 0.000000000000000e0 0.000000000000000e0
        0.000000000000000e0 0.000000000000000e0 0.000000000000000e0 0.000000000000000e0
        0.000000000000000e0 0.000000000000000e0 0.000000000000000e0 0.000000000000000e0
        0.000000000000000e0 0.000000000000000e0 0.000000000000000e0 0.000000000000000e0
        0.000000000000000e0 0.000000000000000e0 0.000000000000000e0
        </PP_QIJL.3.3.0>
      <PP_QIJL.3.3.2 first_index="3" second_index="3" composite_index="6" angular_momentum="2">
        3.443459131822962e-18 3.620009054722751e-18 3.805610885570004e-18 4.000728725596644e-18
        4.205850471012619e-18 4.421489033000361e-18 4.648183620259829e-18 4.886501087310952e-18
        5.137037351925007e-18 5.400418885229358e-18 5.677304278211306e-18 5.968385888538450e-18
        6.274391571813270e-18 6.596086501591008e-18 6.934275082711969e-18 7.289802962732177e-18
        7.663559146482573e-18 8.056478219043846e-18 8.469542682695483e-18 8.903785413683101e-18
        9.360292244946416e-18 9.840204681266915e-18 1.034472275362386e-17 1.087510801989636e-17
        1.143268671941475e-17 1.201885308924890e-17 1.263507285052679e-17 1.328288687349992e-17
        1.396391503052090e-17 1.467986024656747e-17 1.543251275744086e-17 1.622375458628710e-17
        1.705556424963412e-17 1.793002170471264e-17 1.884931355043164e-17 1.981573849501315e-17
        2.083171310395904e-17 2.189977784272204e-17 2.302260342919107e-17 2.420299751187578e-17
        2.544391169048803e-17 2.674844889647703e-17 2.811987115197213e-17 2.956160772653489e-17
        3.107726371211732e-17 3.267062903766638e-17 3.434568794591817e-17 3.610662895607690e-17
        3.795785533729143e-17 3.990399611911864e-17 4.194991766650416e-17 4.410073584822586e-17
        4.636182882922623e-17 4.873885051882138e-17 5.123774470841472e-17 5.386475993406538e-17
        5.662646510107773e-17 5.952976590967985e-17 6.258192212286431e-17 6.579056571957052e-17
        6.916371997859817e-17 7.270981954097628e-17 7.643773150094933e-17 8.035677757832170e-17
        8.447675742760321e-17 8.880797314223665e-17 9.336125501518644e-17 9.814798862029871e-17
        1.031801432821518e-16 1.084703020055880e-16 1.140316929397621e-16 1.198782224553868e-16
        1.260245099178842e-16 1.324859242433926e-16 1.392786223290424e-16 1.464195894535866e-16
        1.539266817494216e-16 1.618186708521905e-16 1.701152908396192e-16 1.788372875769586e-16
        1.880064705924164e-16 1.976457676123019e-16 2.077792818922424e-16 2.184323524878327e-16
        2.296316176154284e-16 2.414050812615061e-16 2.537821832071653e-16 2.667938726428537e-16
        2.804726855574009e-16 2.948528260948713e-16 3.099702520826621e-16 3.258627649447222e-16
        3.425701042247185e-16 3.601340469554969e-16 3.785985121233318e-16 3.980096704881514e-16
        4.184160600343766e-16 4.398687073410365e-16 4.624212551746576e-16 4.861300966239828e-16
        5.110545161118988e-16 5.372568376372122e-16 5.648025806169226e-16 5.937606237186957e-16
        6.242033770932052e-16 6.562069634369864e-16 6.898514083385865e-16 7.252208403839536e-16
        7.624037015214342e-16 8.014929682124096e-16 8.425863839205343e-16 8.857867035209564e-16
        9.312019502406383e-16 9.789456857722724e-16 1.029137294237228e-15 1.081902280707533e-15
        1.137372585033419e-15 1.195686911761109e-15 1.256991076965815e-15 1.321438372867239e-15
        1.389189951139246e-15 1.460415225872247e-15 1.535292297195831e-15 1.614008396620990e-15
        1.696760355215472e-15 1.783755095782935e-15 1.875210150276637e-15 1.971354203741443e-15
        2.072427666144256e-15 2.178683273522805e-15 2.290386719955843e-15 2.407817321935174e-15
        2.531268716800605e-15 2.661049596984395e-15 2.797484481901132e-15 2.940914529413087e-15
        3.091698388900252e-15 3.250213098068095e-15 3.416855025735468e-15 3.592040862960230e-15
        3.776208664980704e-15 3.969818946578613e-15 4.173355833602197e-15 4.387328273529032e-15
        4.612271308095648e-15 4.848747411175842e-15 5.097347895253474e-15 5.358694390006315e-15
        5.633440396698248e-15 5.922272922266705e-15 6.225914197191072e-15 6.545123481437917e-15
        6.880698962998611e-15 7.233479753766691e-15 7.604347987745708e-15 7.994231026833843e-15
        8.404103779701339e-15 8.834991139558623e-15 9.287970546910978e-15 9.764174683708005e-15
        1.026479430562412e-14 1.079108121955292e-14 1.134435141375989e-14 1.192598834852078e-14
        1.253744641547408e-14 1.318025457433655e-14 1.385602017607730e-14 1.456643298210807e-14
        1.531326938954134e-14 1.609839687308068e-14 1.692377865464978e-14 1.779147861243835e-14
        1.870366644163710e-14 1.966262307976858e-14 2.067074641017893e-14 2.173055725795083e-14
        2.284470569323338e-14 2.401597765774616e-14 2.524730193103054e-14 2.654175745386547e-14
        2.790258102715876e-14 2.933317540556831e-14 3.083711780608629e-14 3.241816885286595e-14
        3.408028198065569e-14 3.582761332035140e-14 3.766453209139095e-14 3.959563152696985e-14
        4.162574035940180e-14 4.375993489434050e-14 4.600355170405198e-14 4.836220097148258e-14
        5.084178051848034e-14 5.344849055325460e-14 5.618884917394502e-14 5.906970866706511e-14
        6.209827264157939e-14 6.528211404144889e-14 6.862919408169176e-14 7.214788215530488e-14
        7.584697676081856e-14 7.973572750282319e-14 8.382385822046503e-14 8.812159130175454e-14
        9.263967324447787e-14 9.738940152762233e-14 1.023826528605166e-13 1.076319128803066e-13
        1.131503073720347e-13 1.189516350893827e-13 1.250504022581369e-13 1.314618588486659e-13
        1.382020367080856e-13 1.452877896474759e-13 1.527368355843763e-13 1.605678008459277e-13
        1.688002667434547e-13 1.774548185349221e-13 1.865530968977051e-13 1.961178520403766e-13
        2.061730005887978e-13 2.167436853887752e-13 2.278563383747848e-13 2.395387466619818e-13
        2.518201220267469e-13 2.647311739494779e-13 2.783041864023025e-13 2.925730985736596e-13
        3.075735897316311e-13 3.233431684381967e-13 3.399212663374690e-13 3.573493367524496e-13
        3.756709583367826e-13 3.949319440407135e-13 4.151804556636939e-13 4.364671242800238e-13
        4.588451768387014e-13 4.823705692539443e-13 5.071021263192110e-13 5.331016887945349e-13
        5.604342680349053e-13 5.891682085463868e-13 6.193753588763327e-13 6.511312512650304e-13
        6.845152905079397e-13 7.196109525007279e-13 7.565059929635408e-13 7.952926668663498e-13
        8.360679591040341e-13 8.789338269979172e-13 9.239974552300827e-13 9.713715238478899e-13
        1.021174490008729e-12 1.073530884169480e-12 1.128571621461205e-12 1.186434329027572e-12
        1.247263690145448e-12 1.311211805988008e-12 1.378438575934871e-12 1.449112097380104e-12
        1.523409086037651e-12 1.601515317795102e-12 1.683626093220429e-12 1.769946725883086e-12
        1.860693055710342e-12 1.956091988662267e-12 2.056382064074712e-12 2.161814051088611e-12
        2.272651575656830e-12 2.389171779696125e-12 2.511666014032055e-12 2.640440566869484e-12
        2.775817429609609e-12 2.918135101928378e-12 3.067749438128860e-12 3.225034536883508e-12
        3.390383676590762e-12 3.564210298684276e-12 3.746949041353144e-12 3.939056826257403e-12
        4.141014000955402e-12 4.353325539899360e-12 4.576522307001219e-12 4.811162382925296e-12
        5.057832460425873e-12 5.317149311217724e-12 5.589761328046854e-12 5.876350145816172e-12
        6.177632345818794e-12 6.494361247339352e-12 6.827328791101666e-12 7.177367519271456e-12
        7.545352656963214e-12 7.932204300454847e-12 8.338889717579939e-12 8.766425766047732e-12
        9.215881435736449e-12 9.688380521314199e-12 1.018510443186867e-11 1.070729514456836e-11
        1.125625830973835e-11 1.183336651511219e-11 1.244006271741900e-11 1.307786384988311e-11
        1.374836461465362e-11 1.445324146964225e-11 1.519425681973555e-11 1.597326342285591e-11
        1.679220902188505e-11 1.765314121402627e-11 1.855821256977560e-11 1.950968601429679e-11
        2.050994048464833e-11 2.156147687700268e-11 2.266692429872072e-11 2.382904664090598e-11
        2.505074948786604e-11 2.633508738074688e-11 2.768527145349432e-11 2.910467746022454e-11
        3.059685421406391e-11 3.216553245854770e-11 3.381463419374551e-11 3.554828248042003e-11
        3.737081174671661e-11 3.928677862314072e-11 4.130097333289394e-11 4.341843166603401e-11
        4.564444756737542e-11 4.798458636958504e-11 5.044469870453656e-11 5.303093512768076e-11
        5.574976149197304e-11 5.860797510976663e-11 6.161272174305152e-11 6.477151346448777e-11
        6.809224743385080e-11 7.158322563680239e-11 7.525317563529371e-11 7.911127238143933e-11
        8.316716114935435e-11 8.743098164223539e-11 9.191339333490854e-11 9.662560211514013e-11
        1.015793882902597e-10 1.067871360290459e-10 1.122618643124087e-10 1.180172594701741e-10
        1.240677093852293e-10 1.304283394504504e-10 1.371150503682128e-10 1.441445578868723e-10
        1.515344345734580e-10 1.593031537268752e-10 1.674701355412802e-10 1.760557956348880e-10
        1.850815960653808e-10 1.945700989592943e-10 2.045450228892714e-10 2.150313021399319e-10
        2.260551490103180e-10 2.376441193084303e-10 2.498271812013622e-10 2.626347877524926e-10
        2.760989522465646e-10 2.902533298220583e-10 3.051332994496414e-10 3.207760537878365e-10
        3.372206911372667e-10 3.545083162755802e-10 3.726821367420085e-10 3.917875772046103e-10
        4.118723886412933e-10 4.329867704947532e-10 4.551834944526086e-10 4.785180363863445e-10
        5.030487158280669e-10 5.288368396802698e-10 5.559468584767417e-10 5.844465241375482e-10
        6.144070611100130e-10 6.459033434122935e-10 6.790140814207010e-10 7.138220204518460e-10
        7.504141442471415e-10 7.888818946468170e-10 8.293213993648290e-10 8.718337099079141e-10
        9.165250576154692e-10 9.635071162715274e-10 1.012897281188779e-9 1.064818963194559e-9
        1.119401895178297e-9 1.176782457963004e-9 1.237104019736855e-9 1.300517293230455e-9
        1.367180713509676e-9 1.437260830249769e-9 1.510932728844799e-9 1.588380460765009e-9
        1.669797508582336e-9 1.755387265698757e-9 1.845363544227691e-9 1.939951109464582e-9
        2.039386237983465e-9 2.143917310976664e-9 2.253805433005782e-9 2.369325080239473e-9
        2.490764786836279e-9 2.618427866455967e-9 2.752633165970269e-9 2.893715865160052e-9
        3.042028303654845e-9 3.197940870047912e-9 3.361842918277153e-9 3.534143740509873e-9
        3.715273588046248e-9 3.905684744062042e-9 4.105852648518770e-9 4.316277087337051e-9
        4.537483432153582e-9 4.770023956250555e-9 5.014479205717465e-9 5.271459448090926e-9
        5.541606191795212e-9 5.825593784637907e-9 6.124131091341306e-9 6.437963268968319e-9
        6.767873604896829e-9 7.114685481999510e-9 7.479264425682542e-9 7.862520252676585e-9
        8.265409342776676e-9 8.688937014507301e-9 9.134160035677034e-9 9.602189237888043e-9
        1.009419229330853e-8 1.061139661275567e-8 1.115509240544723e-8 1.172663588016433e-8
        1.232745262439831e-8 1.295904114445070e-8 1.362297659338964e-8 1.432091468133231e-8
        1.505459580444710e-8 1.582584935034562e-8 1.663659825536356e-8 1.748886378137766e-8
        1.838477053484588e-8 1.932655173668346e-8 2.031655477796149e-8 2.135724703860979e-8
        2.245122201267848e-8 2.360120574978792e-8 2.481006360577964e-8 2.608080737080840e-8
        2.741660271742297e-8 2.882077706817014e-8 3.029682782440285e-8 3.184843105507666e-8
        3.347945058488227e-8 3.519394758909328e-8 3.699619062839078e-8 3.889066623430991e-8
        4.088209000986920e-8 4.297541829617169e-8 4.517586045593836e-8 4.748889171628859e-8
        4.992026675507480e-8 5.247603389432763e-8 5.516255007563697e-8 5.798649652767814e-8
        6.095489530836105e-8 6.407512661738673e-8 6.735494702254885e-8 7.080250860077809e-8
        7.442637904006756e-8 7.823556276799398e-8 8.223952314874726e-8 8.644820580498028e-8
        9.087206310118948e-8 9.552207989271647e-8 1.004098005566382e-7 1.055473573853800e-7
        1.109475004333488e-7 1.166236288569482e-7 1.225898238130253e-7 1.288608830813627e-7
        1.354523573461151e-7 1.423805883875680e-7 1.496627491357435e-7 1.573168857625692e-7
        1.653619619107347e-7 1.738179051146616e-7 1.827056555710188e-7 1.920472173552604e-7
        2.018657122169205e-7 2.121854360651211e-7 2.230319182923969e-7 2.344319840657488e-7
        2.464138197331256e-7 2.590070415476060e-7 2.722427677527736e-7 2.861536943380012e-7
        3.007741745656236e-7 3.161403024248907e-7 3.322900003212480e-7 3.492631110762413e-7
        3.671014945543124e-7 3.858491290503799e-7 4.055522177966086e-7 4.262593006846064e-7
        4.480213715651137e-7 4.708920014149433e-7 4.949274675220282e-7 5.201868891564717e-7
        5.467323698715727e-7 5.746291469328073e-7 6.039457480385220e-7 6.347541558479110e-7
        6.671299805570198e-7 7.011526410202142e-7 7.369055547585828e-7 7.744763372969413e-7
        8.139570113029414e-7 8.554442259612552e-7 8.990394870927176e-7 9.448493985160578e-7
        9.929859152370632e-7 1.043566608900197e-6 1.096714946254310e-6 1.152560581106914e-6
        1.211239660480091e-6 1.272895145586721e-6 1.337677148360621e-6 1.405743284261213e-6
        1.477259042062948e-6 1.552398171504942e-6 1.631343089536923e-6 1.714285306092940e-6
        1.801425870250016e-6 1.892975837723126e-6 1.989156760662009e-6 2.090201200789285e-6
        2.196353266902897e-6 2.307869177874926e-6 2.425017852294037e-6 2.548081525930341e-6
        2.677356398276576e-6 2.813153309456148e-6 2.955798448846298e-6 3.105634096813401e-6
        3.263019401019744e-6 3.428331188776480e-6 3.601964817053521e-6 3.784335061754829e-6
        3.975877047926256e-6 4.177047222656310e-6 4.388324372482097e-6 4.610210687171250e-6
        4.843232871817527e-6 5.087943309237733e-6 5.344921274786055e-6 5.614774205679840e-6
        5.898139027066089e-6 6.195683537140112e-6 6.508107853560253e-6 6.836145923758550e-6
        7.180567101422168e-6 7.542177791872358e-6 7.921823168898778e-6 8.320388965725080e-6
        8.738803342926802e-6 9.178038836071616e-6 9.639114385991181e-6 1.012309745463391e-5
        1.063110622953034e-5 1.116431191983160e-5 1.172394114715532e-5 1.231127843427579e-5
        1.292766879490690e-5 1.357452042773197e-5 1.425330751799022e-5 1.496557314974074e-5
        1.571293233220191e-5 1.649707514324047e-5 1.731976999336687e-5 1.818286701326553e-5
        1.908830156811976e-5 2.003809790165553e-5 2.103437291295578e-5 2.207934006879691e-5
        2.317531345431514e-5 2.432471196443357e-5 2.553006363849720e-5 2.679401014016773e-5
        2.811931138448353e-5 2.950885031363059e-5 3.096563782266159e-5 3.249281783601393e-5
        3.409367253519819e-5 3.577162773762994e-5 3.753025842593022e-5 3.937329442648961e-5
        4.130462623537564e-5 4.332831098888362e-5 4.544857857528509e-5 4.766983788328527e-5
        4.999668318180418e-5 5.243390062449088e-5 5.498647487121051e-5 5.765959581733004e-5
        6.045866542029536e-5 6.338930461119129e-5 6.645736027740544e-5 6.966891230048525e-5
        7.303028063125163e-5 7.654803238200113e-5 8.022898891308220e-5 8.408023288859511e-5
        8.810911527299183e-5 9.232326223733377e-5 9.673058194052381e-5 1.013392711472294e-4
        1.061578216403831e-4 1.111950263818287e-4 1.164599853702627e-4 1.219621111406738e-4
        1.277111338443401e-4 1.337171058428699e-4 1.399904057436896e-4 1.465417417980889e-4
        1.533821545760326e-4 1.605230188247056e-4 1.679760444098570e-4 1.757532762308915e-4
        1.838670929916542e-4 1.923302046996056e-4 2.011556487561297e-4 2.103567844900693e-4
        2.199472859755592e-4 2.299411329633129e-4 2.403525997421796e-4 2.511962417344894e-4
        2.624868796150626e-4 2.742395807291062e-4 2.864696375690085e-4 2.991925430541030e-4
        3.124239623407872e-4 3.261797008728829e-4 3.404756683641358e-4 3.553278383858173e-4
        3.707522032129015e-4 3.867647235621905e-4 4.033812728348619e-4 4.206175754546903e-4
        4.384891388713205e-4 4.570111787755405e-4 4.761985370511709e-4 4.960655919650154e-4
        5.166261600735211e-4 5.378933893018445e-4 5.598796426280984e-4 5.825963717834398e-4
        6.060539803565902e-4 6.302616756707025e-4 6.552273087805216e-4 6.809572019195056e-4
        7.074559627099602e-4 7.347262844349196e-4 7.627687316586230e-4 7.915815104740274e-4
        8.211602226504951e-4 8.514976029544094e-4 8.825832389192936e-4 9.144032723520732e-4
        9.469400818781853e-4 9.801719458516367e-4 1.014072684987968e-3 1.048611284118653e-3
        1.083751492516818e-3 1.119451402306720e-3 1.155663004544571e-3 1.192331722647990e-3
        1.229395922955957e-3 1.266786402323228e-3 1.304425852793825e-3 1.342228303558870e-3
        1.380098540587446e-3 1.417931504525949e-3 1.455611667694572e-3 1.493012391270509e-3
        1.529995264038228e-3 1.566409424410446e-3 1.602090867780257e-3 1.636861741658536e-3
        1.670529631482299e-3 1.702886840451704e-3 1.733709667267641e-3 1.762757686199832e-3
        1.789773034519005e-3 1.814479712977097e-3 1.836582905717371e-3 1.855768326742942e-3
        1.871701600866986e-3 1.884027687910878e-3 1.892370359806424e-3 1.896331741193187e-3
        1.895491925079285e-3 1.889408676149668e-3 1.877617235355261e-3 1.859630240492869e-3
        1.834937778581727e-3 1.803007586948517e-3 1.763285421037270e-3 1.715195608050404e-3
        1.658141806586341e-3 1.591507993450223e-3 1.514659699755133e-3 1.426945519279898e-3
        1.327698912777452e-3 1.216240332505864e-3 1.091879691649190e-3 9.539192034682834e-4
        8.016566149346904e-4 6.343888592060908e-4 4.514161505528090e-4 2.520465441898925e-4
        3.560098184970158e-5 -1.985811582089991e-4 -4.511359907841289e-4 -7.226685203067223e-4
        -1.013745495897744e-3 -1.324887721262961e-3 -1.656561821499912e-3 -2.009171475525054e-3
        -2.383048130439959e-3 -2.778441222799893e-3 -3.195507941483269e-3 -3.634302577717952e-3
        -4.094765519839275e-3 -4.576711963541666e-3 -5.079820422734491e-3 -5.603621141601346e-3
        -6.147484525021099e-3 -6.710609722060530e-3 -7.292013515657341e-3 -7.890519690706707e-3
        -8.504749072332736e-3 -9.133110445879682e-3 -9.773792589773858e-3 -1.042475767147570e-2
        -1.108373627478660e-2 -1.174822434325793e-2 -1.241548233872136e-2 -1.308253692532413e-2
        -1.374618549710116e-2 -1.440300387016709e-2 -1.504935745811804e-2 -1.568141624014220e-2
        -1.629517381457902e-2 -1.688647080508164e-2 -1.745102285096428e-2 -1.798445336659554e-2
        -1.848233119567896e-2 -1.894021321389643e-2 -1.935369184672195e-2 -1.971844736747611e-2
        -2.003030472336102e-2 -2.028529450406272e-2 -2.047971751872351e-2 -2.061021228331787e-2
        -2.067382454296518e-2 -2.066807776439595e-2 -2.059104333536831e-2 -2.044140900390863e-2
        -2.021854388541310e-2 -1.992255816556773e-2 -1.955435543854641e-2 -1.911567545106538e-2
        -1.860912488285861e-2 -1.803819369346129e-2 -1.740725451542994e-2 -1.672154258787195e-2
        -1.598711381476256e-2 -1.521077871380503e-2 -1.440001030744238e-2 -1.356282441145961e-2
        -1.270763131075229e-2 -1.184305848671134e-2 -1.097774488390968e-2 -1.012010817920429e-2
        -9.278087642779306e-3 -8.458866450648285e-3 -7.668578706713777e-3 -6.912007935754552e-3
        -6.192285382612801e-3 -5.510598051907691e-3 -4.865917989038126e-3 -4.256094143953421e-3
        -3.682503868532611e-3 -3.147456766154994e-3 -2.653018167935311e-3 -2.200943480092699e-3
        -1.792607578966571e-3 -1.428932775342201e-3 -1.110318381115832e-3 -8.365741337147403e-4
        -6.068588879650505e-4 -4.196252421490021e-4 -2.725702202364122e-4 -1.625918097588330e-4
        -8.575102929839208e-5 -3.723922122364498e-5 -1.135037995109167e-5 -1.458487269540010e-6
        5.551115123125783e-17 0.000000000000000e0 0.000000000000000e0 0.000000000000000e0
        0.000000000000000e0 0.000000000000000e0 0.000000000000000e0 0.000000000000000e0
        0.000000000000000e0 0.000000000000000e0 0.000000000000000e0 0.000000000000000e0
        0.000000000000000e0 0.000000000000000e0 0.000000000000000e0 0.000000000000000e0
        0.000000000000000e0 0.000000000000000e0 0.000000000000000e0 0.000000000000000e0
        0.000000000000000e0 0.000000000000000e0 0.000000000000000e0 0.000000000000000e0
        0.000000000000000e0 0.000000000000000e0 0.000000000000000e0 0.000000000000000e0
        0.000000000000000e0 0.000000000000000e0 0.000000000000000e0 0.000000000000000e0
        0.000000000000000e0 0.000000000000000e0 0.000000000000000e0 0.000000000000000e0
        0.000000000000000e0 0.000000000000000e0 0.000000000000000e0 0.000000000000000e0
        0.000000000000000e0 0.000000000000000e0 0.000000000000000e0 0.000000000000000e0
        0.000000000000000e0 0.000000000000000e0 0.000000000000000e0 0.000000000000000e0
        0.000000000000000e0 0.000000000000000e0 0.000000000000000e0 0.000000000000000e0
        0.000000000000000e0 0.000000000000000e0 0.000000000000000e0 0.000000000000000e0
        0.000000000000000e0 0.000000000000000e0 0.000000000000000e0 0.000000000000000e0
        0.000000000000000e0 0.000000000000000e0 0.000000000000000e0 0.000000000000000e0
        0.000000000000000e0 0.000000000000000e0 0.000000000000000e0 0.000000000000000e0
        0.000000000000000e0 0.000000000000000e0 0.000000000000000e0 0.000000000000000e0
        0.000000000000000e0 0.000000000000000e0 0.000000000000000e0 0.000000000000000e0
        0.000000000000000e0 0.000000000000000e0 0.000000000000000e0 0.000000000000000e0
        0.000000000000000e0 0.000000000000000e0 0.000000000000000e0 0.000000000000000e0
        0.000000000000000e0 0.000000000000000e0 0.000000000000000e0 0.000000000000000e0
        0.000000000000000e0 0.000000000000000e0 0.000000000000000e0 0.000000000000000e0
        0.000000000000000e0 0.000000000000000e0 0.000000000000000e0 0.000000000000000e0
        0.000000000000000e0 0.000000000000000e0 0.000000000000000e0 0.000000000000000e0
        0.000000000000000e0 0.000000000000000e0 0.000000000000000e0 0.000000000000000e0
        0.000000000000000e0 0.000000000000000e0 0.000000000000000e0 0.000000000000000e0
        0.000000000000000e0 0.000000000000000e0 0.000000000000000e0 0.000000000000000e0
        0.000000000000000e0 0.000000000000000e0 0.000000000000000e0 0.000000000000000e0
        0.000000000000000e0 0.000000000000000e0 0.000000000000000e0 0.000000000000000e0
        0.000000000000000e0 0.000000000000000e0 0.000000000000000e0 0.000000000000000e0
        0.000000000000000e0 0.000000000000000e0 0.000000000000000e0 0.000000000000000e0
        0.000000000000000e0 0.000000000000000e0 0.000000000000000e0 0.000000000000000e0
        0.000000000000000e0 0.000000000000000e0 0.000000000000000e0 0.000000000000000e0
        0.000000000000000e0 0.000000000000000e0 0.000000000000000e0 0.000000000000000e0
        0.000000000000000e0 0.000000000000000e0 0.000000000000000e0 0.000000000000000e0
        0.000000000000000e0 0.000000000000000e0 0.000000000000000e0 0.000000000000000e0
        0.000000000000000e0 0.000000000000000e0 0.000000000000000e0 0.000000000000000e0
        0.000000000000000e0 0.000000000000000e0 0.000000000000000e0 0.000000000000000e0
        0.000000000000000e0 0.000000000000000e0 0.000000000000000e0 0.000000000000000e0
        0.000000000000000e0 0.000000000000000e0 0.000000000000000e0 0.000000000000000e0
        0.000000000000000e0 0.000000000000000e0 0.000000000000000e0 0.000000000000000e0
        0.000000000000000e0 0.000000000000000e0 0.000000000000000e0 0.000000000000000e0
        0.000000000000000e0 0.000000000000000e0 0.000000000000000e0 0.000000000000000e0
        0.000000000000000e0 0.000000000000000e0 0.000000000000000e0 0.000000000000000e0
        0.000000000000000e0 0.000000000000000e0 0.000000000000000e0 0.000000000000000e0
        0.000000000000000e0 0.000000000000000e0 0.000000000000000e0 0.000000000000000e0
        0.000000000000000e0 0.000000000000000e0 0.000000000000000e0 0.000000000000000e0
        0.000000000000000e0 0.000000000000000e0 0.000000000000000e0 0.000000000000000e0
        0.000000000000000e0 0.000000000000000e0 0.000000000000000e0 0.000000000000000e0
        0.000000000000000e0 0.000000000000000e0 0.000000000000000e0 0.000000000000000e0
        0.000000000000000e0 0.000000000000000e0 0.000000000000000e0 0.000000000000000e0
        0.000000000000000e0 0.000000000000000e0 0.000000000000000e0 0.000000000000000e0
        0.000000000000000e0 0.000000000000000e0 0.000000000000000e0 0.000000000000000e0
        0.000000000000000e0 0.000000000000000e0 0.000000000000000e0 0.000000000000000e0
        0.000000000000000e0 0.000000000000000e0 0.000000000000000e0 0.000000000000000e0
        0.000000000000000e0 0.000000000000000e0 0.000000000000000e0 0.000000000000000e0
        0.000000000000000e0 0.000000000000000e0 0.000000000000000e0 0.000000000000000e0
        0.000000000000000e0 0.000000000000000e0 0.000000000000000e0 0.000000000000000e0
        0.000000000000000e0 0.000000000000000e0 0.000000000000000e0 0.000000000000000e0
        0.000000000000000e0 0.000000000000000e0 0.000000000000000e0 0.000000000000000e0
        0.000000000000000e0 0.000000000000000e0 0.000000000000000e0 0.000000000000000e0
        0.000000000000000e0 0.000000000000000e0 0.000000000000000e0 0.000000000000000e0
        0.000000000000000e0 0.000000000000000e0 0.000000000000000e0 0.000000000000000e0
        0.000000000000000e0 0.000000000000000e0 0.000000000000000e0 0.000000000000000e0
        0.000000000000000e0 0.000000000000000e0 0.000000000000000e0 0.000000000000000e0
        0.000000000000000e0 0.000000000000000e0 0.000000000000000e0 0.000000000000000e0
        0.000000000000000e0 0.000000000000000e0 0.000000000000000e0 0.000000000000000e0
        0.000000000000000e0 0.000000000000000e0 0.000000000000000e0 0.000000000000000e0
        0.000000000000000e0 0.000000000000000e0 0.000000000000000e0 0.000000000000000e0
        0.000000000000000e0 0.000000000000000e0 0.000000000000000e0 0.000000000000000e0
        0.000000000000000e0 0.000000000000000e0 0.000000000000000e0 0.000000000000000e0
        0.000000000000000e0 0.000000000000000e0 0.000000000000000e0 0.000000000000000e0
        0.000000000000000e0 0.000000000000000e0 0.000000000000000e0 0.000000000000000e0
        0.000000000000000e0 0.000000000000000e0 0.000000000000000e0 0.000000000000000e0
        0.000000000000000e0 0.000000000000000e0 0.000000000000000e0 0.000000000000000e0
        0.000000000000000e0 0.000000000000000e0 0.000000000000000e0 0.000000000000000e0
        0.000000000000000e0 0.000000000000000e0 0.000000000000000e0 0.000000000000000e0
        0.000000000000000e0 0.000000000000000e0 0.000000000000000e0 0.000000000000000e0
        0.000000000000000e0 0.000000000000000e0 0.000000000000000e0
        </PP_QIJL.3.3.2>
      <PP_QIJL.3.4.0 first_index="3" second_index="4" composite_index="9" angular_momentum="0">
        1.962578729675993e-9 2.012261645792490e-9 2.063202290869058e-9 2.115432504463373e-9
        2.168984932155227e-9 2.223893045951058e-9 2.280191165205034e-9 2.337914478069766e-9
        2.397099063490021e-9 2.457781913753248e-9 2.520000957610927e-9 2.583795083985268e-9
        2.649204166276044e-9 2.716269087282737e-9 2.785031764757627e-9 2.855535177605709e-9
        2.927823392747898e-9 3.001941592664283e-9 3.077936103634609e-9 3.155854424693720e-9
        3.235745257319943e-9 3.317658535875108e-9 3.401645458815103e-9 3.487758520690564e-9
        3.576051544957667e-9 3.666579717619470e-9 3.759399621718979e-9 3.854569272705334e-9
        3.952148154695326e-9 4.052197257652900e-9 4.154779115509787e-9 4.259957845251253e-9
        4.367799186991234e-9 4.478370545062024e-9 4.591741030144142e-9 4.707981502462693e-9
        4.827164616077270e-9 4.949364864293072e-9 5.074658626221579e-9 5.203124214519960e-9
        5.334841924338926e-9 5.469894083509792e-9 5.608365104001969e-9 5.750341534683136e-9
        5.895912115415046e-9 6.045167832518715e-9 6.198201975643789e-9 6.355110196077525e-9
        6.515990566529862e-9 6.680943642432005e-9 6.850072524786706e-9 7.023482924609659e-9
        7.201283229002236e-9 7.383584568896828e-9 7.570500888517224e-9 7.762149016597276e-9
        7.958648739402571e-9 8.160122875600610e-9 8.366697353026318e-9 8.578501287390949e-9
        8.795667062983370e-9 9.018330415414443e-9 9.246630516456010e-9 9.480710061027612e-9
        9.720715356385300e-9 9.966796413568153e-9 1.021910704115992e-8 1.047780494142418e-8
        1.074305180887306e-8 1.101501343133149e-8 1.129385979355959e-8 1.157976518349849e-8
        1.187290830120566e-8 1.217347237054791e-8 1.248164525372215e-8 1.279761956867482e-8
        1.312159280949416e-8 1.345376746985006e-8 1.379435116955878e-8 1.414355678435183e-8
        1.450160257892961e-8 1.486871234338363e-8 1.524511553307218e-8 1.563104741203675e-8
        1.602674920004943e-8 1.643246822338234e-8 1.684845806939422e-8 1.727497874503009e-8
        1.771229683933343e-8 1.816068569007247e-8 1.862042555458432e-8 1.909180378494434e-8
        1.957511500756969e-8 2.007066130736967e-8 2.057875241655785e-8 2.109970590824373e-8
        2.163384739492547e-8 2.218151073200727e-8 2.274303822646877e-8 2.331878085081724e-8
        2.390909846245528e-8 2.451436002860250e-8 2.513494385691068e-8 2.577123783191703e-8
        2.642363965748340e-8 2.709255710537246e-8 2.777840827011691e-8 2.848162183034054e-8
        2.920263731669458e-8 2.994190538657704e-8 3.069988810580612e-8 3.147705923742458e-8
        3.227390453781492e-8 3.309092206031075e-8 3.392862246649422e-8 3.478752934537338e-8
        3.566817954064001e-8 3.657112348621181e-8 3.749692555026849e-8 3.844616438799759e-8
        3.941943330326944e-8 4.041734061946829e-8 4.144051005971068e-8 4.248958113668922e-8
        4.356520955238513e-8 4.466806760789897e-8 4.579884462365690e-8 4.695824737025383e-8
        4.814700051020338e-8 4.936584705087098e-8 5.061554880887208e-8 5.189688688622724e-8
        5.321066215857061e-8 5.455769577571735e-8 5.593882967490292e-8 5.735492710701433e-8
        5.880687317614337e-8 6.029557539279820e-8 6.182196424111924e-8 6.338699376045442e-8
        6.499164214165582e-8 6.663691233847224e-8 6.832383269441871e-8 7.005345758551450e-8
        7.182686807929293e-8 7.364517261049198e-8 7.550950767385125e-8 7.742103853444627e-8
        7.938095995600412e-8 8.139049694765712e-8 8.345090552959874e-8 8.556347351812301e-8
        8.772952133053597e-8 8.995040281044353e-8 9.222750607393110e-8 9.456225437716252e-8
        9.695610700594388e-8 9.941056018780419e-8 1.019271480271657e-7 1.045074434641878e-7
        1.071530592578820e-7 1.098656489941157e-7 1.126469081191311e-7 1.154985749992278e-7
        1.184224320072714e-7 1.214203066367030e-7 1.244940726437534e-7 1.276456512185680e-7
        1.308770121859789e-7 1.341901752366750e-7 1.375872111895339e-7 1.410702432859149e-7
        1.446414485167094e-7 1.483030589829883e-7 1.520573632910928e-7 1.559067079830357e-7
        1.598534990031209e-7 1.639002032016787e-7 1.680493498768730e-7 1.723035323555371e-7
        1.766654096140216e-7 1.811377079400799e-7 1.857232226368144e-7 1.904248197697616e-7
        1.952454379582008e-7 2.001880902118033e-7 2.052558658137827e-7 2.104519322517048e-7
        2.157795371971789e-7 2.212420105356629e-7 2.268427664476419e-7 2.325853055425009e-7
        2.384732170464013e-7 2.445101810455459e-7 2.506999707862299e-7 2.570464550331051e-7
        2.635536004871521e-7 2.702254742648461e-7 2.770662464400865e-7 2.840801926504692e-7
        2.912716967695249e-7 2.986452536466119e-7 3.062054719161496e-7 3.139570768779720e-7
        3.219049134505883e-7 3.300539491991913e-7 3.384092774403268e-7 3.469761204251362e-7
        3.557598326031823e-7 3.647659039688923e-7 3.739999634926972e-7 3.834677826390358e-7
        3.931752789733936e-7 4.031285198606522e-7 4.133337262570508e-7 4.237972765981205e-7
        4.345257107850478e-7 4.455257342719221e-7 4.568042222564481e-7 4.683682239767339e-7
        4.802249671168267e-7 4.923818623237764e-7 5.048465078390150e-7 5.176266942469719e-7
        5.307304093438868e-7 5.441658431298392e-7 5.579413929271576e-7 5.720656686283563e-7
        5.865474980769161e-7 6.013959325842546e-7 6.166202525863227e-7 6.322299734433942e-7
        6.482348513866276e-7 6.646448896151485e-7 6.814703445474553e-7 6.987217322310252e-7
        7.164098349141808e-7 7.345457077842553e-7 7.531406858763170e-7 7.722063911567520e-7
        7.917547397861055e-7 8.117979495657728e-7 8.323485475731273e-7 8.534193779899033e-7
        8.750236101287017e-7 8.971747466626280e-7 9.198866320632209e-7 9.431734612519154e-7
        9.670497884704679e-7 9.915305363758719e-7 1.016631005365437e-6 1.042366883137874e-6
        1.068754254496329e-6 1.095809611399522e-6 1.123549863267232e-6 1.151992347546592e-6
        1.181154840545772e-6 1.211055568541821e-6 1.241713219169611e-6 1.273146953098985e-6
        1.305376416007389e-6 1.338421750855498e-6 1.372303610473454e-6 1.407043170465614e-6
        1.442662142441836e-6 1.479182787583575e-6 1.516627930553262e-6 1.555020973755628e-6
        1.594385911959900e-6 1.634747347291987e-6 1.676130504605988e-6 1.718561247244676e-6
        1.762066093198710e-6 1.806672231674744e-6 1.852407540082720e-6 1.899300601452950e-6
        1.947380722293882e-6 1.996677950901661e-6 2.047223096132929e-6 2.099047746652582e-6
        2.152184290668455e-6 2.206665936165306e-6 2.262526731650664e-6 2.319801587425516e-6
        2.378526297393103e-6 2.438737561419393e-6 2.500473008259232e-6 2.563771219062410e-6
        2.628671751474356e-6 2.695215164346465e-6 2.763443043071452e-6 2.833398025559563e-6
        2.905123828871817e-6 2.978665276526879e-6 3.054068326498634e-6 3.131380099921813e-6
        3.210648910523705e-6 3.291924294800155e-6 3.375257042954773e-6 3.460699230620574e-6
        3.548304251383799e-6 3.638126850130259e-6 3.730223157234882e-6 3.824650723615857e-6
        3.921468556675145e-6 4.020737157147753e-6 4.122518556882782e-6 4.226876357579668e-6
        4.333875770503857e-6 4.443583657206582e-6 4.556068571274058e-6 4.671400801132200e-6
        4.789652413933376e-6 4.910897300552612e-6 5.035211221721221e-6 5.162671855326516e-6
        5.293358844907143e-6 5.427353849374084e-6 5.564740593988361e-6 5.705604922627108e-6
        5.850034851370475e-6 5.998120623442792e-6 6.149954765542018e-6 6.305632145592654e-6
        6.465250031957809e-6 6.628908154147533e-6 6.796708765060711e-6 6.968756704799630e-6
        7.145159466096574e-6 7.326027261393186e-6 7.511473091614295e-6 7.701612816678751e-6
        7.896565227791307e-6 8.096452121560144e-6 8.301398375986231e-6 8.511532028371651e-6
        8.726984355195031e-6 8.947889954003918e-6 9.174386827374693e-6 9.406616468992128e-6
        9.644723951901973e-6 9.888858018991142e-6 1.013917117575185e-5 1.039581978538680e-5
        1.065896416631462e-5 1.092876869213590e-5 1.120540189412132e-5 1.148903656628599e-5
        1.177984987311441e-5 1.207802346000299e-5 1.238374356648843e-5 1.269720114233172e-5
        1.301859196652991e-5 1.334811676932886e-5 1.368598135731242e-5 1.403239674164552e-5
        1.438757926954989e-5 1.475175075909401e-5 1.512513863738022e-5 1.550797608221420e-5
        1.590050216734440e-5 1.630296201136051e-5 1.671560693034316e-5 1.713869459435869e-5
        1.757248918789519e-5 1.801726157433889e-5 1.847328946459164e-5 1.894085758993361e-5
        1.942025787923716e-5 1.991178964064092e-5 2.041575974779577e-5 2.093248283079637e-5
        2.146228147191660e-5 2.200548640626777e-5 2.256243672750331e-5 2.313348009869585e-5
        2.371897296851543e-5 2.431928079284183e-5 2.493477826194602e-5 2.556584953337986e-5
        2.621288847071659e-5 2.687629888828705e-5 2.755649480206230e-5 2.825390068683447e-5
        2.896895173985333e-5 2.970209415107883e-5 3.045378538021456e-5 3.122449444068972e-5
        3.201470219076360e-5 3.282490163192819e-5 3.365559821479076e-5 3.450731015262196e-5
        3.538056874275864e-5 3.627591869605750e-5 3.719391847459751e-5 3.813514063783608e-5
        3.910017219742828e-5 4.008961498092218e-5 4.110408600455083e-5 4.214421785534501e-5
        4.321065908279646e-5 4.430407460030773e-5 4.542514609666887e-5 4.657457245780893e-5
        4.775307019907435e-5 4.896137390829317e-5 5.020023669989076e-5 5.147043068032686e-5
        5.277274742513328e-5 5.410799846783581e-5 5.547701580105092e-5 5.688065239005647e-5
        5.831978269913957e-5 5.979530323103514e-5 6.130813307977383e-5 6.285921449726627e-5
        6.444951347395842e-5 6.608002033389933e-5 6.775175034457294e-5 6.946574434185115e-5
        7.122306937043509e-5 7.302481934016042e-5 7.487211569854836e-5 7.676610811999735e-5
        7.870797521201540e-5 8.069892523890370e-5 8.274019686331263e-5 8.483305990609756e-5
        8.697881612491596e-5 8.917880001201322e-5 9.143437961165702e-5 9.374695735768979e-5
        9.611797093167782e-5 9.854889414214934e-5 1.010412378254218e-4 1.035965507685309e-4
        1.062164206547850e-4 1.089024750324794e-4 1.116563823073178e-4 1.144798527590998e-4
        1.173746395832429e-4 1.203425399577242e-4 1.233853961360338e-4 1.265050965667511e-4
        1.297035770403614e-4 1.329828218639465e-4 1.363448650643997e-4 1.397917916208177e-4
        1.433257387267498e-4 1.469488970829891e-4 1.506635122216042e-4 1.544718858619319e-4
        1.583763772992538e-4 1.623794048269058e-4 1.664834471925769e-4 1.706910450895692e-4
        1.750048026838095e-4 1.794273891774116e-4 1.839615404096122e-4 1.886100604959092e-4
        1.933758235062530e-4 1.982617751831568e-4 2.032709347005992e-4 2.084063964646211e-4
        2.136713319565262e-4 2.190689916196061e-4 2.246027067903421e-4 2.302758916750304e-4
        2.360920453728145e-4 2.420547539461086e-4 2.481676925394166e-4 2.544346275475733e-4
        2.608594188344341e-4 2.674460220030744e-4 2.741984907185586e-4 2.811209790843635e-4
        2.882177440735521e-4 2.954931480158036e-4 3.029516611414337e-4 3.105978641835354e-4
        3.184364510393960e-4 3.264722314923565e-4 3.347101339952860e-4 3.431552085168674e-4
        3.518126294518905e-4 3.606876985967644e-4 3.697858481914761e-4 3.791126440292150e-4
        3.886737886349156e-4 3.984751245139566e-4 4.085226374722712e-4 4.188224600091313e-4
        4.293808747838561e-4 4.402043181577281e-4 4.512993838123696e-4 4.626728264458486e-4
        4.743315655477907e-4 4.862826892547362e-4 4.985334582870257e-4 5.110913099684434e-4
        5.239638623298688e-4 5.371589182981639e-4 5.506844699715032e-4 5.645487029823583e-4
        5.787600009493055e-4 5.933269500188122e-4 6.082583434981479e-4 6.235631865804957e-4
        6.392507011633644e-4 6.553303307613110e-4 6.718117455139817e-4 6.887048472904195e-4
        7.060197748905211e-4 7.237669093445200e-4 7.419568793112581e-4 7.606005665759774e-4
        7.797091116482937e-4 7.992939194609054e-4 8.193666651695603e-4 8.399393000546649e-4
        8.610240575248497e-4 8.826334592227031e-4 9.047803212327350e-4 9.274777603915846e-4
        9.507392007002728e-4 9.745783798382170e-4 9.990093557785650e-4 1.024046513504207e-3
        1.049704571823727e-3 1.075998590286295e-3 1.102943976194350e-3 1.130556491712714e-3
        1.158852261072509e-3 1.187847777868098e-3 1.217559912444918e-3 1.248005919375879e-3
        1.279203445023689e-3 1.311170535186132e-3 1.343925642821084e-3 1.377487635847600e-3
        1.411875805019150e-3 1.447109871864610e-3 1.483209996692245e-3 1.520196786651501e-3
        1.558091303846925e-3 1.596915073498082e-3 1.636690092138817e-3 1.677438835848620e-3
        1.719184268508380e-3 1.761949850072111e-3 1.805759544845630e-3 1.850637829762514e-3
        1.896609702646897e-3 1.943700690451982e-3 1.991936857462287e-3 2.041344813446861e-3
        2.091951721749805e-3 2.143785307303456e-3 2.196873864548747e-3 2.251246265246081e-3
        2.306931966159071e-3 2.363961016592342e-3 2.422364065763349e-3 2.482172369987007e-3
        2.543417799650513e-3 2.606132845954392e-3 2.670350627394401e-3 2.736104895957240e-3
        2.803430043001649e-3 2.872361104794575e-3 2.942933767670445e-3 3.015184372779755e-3
        3.089149920391111e-3 3.164868073709051e-3 3.242377162167642e-3 3.321716184157777e-3
        3.402924809143734e-3 3.486043379122003e-3 3.571112909373167e-3 3.658175088454597e-3
        3.747272277379206e-3 3.838447507922560e-3 3.931744479997511e-3 4.027207558032583e-3
        4.124881766286864e-3 4.224812783030826e-3 4.327046933518981e-3 4.431631181676381e-3
        4.538613120417399e-3 4.648040960510955e-3 4.759963517902284e-3 4.874430199397062e-3
        4.991490986609009e-3 5.111196418067717e-3 5.233597569378259e-3 5.358746031319395e-3
        5.486693885761847e-3 5.617493679282646e-3 5.751198394346270e-3 5.887861417917194e-3
        6.027536507362729e-3 6.170277753498925e-3 6.316139540625660e-3 6.465176503391083e-3
        6.617443480318313e-3 6.772995463820699e-3 6.931887546524952e-3 7.094174863713759e-3
        7.259912531692761e-3 7.429155581878444e-3 7.601958890396245e-3 7.778377102970063e-3
        7.958464554876165e-3 8.142275185726684e-3 8.329862448839144e-3 8.521279214940328e-3
        8.716577669944227e-3 8.915809206535140e-3 9.119024309278721e-3 9.326272432974719e-3
        9.537601873956930e-3 9.753059634037196e-3 9.972691276781715e-3 1.019654077579994e-2
        1.042465035471777e-2 1.065706031849914e-2 1.089380887577233e-2 1.113493195180980e-2
        1.138046299180394e-2 1.163043275407412e-2 1.188486909283486e-2 1.214379673014969e-2
        1.240723701669039e-2 1.267520768091814e-2 1.294772256629987e-2 1.322479135617156e-2
        1.350641928585998e-2 1.379260684167439e-2 1.408334944638307e-2 1.437863713079241e-2
        1.467845419105261e-2 1.498277883132168e-2 1.529158279142842e-2 1.560483095918924e-2
        1.592248096704607e-2 1.624448277271209e-2 1.657077822353281e-2 1.690130060429263e-2
        1.723597416822733e-2 1.757471365103259e-2 1.791742376769623e-2 1.826399869202266e-2
        1.861432151876272e-2 1.896826370831548e-2 1.932568451402348e-2 1.968643039214777e-2
        2.005033439467926e-2 2.041721554521834e-2 2.078687819824249e-2 2.115911138217188e-2
        2.153368812674620e-2 2.191036477533740e-2 2.228888028294178e-2 2.266895550072875e-2
        2.305029244816326e-2 2.343257357387428e-2 2.381546100660760e-2 2.419859579777873e-2
        2.458159715733637e-2 2.496406168485101e-2 2.534556259796610e-2 2.572564896058590e-2
        2.610384491342541e-2 2.647964890981936e-2 2.685253295997136e-2 2.722194188713027e-2
        2.758729259950303e-2 2.794797338205242e-2 2.830334321269148e-2 2.865273110776165e-2
        2.899543550208307e-2 2.933072366928285e-2 2.965783118854271e-2 2.997596146436675e-2
        3.028428530644234e-2 3.058194057716226e-2 3.086803191488620e-2 3.114163054154520e-2
        3.140177416373595e-2 3.164746697700415e-2 3.187767978358279e-2 3.209135023442507e-2
        3.228738320695005e-2 3.246465133050265e-2 3.262199567210841e-2 3.275822659567824e-2
        3.287212480838190e-2 3.296244260845371e-2 3.302790534921891e-2 3.306721313461927e-2
        3.307904276197168e-2 3.306204992809846e-2 3.301487171531678e-2 3.293612937405397e-2
        3.282443141905455e-2 3.267837705625040e-2 3.249655995736179e-2 3.227757239917155e-2
        3.202000978414644e-2 3.172247555865563e-2 3.138358654443194e-2 3.100197869811935e-2
        3.057631331272970e-2 3.010528367356208e-2 2.958762217960764e-2 2.902210793963142e-2
        2.840757484997487e-2 2.774292015862710e-2 2.702711351723728e-2 2.625920651946485e-2
        2.543834272035076e-2 2.456376812721594e-2 2.363484214793075e-2 2.265104897720730e-2
        2.161200939584121e-2 2.051749295152637e-2 1.936743048297444e-2 1.816192694157906e-2
        1.690127445673579e-2 1.558596558219010e-2 1.421670665140185e-2 1.279443115991244e-2
        1.132031308209859e-2 9.795780018497167e-3 8.222526058164165e-3 6.602524228304326e-3
        4.938038390767750e-3 3.231634432045654e-3 1.486190580186252e-3 -2.950933312280586e-4
        -2.108687845147617e-3 -3.950727315268635e-3 -5.817005011037542e-3 -7.702970123965434e-3
        -9.603726916657246e-3 -1.151403626559356e-2 -1.342831985670828e-2 -1.534066729879854e-2
        -1.724484642338594e-2 -1.913431704031463e-2 -2.100224841565866e-2 -2.284154073185526e-2
        -2.464485077879728e-2 -2.640462210833484e-2 -2.811311986256364e-2 -2.976247045781006e-2
        -3.134470627066126e-2 -3.285181542906213e-2 -3.427579675978609e-2 -3.560871988280074e-2
        -3.684279037266763e-2 -3.797041982658435e-2 -3.898430058759408e-2 -3.987748476957576e-2
        -4.064346711771812e-2 -4.127627111437363e-2 -4.177053760574988e-2 -4.212161508041628e-2
        -4.232565057699782e-2 -4.237968003696240e-2 -4.228171675083049e-2 -4.203083637463962e-2
        -4.162725682085343e-2 -4.107241115747166e-2 -4.036901148489096e-2 -3.952110160679931e-2
        -3.853409617452166e-2 -3.741480386998456e-2 -3.617143210784219e-2 -3.481357069009035e-2
        -3.335215184518858e-2 -3.179938413755607e-2 -3.016865785206719e-2 -2.847441965212222e-2
        -2.673201458953531e-2 -2.495749392038793e-2 -2.316738766347606e-2 -2.137844143663462e-2
        -1.960731782964760e-2 -1.787026342762179e-2 -1.618274359034744e-2 -1.455904822322538e-2
        -1.301187304199217e-2 -1.155188223050333e-2 -1.018725990660376e-2 -8.923259427632148e-3
        -7.761761259143479e-3 -6.700851864415078e-3 -5.734437805539172e-3 -4.854281930986776e-3
        -4.058266731679999e-3 -3.345621081537381e-3 -2.714851741320135e-3 -2.163706621236078e-3
        -1.689152662087107e-3 -1.287374359826954e-3 -9.537971693179548e-4 -6.831380907692530e-4
        -4.694840155202440e-4 -3.063970802073546e-4 -1.870453916599790e-4 -1.043569731999927e-4
        -5.119452814295045e-5 -2.054849411353699e-5 -5.745769758841446e-6 -6.713631574145618e-7
        0.000000000000000e0 0.000000000000000e0 0.000000000000000e0 0.000000000000000e0
        0.000000000000000e0 0.000000000000000e0 0.000000000000000e0 0.000000000000000e0
        0.000000000000000e0 0.000000000000000e0 0.000000000000000e0 0.000000000000000e0
        0.000000000000000e0 0.000000000000000e0 0.000000000000000e0 0.000000000000000e0
        0.000000000000000e0 0.000000000000000e0 0.000000000000000e0 0.000000000000000e0
        0.000000000000000e0 0.000000000000000e0 0.000000000000000e0 0.000000000000000e0
        0.000000000000000e0 0.000000000000000e0 0.000000000000000e0 0.000000000000000e0
        0.000000000000000e0 0.000000000000000e0 0.000000000000000e0 0.000000000000000e0
        0.000000000000000e0 0.000000000000000e0 0.000000000000000e0 0.000000000000000e0
        0.000000000000000e0 0.000000000000000e0 0.000000000000000e0 0.000000000000000e0
        0.000000000000000e0 0.000000000000000e0 0.000000000000000e0 0.000000000000000e0
        0.000000000000000e0 0.000000000000000e0 0.000000000000000e0 0.000000000000000e0
        0.000000000000000e0 0.000000000000000e0 0.000000000000000e0 0.000000000000000e0
        0.000000000000000e0 0.000000000000000e0 0.000000000000000e0 0.000000000000000e0
        0.000000000000000e0 0.000000000000000e0 0.000000000000000e0 0.000000000000000e0
        0.000000000000000e0 0.000000000000000e0 0.000000000000000e0 0.000000000000000e0
        0.000000000000000e0 0.000000000000000e0 0.000000000000000e0 0.000000000000000e0
        0.000000000000000e0 0.000000000000000e0 0.000000000000000e0 0.000000000000000e0
        0.000000000000000e0 0.000000000000000e0 0.000000000000000e0 0.000000000000000e0
        0.000000000000000e0 0.000000000000000e0 0.000000000000000e0 0.000000000000000e0
        0.000000000000000e0 0.000000000000000e0 0.000000000000000e0 0.000000000000000e0
        0.000000000000000e0 0.000000000000000e0 0.000000000000000e0 0.000000000000000e0
        0.000000000000000e0 0.000000000000000e0 0.000000000000000e0 0.000000000000000e0
        0.000000000000000e0 0.000000000000000e0 0.000000000000000e0 0.000000000000000e0
        0.000000000000000e0 0.000000000000000e0 0.000000000000000e0 0.000000000000000e0
        0.000000000000000e0 0.000000000000000e0 0.000000000000000e0 0.000000000000000e0
        0.000000000000000e0 0.000000000000000e0 0.000000000000000e0 0.000000000000000e0
        0.000000000000000e0 0.000000000000000e0 0.000000000000000e0 0.000000000000000e0
        0.000000000000000e0 0.000000000000000e0 0.000000000000000e0 0.000000000000000e0
        0.000000000000000e0 0.000000000000000e0 0.000000000000000e0 0.000000000000000e0
        0.000000000000000e0 0.000000000000000e0 0.000000000000000e0 0.000000000000000e0
        0.000000000000000e0 0.000000000000000e0 0.000000000000000e0 0.000000000000000e0
        0.000000000000000e0 0.000000000000000e0 0.000000000000000e0 0.000000000000000e0
        0.000000000000000e0 0.000000000000000e0 0.000000000000000e0 0.000000000000000e0
        0.000000000000000e0 0.000000000000000e0 0.000000000000000e0 0.000000000000000e0
        0.000000000000000e0 0.000000000000000e0 0.000000000000000e0 0.000000000000000e0
        0.000000000000000e0 0.000000000000000e0 0.000000000000000e0 0.000000000000000e0
        0.000000000000000e0 0.000000000000000e0 0.000000000000000e0 0.000000000000000e0
        0.000000000000000e0 0.000000000000000e0 0.000000000000000e0 0.000000000000000e0
        0.000000000000000e0 0.000000000000000e0 0.000000000000000e0 0.000000000000000e0
        0.000000000000000e0 0.000000000000000e0 0.000000000000000e0 0.000000000000000e0
        0.000000000000000e0 0.000000000000000e0 0.000000000000000e0 0.000000000000000e0
        0.000000000000000e0 0.000000000000000e0 0.000000000000000e0 0.000000000000000e0
        0.000000000000000e0 0.000000000000000e0 0.000000000000000e0 0.000000000000000e0
        0.000000000000000e0 0.000000000000000e0 0.000000000000000e0 0.000000000000000e0
        0.000000000000000e0 0.000000000000000e0 0.000000000000000e0 0.000000000000000e0
        0.000000000000000e0 0.000000000000000e0 0.000000000000000e0 0.000000000000000e0
        0.000000000000000e0 0.000000000000000e0 0.000000000000000e0 0.000000000000000e0
        0.000000000000000e0 0.000000000000000e0 0.000000000000000e0 0.000000000000000e0
        0.000000000000000e0 0.000000000000000e0 0.000000000000000e0 0.000000000000000e0
        0.000000000000000e0 0.000000000000000e0 0.000000000000000e0 0.000000000000000e0
        0.000000000000000e0 0.000000000000000e0 0.000000000000000e0 0.000000000000000e0
        0.000000000000000e0 0.000000000000000e0 0.000000000000000e0 0.000000000000000e0
        0.000000000000000e0 0.000000000000000e0 0.000000000000000e0 0.000000000000000e0
        0.000000000000000e0 0.000000000000000e0 0.000000000000000e0 0.000000000000000e0
        0.000000000000000e0 0.000000000000000e0 0.000000000000000e0 0.000000000000000e0
        0.000000000000000e0 0.000000000000000e0 0.000000000000000e0 0.000000000000000e0
        0.000000000000000e0 0.000000000000000e0 0.000000000000000e0 0.000000000000000e0
        0.000000000000000e0 0.000000000000000e0 0.000000000000000e0 0.000000000000000e0
        0.000000000000000e0 0.000000000000000e0 0.000000000000000e0 0.000000000000000e0
        0.000000000000000e0 0.000000000000000e0 0.000000000000000e0 0.000000000000000e0
        0.000000000000000e0 0.000000000000000e0 0.000000000000000e0 0.000000000000000e0
        0.000000000000000e0 0.000000000000000e0 0.000000000000000e0 0.000000000000000e0
        0.000000000000000e0 0.000000000000000e0 0.000000000000000e0 0.000000000000000e0
        0.000000000000000e0 0.000000000000000e0 0.000000000000000e0 0.000000000000000e0
        0.000000000000000e0 0.000000000000000e0 0.000000000000000e0 0.000000000000000e0
        0.000000000000000e0 0.000000000000000e0 0.000000000000000e0 0.000000000000000e0
        0.000000000000000e0 0.000000000000000e0 0.000000000000000e0 0.000000000000000e0
        0.000000000000000e0 0.000000000000000e0 0.000000000000000e0 0.000000000000000e0
        0.000000000000000e0 0.000000000000000e0 0.000000000000000e0 0.000000000000000e0
        0.000000000000000e0 0.000000000000000e0 0.000000000000000e0 0.000000000000000e0
        0.000000000000000e0 0.000000000000000e0 0.000000000000000e0 0.000000000000000e0
        0.000000000000000e0 0.000000000000000e0 0.000000000000000e0 0.000000000000000e0
        0.000000000000000e0 0.000000000000000e0 0.000000000000000e0 0.000000000000000e0
        0.000000000000000e0 0.000000000000000e0 0.000000000000000e0 0.000000000000000e0
        0.000000000000000e0 0.000000000000000e0 0.000000000000000e0 0.000000000000000e0
        0.000000000000000e0 0.000000000000000e0 0.000000000000000e0 0.000000000000000e0
        0.000000000000000e0 0.000000000000000e0 0.000000000000000e0 0.000000000000000e0
        0.000000000000000e0 0.000000000000000e0 0.000000000000000e0 0.000000000000000e0
        0.000000000000000e0 0.000000000000000e0 0.000000000000000e0
        </PP_QIJL.3.4.0>
      <PP_QIJL.3.4.2 first_index="3" second_index="4" composite_index="9" angular_momentum="2">
        -2.504631702790971e-18 -2.633046916888184e-18 -2.768046119856248e-18 -2.909966880027195e-18
        -3.059164073231894e-18 -3.216010770174453e-18 -3.380899169303383e-18 -3.554241577512063e-18
        -3.736471441120730e-18 -3.928044429718218e-18 -4.129439575573198e-18 -4.341160471464530e-18
        -4.563736529925541e-18 -4.797724307051193e-18 -5.043708894178375e-18 -5.302305380918946e-18
        -5.574160393204365e-18 -5.859953710187391e-18 -6.160399964044104e-18 -6.476250426926820e-18
        -6.808294889535804e-18 -7.157363636007561e-18 -7.524329520057815e-18 -7.910110147570601e-18
        -8.315670171091185e-18 -8.742023701959859e-18 -9.190236846118928e-18 -9.661430369932999e-18
        -1.015678250268885e-17 -1.067753188278278e-17 -1.122498065496182e-17 -1.180049772636429e-17
        -1.240552218950092e-17 -1.304156692073605e-17 -1.371022236326703e-17 -1.441316050406085e-17
        -1.515213905469294e-17 -1.592900584654215e-17 -1.674570345133207e-17 -1.760427403857295e-17
        -1.850686448204939e-17 -1.945573172812385e-17 -2.045324843927888e-17 -2.150190892700965e-17
        -2.260433538890308e-17 -2.376328446549796e-17 -2.498165413332333e-17 -2.626249095135027e-17
        -2.760899767897703e-17 -2.902454128459718e-17 -3.051266136477521e-17 -3.207707899508306e-17
        -3.372170603472874e-17 -3.545065490824312e-17 -3.726824888868555e-17 -3.917903290807933e-17
        -4.118778492211156e-17 -4.329952785751269e-17 -4.551954217199208e-17 -4.785337905813539e-17
        -5.030687432427911e-17 -5.288616298707462e-17 -5.559769461222808e-17 -5.844824944177707e-17
        -6.144495534823140e-17 -6.459530565796991e-17 -6.790717788846408e-17 -7.138885344617845e-17
        -7.504903833440578e-17 -7.889688492281490e-17 -8.294201483314652e-17 -8.719454299828598e-17
        -9.166510295486976e-17 -9.636487343267213e-17 -1.013056063072611e-16 -1.064996559858144e-16
        -1.119600102995813e-16 -1.177003229802359e-16 -1.237349478013264e-16 -1.300789744701976e-16
        -1.367482663601286e-16 -1.437595001770418e-16 -1.511302076599680e-16 -1.588788194195376e-16
        -1.670247110241263e-16 -1.755882514488806e-16 -1.845908540087848e-16 -1.940550299031220e-16
        -2.040044445052159e-16 -2.144639765382172e-16 -2.254597802848885e-16 -2.370193509869639e-16
        -2.491715935976014e-16 -2.619468950588504e-16 -2.753772002848706e-16 -2.894960920408857e-16
        -3.043388749176311e-16 -3.199426636112574e-16 -3.363464757294463e-16 -3.535913293558042e-16
        -3.717203456164806e-16 -3.907788565055013e-16 -4.108145182384259e-16 -4.318774304177696e-16
        -4.540202613081777e-16 -4.772983795345898e-16 -5.017699925327222e-16 -5.274962920980607e-16
        -5.545416073973178e-16 -5.829735658249550e-16 -6.128632621069958e-16 -6.442854360749928e-16
        -6.773186595546593e-16 -7.120455328364907e-16 -7.485528912196680e-16 -7.869320221456771e-16
        -8.272788934646382e-16 -8.696943934051015e-16 -9.142845828473501e-16 -9.611609605310758e-16
        -1.010440741860508e-15 -1.062247152004238e-15 -1.116709734022578e-15 -1.173964672792975e-15
        -1.234155135543454e-15 -1.297431629845568e-15 -1.363952379962094e-15 -1.433883722490472e-15
        -1.507400522291362e-15 -1.584686609742331e-15 -1.665935240409997e-15 -1.751349578290156e-15
        -1.841143203824121e-15 -1.935540647961683e-15 -2.034777953606111e-15 -2.139103265845010e-15
        -2.248777452443057e-15 -2.364074756148113e-15 -2.485283480441795e-15 -2.612706710449311e-15
        -2.746663070811115e-15 -2.887487522411601e-15 -3.035532199956938e-15 -3.191167292496512e-15
        -3.354781969089792e-15 -3.526785351933095e-15 -3.707607539379778e-15 -3.897700681411899e-15
        -4.097540110252460e-15 -4.307625528945640e-15 -4.528482260876713e-15 -4.760662563356531e-15
        -5.004747008554903e-15 -5.261345935236116e-15 -5.531100974926697e-15 -5.814686656331470e-15
        -6.112812092010055e-15 -6.426222751531272e-15 -6.755702325539202e-15 -7.102074685392326e-15
        -7.466205943275418e-15 -7.849006617936169e-15 -8.251433911461518e-15 -8.674494102787117e-15
        -9.119245063925078e-15 -9.586798905201311e-15 -1.007832475611813e-14 -1.059505168879424e-14
        -1.113827179129374e-14 -1.170934339852822e-14 -1.230969448881079e-14 -1.294082625455660e-14
        -1.360431685605644e-14 -1.430182536771171e-14 -1.503509592659772e-14 -1.580596209372831e-14
        -1.661635143892911e-14 -1.746829036078192e-14 -1.836390915369421e-14 -1.930544733476391e-14
        -2.029525924375832e-14 -2.133581993021263e-14 -2.242973134236562e-14 -2.357972883341166e-14
        -2.478868800133584e-14 -2.605963187943553e-14 -2.739573849551136e-14 -2.880034881862538e-14
        -3.027697511330122e-14 -3.182930972205539e-14 -3.346123429821843e-14 -3.517682951213805e-14
        -3.698038525502926e-14 -3.887641136599115e-14 -4.086964890901229e-14 -4.296508202816137e-14
        -4.516795041061268e-14 -4.748376238866454e-14 -4.991830871351794e-14 -5.247767703525623e-14
        -5.516826712523006e-14 -5.799680687891988e-14 -6.097036913928298e-14 -6.409638938265938e-14
        -6.738268431145960e-14 -7.083747140012218e-14 -7.446938944322584e-14 -7.828752015712687e-14
        -8.230141088914793e-14 -8.652109849109822e-14 -9.095713441682129e-14 -9.562061110653683e-14
        -1.005231897239402e-13 -1.056771293154276e-13 -1.110953174643593e-13 -1.167913025170074e-13
        -1.227793274607853e-13 -1.290743655394571e-13 -1.356921576943993e-13 -1.426492519255316e-13
        -1.499630446703418e-13 -1.576518243044844e-13 -1.657348168727166e-13 -1.742322341645356e-13
        -1.831653242547345e-13 -1.925564246352419e-13 -2.024290180711378e-13 -2.128077913204783e-13
        -2.237186968647957e-13 -2.351890178046246e-13 -2.472474360823201e-13 -2.599241042027937e-13
        -2.732507206314781e-13 -2.872606090580823e-13 -3.019888017243479e-13 -3.174721270241418e-13
        -3.337493015949959e-13 -3.508610271313131e-13 -3.688500921613824e-13 -3.877614790426893e-13
        -4.076424764430514e-13 -4.285427975889094e-13 -4.505147045763963e-13 -4.736131390560971e-13
        -4.978958596182580e-13 -5.234235862220046e-13 -5.502601520297411e-13 -5.784726630263865e-13
        -6.081316658226262e-13 -6.393113240617789e-13 -6.720896038713940e-13 -7.065484688233635e-13
        -7.427740848900366e-13 -7.808570359088717e-13 -8.208925500944492e-13 -8.629807381642296e-13
        -9.072268436735699e-13 -9.537415061859637e-13 -1.002641037936636e-12 -1.054047714681319e-12
        -1.108090081457513e-12 -1.164903274022883e-12 -1.224629356774538e-12 -1.287417677994300e-12
        -1.353425243308255e-12 -1.422817108294503e-12 -1.495766791220952e-12 -1.572456706945186e-12
        -1.653078623061575e-12 -1.737834139436233e-12 -1.826935192329018e-12 -1.920604584363297e-12
        -2.019076541668677e-12 -2.122597299590062e-12 -2.231425718427691e-12 -2.345833930747939e-12
        -2.466108021883698e-12 -2.592548745326014e-12 -2.725472274796093e-12 -2.865210994878356e-12
        -3.012114332191702e-12 -3.166549629177693e-12 -3.328903062690610e-12 -3.499580609686732e-12
        -3.679009062427756e-12 -3.867637095737137e-12 -4.065936388978491e-12 -4.274402805561678e-12
        -4.493557632926549e-12 -4.723948886105181e-12 -4.966152678122590e-12 -5.220774660663187e-12
        -5.488451538605720e-12 -5.769852662214459e-12 -6.065681700968448e-12 -6.376678403214720e-12
        -6.703620446046472e-12 -7.047325380032174e-12 -7.408652673659446e-12 -7.788505862606674e-12
        -8.187834809217234e-12 -8.607638077827568e-12 -9.048965431889219e-12 -9.512920459130324e-12
        -1.000066333132189e-11 -1.051341370555082e-11 -1.105245377425605e-11 -1.161913147165549e-11
        -1.221486384458353e-11 -1.284114059616945e-11 -1.349952781121922e-11 -1.419167187261894e-11
        -1.491930357855409e-11 -1.568424247084266e-11 -1.648840138520779e-11 -1.733379123486985e-11
        -1.822252603942344e-11 -1.915682821157603e-11 -2.013903411497198e-11 -2.117159990700272e-11
        -2.225710768121664e-11 -2.339827192469290e-11 -2.459794630652930e-11 -2.585913081442492e-11
        -2.718497925720695e-11 -2.857880715206882e-11 -3.004410001624543e-11 -3.158452208386882e-11
        -3.320392546980493e-11 -3.490635980339549e-11 -3.669608235620140e-11 -3.857756868908107e-11
        -4.055552384523736e-11 -4.263489411723049e-11 -4.482087941739260e-11 -4.711894628258822e-11
        -4.953484154585020e-11 -5.207460670909498e-11 -5.474459305286693e-11 -5.755147752091348e-11
        -6.050227941932610e-11 -6.360437797202183e-11 -6.686553077648576e-11 -7.029389320594214e-11
        -7.389803880649445e-11 -7.768698074026417e-11 -8.167019432816996e-11 -8.585764074875044e-11
        -9.025979195231805e-11 -9.488765685277713e-11 -9.975280886263665e-11 -1.048674148401058e-10
        -1.102442655207021e-10 -1.158968075095103e-10 -1.218391769141365e-10 -1.280862347025164e-10
        -1.346536038740397e-10 -1.415577085370076e-10 -1.488158149901982e-10 -1.564460749113394e-10
        -1.644675707605622e-10 -1.729003635124401e-10 -1.817655428360747e-10 -1.910852795380949e-10
        -2.008828827265598e-10 -2.111828542160012e-10 -2.220109544809073e-10 -2.333942645749744e-10
        -2.453612527148745e-10 -2.579418490982099e-10 -2.711675180415204e-10 -2.850713361264261e-10
        -2.996880776876654e-10 -3.150542993533244e-10 -3.312084335346781e-10 -3.481908817779939e-10
        -3.660441190667365e-10 -3.848127974915611e-10 -4.045438604384465e-10 -4.252866560611503e-10
        -4.470930666483669e-10 -4.700176316567228e-10 -4.941176896086338e-10 -5.194535201108178e-10
        -5.460884916960707e-10 -5.740892257761569e-10 -6.035257572454954e-10 -6.344717154545187e-10
        -6.670045025508933e-10 -7.012054935210374e-10 -7.371602364239481e-10 -7.749586662691696e-10
        -8.146953280701453e-10 -8.564696184131916e-10 -9.003860314842173e-10 -9.465544204454481e-10
        -9.950902713937637e-10 -1.046114997646809e-9 -1.099756232064977e-9 -1.156148162248019e-9
        -1.215431853775974e-9 -1.277755605247998e-9 -1.343275327881461e-9 -1.412154927066406e-9
        -1.484566709463129e-9 -1.560691828884412e-9 -1.640720728120680e-9 -1.724853614977419e-9
        -1.813300969158556e-9 -1.906284067889853e-9 -2.004035537237586e-9 -2.106799937138556e-9
        -2.214834370606524e-9 -2.328409131912547e-9 -2.447808382384681e-9 -2.573330850749350e-9
        -2.705290604764790e-9 -2.844017814977038e-9 -2.989859586287845e-9 -3.143180838208659e-9
        -3.304365208186327e-9 -3.473816017531445e-9 -3.651957275151124e-9 -3.839234750689405e-9
        -4.036117077139656e-9 -4.243096925248290e-9 -4.460692268180849e-9 -4.689447628777908e-9
        -4.929935477951341e-9 -5.182757659817643e-9 -5.448546908596235e-9 -5.727968405191634e-9
        -6.021721491559422e-9 -6.330541368054067e-9 -6.655200970115724e-9 -6.996512915958099e-9
        -7.355331494028052e-9 -7.732554841503974e-9 -8.129127225166288e-9 -8.546041307198671e-9
        -8.984340758454225e-9 -9.445122760017552e-9 -9.929540864706352e-9 -1.043880776865416e-8
        -1.097419845690619e-8 -1.153705334338666e-8 -1.212878165209615e-8 -1.275086492477731e-8
        -1.340486078450654e-8 -1.409240680792220e-8 -1.481522461019085e-8 -1.557512422409157e-8
        -1.637400859816789e-8 -1.721387838394148e-8 -1.809683693462035e-8 -1.902509564680794e-8
        -2.000097940422239e-8 -2.102693250853759e-8 -2.210552478433176e-8 -2.323945798556561e-8
        -2.443157266158711e-8 -2.568485519624489e-8 -2.700244539874848e-8 -2.838764431174493e-8
        -2.984392253024465e-8 -3.137492894266543e-8 -3.298449985094070e-8 -3.467666863560275e-8
        -3.645567589912910e-8 -3.832598009058298e-8 -4.029226873224919e-8 -4.235947018910967e-8
        -4.453276608877072e-8 -4.681760428743012e-8 -4.921971263088377e-8 -5.174511332516037e-8
        -5.440013808451743e-8 -5.719144406951116e-8 -6.012603062356112e-8 -6.321125689279522e-8
        -6.645486035052527e-8 -6.986497625559719e-8 -7.345015814899893e-8 -7.721939937946598e-8
        -8.118215575226053e-8 -8.534836936304099e-8 -8.972849359646206e-8 -9.433351952906676e-8
        -9.917500358270138e-8 -1.042650966629930e-7 -1.096165747792156e-7 -1.152428713079685e-7
        -1.211581108051014e-7 -1.273771447029596e-7 -1.339155887232983e-7 -1.407898623107481e-7
        -1.480172301182115e-7 -1.556158455241099e-7 -1.636047965483231e-7 -1.720041539763006e-7
        -1.808350222185681e-7 -1.901195924845540e-7 -1.998811990133773e-7 -2.101443779703449e-7
        -2.209349296088734e-7 -2.322799834528009e-7 -2.442080670415705e-7 -2.567491780589432e-7
        -2.699348603625029e-7 -2.837982838615592e-7 -2.983743285574675e-7 -3.136996729427350e-7
        -3.298128870206662e-7 -3.467545301129070e-7 -3.645672537771442e-7 -3.832959100183239e-7
        -4.029876652208918e-7 -4.236921199052398e-7 -4.454614347714423e-7 -4.683504632435050e-7
        -4.924168909926381e-7 -5.177213826560982e-7 -5.443277361812140e-7 -5.723030453202261e-7
        -6.017178704276760e-7 -6.326464183120923e-7 -6.651667313456557e-7 -6.993608865647564e-7
        -7.353152049904612e-7 -7.731204720571304e-7 -8.128721694424609e-7 -8.546707190170151e-7
        -8.986217396037802e-7 -9.448363170744209e-7 -9.934312886553418e-7 -1.044529542074458e-6
        -1.098260330384561e-6 -1.154759603256316e-6 -1.214170355645823e-6 -1.276642994770647e-6
        -1.342335726268801e-6 -1.411414960700281e-6 -1.484055741344746e-6 -1.560442194455065e-6
        -1.640768003251510e-6 -1.725236906776277e-6 -1.814063225017079e-6 -1.907472411641784e-6
        -2.005701635931099e-6 -2.109000395301622e-6 -2.217631160112760e-6 -2.331870052604243e-6
        -2.452007561523502e-6 -2.578349294640343e-6 -2.711216770910130e-6 -2.850948254647340e-6
        -2.997899633719662e-6 -3.152445344344239e-6 -3.314979344803219e-6 -3.485916140842413e-6
        -3.665691865369357e-6 -3.854765415561329e-6 -4.053619650327605e-6 -4.262762651384550e-6
        -4.482729051423905e-6 -4.714081433015565e-6 -4.957411801857406e-6 -5.213343138714618e-6
        -5.482531033998082e-6 -5.765665409533294e-6 -6.063472332407494e-6 -6.376715925573646e-6
        -6.706200380762180e-6 -7.052772078938949e-6 -7.417321824394091e-6 -7.800787198573854e-6
        -8.204155039994721e-6 -8.628464057287143e-6 -9.074807582500860e-6 -9.544336472377902e-6
        -1.003826216558751e-5 -1.055785990439826e-5 -1.110447212985040e-5 -1.167951205979195e-5
        -1.228446745985840e-5 -1.292090461776873e-5 -1.359047253225296e-5 -1.429490732818762e-5
        -1.503603691031094e-5 -1.581578586875444e-5 -1.663618064979662e-5 -1.749935500688138e-5
        -1.840755574663934e-5 -1.936314878663935e-5 -2.036862554155873e-5 -2.142660965586116e-5
        -2.253986410213755e-5 -2.371129866486987e-5 -2.494397783093718e-5 -2.624112910907651e-5
        -2.760615180181309e-5 -2.904262625461604e-5 -3.055432360844629e-5 -3.214521608321644e-5
        -3.381948782125369e-5 -3.558154632130050e-5 -3.743603449549201e-5 -3.938784338307197e-5
        -4.144212555702830e-5 -4.360430926108326e-5 -4.588011331702473e-5 -4.827556284425174e-5
        -5.079700583561748e-5 -5.345113063608299e-5 -5.624498437303764e-5 -5.918599238980624e-5
        -6.228197873651538e-5 -6.554118777521251e-5 -6.897230695921868e-5 -7.258449084968374e-5
        -7.638738643551499e-5 -8.039115982627163e-5 -8.460652439102523e-5 -8.904477041990697e-5
        -9.371779638881769e-5 -9.863814191171409e-5 -1.038190224690301e-4 -1.092743660050247e-4
        -1.150188514911110e-4 -1.210679495571858e-4 -1.274379652971613e-4 -1.341460833601995e-4
        -1.412104154438761e-4 -1.486500503109457e-4 -1.564851064562575e-4 -1.647367875561609e-4
        -1.734274408381146e-4 -1.825806185136292e-4 -1.922211424238693e-4 -2.023751720523010e-4
        -2.130702760653633e-4 -2.243355075472100e-4 -2.362014831008548e-4 -2.487004659936205e-4
        -2.618664535303983e-4 -2.757352688436681e-4 -2.903446572948965e-4 -3.057343876862967e-4
        -3.219463584873696e-4 -3.390247092845151e-4 -3.570159376658726e-4 -3.759690217570760e-4
        -3.959355486257892e-4 -4.169698487749819e-4 -4.391291369453875e-4 -4.624736594477380e-4
        -4.870668482433185e-4 -5.129754819889659e-4 -5.402698542576420e-4 -5.690239491396085e-4
        -5.993156244205054e-4 -6.312268025219934e-4 -6.648436693770552e-4 -7.002568813956474e-4
        -7.375617806569532e-4 -7.768586184407537e-4 -8.182527871836314e-4 -8.618550609134202e-4
        -9.077818441788642e-4 -9.561554294491039e-4 -1.007104262909296e-3 -1.060763218524215e-3
        -1.117273880179196e-3 -1.176784831638377e-3 -1.239451953981262e-3 -1.305438730091106e-3
        -1.374916555670492e-3 -1.448065056150227e-3 -1.525072408737026e-3 -1.606135668711261e-3
        -1.691461098938434e-3 -1.781264501395476e-3 -1.875771549333829e-3 -1.975218118506267e-3
        -2.079850615669519e-3 -2.189926302341927e-3 -2.305713611541261e-3 -2.427492454951576e-3
        -2.555554517670057e-3 -2.690203537361142e-3 -2.831755564297767e-3 -2.980539198395377e-3
        -3.136895798942331e-3 -3.301179662301832e-3 -3.473758162401484e-3 -3.655011848339709e-3
        -3.845334492921575e-3 -4.045133085389399e-3 -4.254827761039127e-3 -4.474851659808127e-3
        -4.705650705289457e-3 -4.947683294970533e-3 -5.201419891812479e-3 -5.467342506587086e-3
        -5.745944059668597e-3 -6.037727610248838e-3 -6.343205440207540e-3 -6.662897979132448e-3
        -6.997332556257384e-3 -7.347041964374405e-3 -7.712562820095171e-3 -8.094433704196422e-3
        -8.493193065197296e-3 -8.909376868806158e-3 -9.343515975449266e-3 -9.796133227784754e-3
        -1.026774022993005e-2 -1.075883380011426e-2 -1.126989207864640e-2 -1.180137027348426e-2
        -1.235369602634571e-2 -1.292726438325289e-2 -1.352243235468189e-2 -1.413951305215831e-2
        -1.477876939022565e-2 -1.544040734528289e-2 -1.612456876588333e-2 -1.683132373276299e-2
        -1.756066247119048e-2 -1.831248682324191e-2 -1.908660129337870e-2 -1.988270368729096e-2
        -2.070037537141792e-2 -2.153907118893521e-2 -2.239810907733464e-2 -2.327665944307586e-2
        -2.417373436018089e-2 -2.508817667209126e-2 -2.601864908963351e-2 -2.696362339250828e-2
        -2.792136985732014e-2 -2.888994705172692e-2 -2.986719215171960e-2 -3.085071195723976e-2
        -3.183787480011226e-2 -3.282580355743472e-2 -3.381137000284506e-2 -3.479119074717196e-2
        -3.576162503849335e-2 -3.671877470911808e-2 -3.765848657296575e-2 -3.857635759064029e-2
        -3.946774313048654e-2 -4.032776866134125e-2 -4.115134521565544e-2 -4.193318895926282e-2
        -4.266784519525667e-2 -4.334971711311336e-2 -4.397309956921069e-2 -4.453221814998118e-2
        -4.502127372288101e-2 -4.543449262184868e-2 -4.576618254173096e-2 -4.601079412906831e-2
        -4.616298815355566e-2 -4.621770802449881e-2 -4.617025727894425e-2 -4.601638151245466e-2
        -4.575235404967990e-2 -4.537506446035849e-2 -4.488210881816336e-2 -4.427188037655111e-2
        -4.354365909993964e-2 -4.269769824350270e-2 -4.173530592503752e-2 -4.065891938326794e-2
        -3.947216937541456e-2 -3.817993194101941e-2 -3.678836455842089e-2 -3.530492355594647e-2
        -3.373835952423946e-2 -3.209868742301928e-2 -3.039712810001565e-2 -2.864601805794280e-2
        -2.685868453401997e-2 -2.504928331280893e-2 -2.323259719399271e-2 -2.142379369810896e-2
        -1.963814142948783e-2 -1.789068553828367e-2 -1.619588394022431e-2 -1.456720736618557e-2
        -1.301670791995265e-2 -1.155456260963298e-2 -1.018860026453797e-2 -8.923822322165154e-3
        -7.761930123714612e-3 -6.700873531758665e-3 -5.734437805539172e-3 -4.854281930986776e-3
        -4.058266731679999e-3 -3.345621081537381e-3 -2.714851741320135e-3 -2.163706621236078e-3
        -1.689152662087107e-3 -1.287374359826954e-3 -9.537971693179548e-4 -6.831380907692530e-4
        -4.694840155202440e-4 -3.063970802073546e-4 -1.870453916599790e-4 -1.043569731999927e-4
        -5.119452814295045e-5 -2.054849411353699e-5 -5.745769758841446e-6 -6.713631574145618e-7
        0.000000000000000e0 0.000000000000000e0 0.000000000000000e0 0.000000000000000e0
        0.000000000000000e0 0.000000000000000e0 0.000000000000000e0 0.000000000000000e0
        0.000000000000000e0 0.000000000000000e0 0.000000000000000e0 0.000000000000000e0
        0.000000000000000e0 0.000000000000000e0 0.000000000000000e0 0.000000000000000e0
        0.000000000000000e0 0.000000000000000e0 0.000000000000000e0 0.000000000000000e0
        0.000000000000000e0 0.000000000000000e0 0.000000000000000e0 0.000000000000000e0
        0.000000000000000e0 0.000000000000000e0 0.000000000000000e0 0.000000000000000e0
        0.000000000000000e0 0.000000000000000e0 0.000000000000000e0 0.000000000000000e0
        0.000000000000000e0 0.000000000000000e0 0.000000000000000e0 0.000000000000000e0
        0.000000000000000e0 0.000000000000000e0 0.000000000000000e0 0.000000000000000e0
        0.000000000000000e0 0.000000000000000e0 0.000000000000000e0 0.000000000000000e0
        0.000000000000000e0 0.000000000000000e0 0.000000000000000e0 0.000000000000000e0
        0.000000000000000e0 0.000000000000000e0 0.000000000000000e0 0.000000000000000e0
        0.000000000000000e0 0.000000000000000e0 0.000000000000000e0 0.000000000000000e0
        0.000000000000000e0 0.000000000000000e0 0.000000000000000e0 0.000000000000000e0
        0.000000000000000e0 0.000000000000000e0 0.000000000000000e0 0.000000000000000e0
        0.000000000000000e0 0.000000000000000e0 0.000000000000000e0 0.000000000000000e0
        0.000000000000000e0 0.000000000000000e0 0.000000000000000e0 0.000000000000000e0
        0.000000000000000e0 0.000000000000000e0 0.000000000000000e0 0.000000000000000e0
        0.000000000000000e0 0.000000000000000e0 0.000000000000000e0 0.000000000000000e0
        0.000000000000000e0 0.000000000000000e0 0.000000000000000e0 0.000000000000000e0
        0.000000000000000e0 0.000000000000000e0 0.000000000000000e0 0.000000000000000e0
        0.000000000000000e0 0.000000000000000e0 0.000000000000000e0 0.000000000000000e0
        0.000000000000000e0 0.000000000000000e0 0.000000000000000e0 0.000000000000000e0
        0.000000000000000e0 0.000000000000000e0 0.000000000000000e0 0.000000000000000e0
        0.000000000000000e0 0.000000000000000e0 0.000000000000000e0 0.000000000000000e0
        0.000000000000000e0 0.000000000000000e0 0.000000000000000e0 0.000000000000000e0
        0.000000000000000e0 0.000000000000000e0 0.000000000000000e0 0.000000000000000e0
        0.000000000000000e0 0.000000000000000e0 0.000000000000000e0 0.000000000000000e0
        0.000000000000000e0 0.000000000000000e0 0.000000000000000e0 0.000000000000000e0
        0.000000000000000e0 0.000000000000000e0 0.000000000000000e0 0.000000000000000e0
        0.000000000000000e0 0.000000000000000e0 0.000000000000000e0 0.000000000000000e0
        0.000000000000000e0 0.000000000000000e0 0.000000000000000e0 0.000000000000000e0
        0.000000000000000e0 0.000000000000000e0 0.000000000000000e0 0.000000000000000e0
        0.000000000000000e0 0.000000000000000e0 0.000000000000000e0 0.000000000000000e0
        0.000000000000000e0 0.000000000000000e0 0.000000000000000e0 0.000000000000000e0
        0.000000000000000e0 0.000000000000000e0 0.000000000000000e0 0.000000000000000e0
        0.000000000000000e0 0.000000000000000e0 0.000000000000000e0 0.000000000000000e0
        0.000000000000000e0 0.000000000000000e0 0.000000000000000e0 0.000000000000000e0
        0.000000000000000e0 0.000000000000000e0 0.000000000000000e0 0.000000000000000e0
        0.000000000000000e0 0.000000000000000e0 0.000000000000000e0 0.000000000000000e0
        0.000000000000000e0 0.000000000000000e0 0.000000000000000e0 0.000000000000000e0
        0.000000000000000e0 0.000000000000000e0 0.000000000000000e0 0.000000000000000e0
        0.000000000000000e0 0.000000000000000e0 0.000000000000000e0 0.000000000000000e0
        0.000000000000000e0 0.000000000000000e0 0.000000000000000e0 0.000000000000000e0
        0.000000000000000e0 0.000000000000000e0 0.000000000000000e0 0.000000000000000e0
        0.000000000000000e0 0.000000000000000e0 0.000000000000000e0 0.000000000000000e0
        0.000000000000000e0 0.000000000000000e0 0.000000000000000e0 0.000000000000000e0
        0.000000000000000e0 0.000000000000000e0 0.000000000000000e0 0.000000000000000e0
        0.000000000000000e0 0.000000000000000e0 0.000000000000000e0 0.000000000000000e0
        0.000000000000000e0 0.000000000000000e0 0.000000000000000e0 0.000000000000000e0
        0.000000000000000e0 0.000000000000000e0 0.000000000000000e0 0.000000000000000e0
        0.000000000000000e0 0.000000000000000e0 0.000000000000000e0 0.000000000000000e0
        0.000000000000000e0 0.000000000000000e0 0.000000000000000e0 0.000000000000000e0
        0.000000000000000e0 0.000000000000000e0 0.000000000000000e0 0.000000000000000e0
        0.000000000000000e0 0.000000000000000e0 0.000000000000000e0 0.000000000000000e0
        0.000000000000000e0 0.000000000000000e0 0.000000000000000e0 0.000000000000000e0
        0.000000000000000e0 0.000000000000000e0 0.000000000000000e0 0.000000000000000e0
        0.000000000000000e0 0.000000000000000e0 0.000000000000000e0 0.000000000000000e0
        0.000000000000000e0 0.000000000000000e0 0.000000000000000e0 0.000000000000000e0
        0.000000000000000e0 0.000000000000000e0 0.000000000000000e0 0.000000000000000e0
        0.000000000000000e0 0.000000000000000e0 0.000000000000000e0 0.000000000000000e0
        0.000000000000000e0 0.000000000000000e0 0.000000000000000e0 0.000000000000000e0
        0.000000000000000e0 0.000000000000000e0 0.000000000000000e0 0.000000000000000e0
        0.000000000000000e0 0.000000000000000e0 0.000000000000000e0 0.000000000000000e0
        0.000000000000000e0 0.000000000000000e0 0.000000000000000e0 0.000000000000000e0
        0.000000000000000e0 0.000000000000000e0 0.000000000000000e0 0.000000000000000e0
        0.000000000000000e0 0.000000000000000e0 0.000000000000000e0 0.000000000000000e0
        0.000000000000000e0 0.000000000000000e0 0.000000000000000e0 0.000000000000000e0
        0.000000000000000e0 0.000000000000000e0 0.000000000000000e0 0.000000000000000e0
        0.000000000000000e0 0.000000000000000e0 0.000000000000000e0 0.000000000000000e0
        0.000000000000000e0 0.000000000000000e0 0.000000000000000e0 0.000000000000000e0
        0.000000000000000e0 0.000000000000000e0 0.000000000000000e0 0.000000000000000e0
        0.000000000000000e0 0.000000000000000e0 0.000000000000000e0 0.000000000000000e0
        0.000000000000000e0 0.000000000000000e0 0.000000000000000e0 0.000000000000000e0
        0.000000000000000e0 0.000000000000000e0 0.000000000000000e0 0.000000000000000e0
        0.000000000000000e0 0.000000000000000e0 0.000000000000000e0 0.000000000000000e0
        0.000000000000000e0 0.000000000000000e0 0.000000000000000e0 0.000000000000000e0
        0.000000000000000e0 0.000000000000000e0 0.000000000000000e0 0.000000000000000e0
        0.000000000000000e0 0.000000000000000e0 0.000000000000000e0
        </PP_QIJL.3.4.2>
      <PP_QIJL.4.4.0 first_index="4" second_index="4" composite_index="10" angular_momentum="0">
        2.152535429217384e-9 2.207027121753909e-9 2.262898277988579e-9 2.320183819207784e-9
        2.378919550734328e-9 2.439142184306877e-9 2.500889361026005e-9 2.564199674881080e-9
        2.629112696872743e-9 2.695668999746082e-9 2.763910183349862e-9 2.833878900637799e-9
        2.905618884328010e-9 2.979174974237363e-9 3.054593145307828e-9 3.131920536342253e-9
        3.211205479467652e-9 3.292497530344330e-9 3.375847499139742e-9 3.461307482286514e-9
        3.548930895044337e-9 3.638772504886235e-9 3.730888465729990e-9 3.825336353036128e-9
        3.922175199794439e-9 4.021465533421448e-9 4.123269413592022e-9 4.227650471028615e-9
        4.334673947272513e-9 4.444406735461897e-9 4.556917422142143e-9 4.672276330134638e-9
        4.790555562490747e-9 4.911829047558538e-9 5.036172585190362e-9 5.163663894120124e-9
        5.294382660539995e-9 5.428410587906801e-9 5.565831448009271e-9 5.706731133328084e-9
        5.851197710721352e-9 5.999321476469208e-9 6.151195012711845e-9 6.306913245316271e-9
        6.466573503207993e-9 6.630275579204632e-9 6.798121792389601e-9 6.970217052064751e-9
        7.146668923321985e-9 7.327587694274850e-9 7.513086444992024e-9 7.703281118175940e-9
        7.898290591630596e-9 8.098236752563926e-9 8.303244573771121e-9 8.513442191746501e-9
        8.728960986772861e-9 8.949935665038225e-9 9.176504342831411e-9 9.408808632869066e-9
        9.646993732807926e-9 9.891208515997924e-9 1.014160562453264e-8 1.039834156465531e-8
        1.066157680458016e-8 1.093147587478987e-8 1.120820747087230e-8 1.149194455896039e-8
        1.178286448384130e-8 1.208114907980245e-8 1.238698478428341e-8 1.270056275440504e-8
        1.302207898644858e-8 1.335173443835926e-8 1.368973515535125e-8 1.403629239869203e-8
        1.439162277774718e-8 1.475594838536784e-8 1.512949693670539e-8 1.551250191154039e-8
        1.590520270021438e-8 1.630784475325611e-8 1.672067973479548e-8 1.714396567986113e-8
        1.757796715566017e-8 1.802295542694038e-8 1.847920862553890e-8 1.894701192422286e-8
        1.942665771493073e-8 1.991844579152608e-8 2.042268353717742e-8 2.093968611648175e-8
        2.146977667245175e-8 2.201328652848951e-8 2.257055539547344e-8 2.314193158408727e-8
        2.372777222252449e-8 2.432844347970363e-8 2.494432079413443e-8 2.557578910857789e-8
        2.622324311064610e-8 2.688708747949358e-8 2.756773713875307e-8 2.826561751587454e-8
        2.898116480802957e-8 2.971482625474650e-8 3.046706041744774e-8 3.123833746606356e-8
        3.202913947290114e-8 3.283996071395328e-8 3.367130797783427e-8 3.452370088253675e-8
        3.539767220020696e-8 3.629376819014193e-8 3.721254894021629e-8 3.815458871695191e-8
        3.912047632445004e-8 4.011081547240943e-8 4.112622515346060e-8 4.216734003005287e-8
        4.323481083113448e-8 4.432930475887522e-8 4.545150590568486e-8 4.660211568178836e-8
        4.778185325362533e-8 4.899145599334660e-8 5.023167993969068e-8 5.150330027052639e-8
        5.280711178735831e-8 5.414392941209726e-8 5.551458869640570e-8 5.691994634393792e-8
        5.836088074579995e-8 5.983829252956481e-8 6.135310512218589e-8 6.290626532715970e-8
        6.449874391629978e-8 6.613153623649124e-8 6.780566283180434e-8 6.952217008135779e-8
        7.128213085332757e-8 7.308664517551327e-8 7.493684092287872e-8 7.683387452249715e-8
        7.877893167634278e-8 8.077322810237774e-8 8.281801029440082e-8 8.491455630113053e-8
        8.706417652501013e-8 8.926821454123491e-8 9.152804793751073e-8 9.384508917507272e-8
        9.622078647149827e-8 9.865662470586900e-8 1.011541263468462e-7 1.037148524042383e-7
        1.063404034046591e-7 1.090324203918819e-7 1.117925859525175e-7 1.146226252676575e-7
        1.175243071911367e-7 1.204994453550929e-7 1.235498993035125e-7 1.266775756544694e-7
        1.298844292917877e-7 1.331724645868660e-7 1.365437366514365e-7 1.400003526220306e-7
        1.435444729769634e-7 1.471783128866558e-7 1.509041435981353e-7 1.547242938545894e-7
        1.586411513508474e-7 1.626571642257098e-7 1.667748425920550e-7 1.709967601056720e-7
        1.753255555738172e-7 1.797639346044781e-7 1.843146712973933e-7 1.889806099778770e-7
        1.937646669745286e-7 1.986698324419495e-7 2.036991722295918e-7 2.088558297979191e-7
        2.141430281830713e-7 2.195640720112554e-7 2.251223495641388e-7 2.308213348965128e-7
        2.366645900075672e-7 2.426557670671274e-7 2.487986106982372e-7 2.550969603175328e-7
        2.615547525348455e-7 2.681760236135551e-7 2.749649119932187e-7 2.819256608760504e-7
        2.890626208788812e-7 2.963802527522367e-7 3.038831301682487e-7 3.115759425791371e-7
        3.194634981480363e-7 3.275507267540261e-7 3.358426830732083e-7 3.443445497377851e-7
        3.530616405750988e-7 3.619994039286492e-7 3.711634260631902e-7 3.805594346559988e-7
        3.901933023765250e-7 4.000710505566502e-7 4.101988529538348e-7 4.205830396095353e-7
        4.312301008052680e-7 4.421466911188137e-7 4.533396335830959e-7 4.648159239503097e-7
        4.765827350640021e-7 4.886474213417973e-7 5.010175233715920e-7 5.137007726240879e-7
        5.267050962845897e-7 5.400386222071186e-7 5.537096839938975e-7 5.677268262034136e-7
        5.820988096902985e-7 5.968346170803476e-7 6.119434583841382e-7 6.274347767527039e-7
        6.433182543788964e-7 6.596038185481135e-7 6.763016478421513e-7 6.934221785000973e-7
        7.109761109401889e-7 7.289744164467499e-7 7.474283440263704e-7 7.663494274375823e-7
        7.857494923984897e-7 8.056406639767715e-7 8.260353741667405e-7 8.469463696581576e-7
        8.683867198016461e-7 8.903698247757220e-7 9.129094239604809e-7 9.360196045232248e-7
        9.597148102213598e-7 9.840098504280657e-7 1.008919909386388e-6 1.034460555697506e-6
        1.060647752049131e-6 1.087497865190080e-6 1.115027676157277e-6 1.143254390761550e-6
        1.172195650338780e-6 1.201869542773108e-6 1.232294613799094e-6 1.263489878589861e-6
        1.295474833638488e-6 1.328269468940033e-6 1.361894280481837e-6 1.396370283049855e-6
        1.431719023359040e-6 1.467962593515973e-6 1.505123644822129e-6 1.543225401926400e-6
        1.582291677335716e-6 1.622346886292801e-6 1.663416062030372e-6 1.705524871411276e-6
        1.748699630964340e-6 1.792967323325949e-6 1.838355614097566e-6 1.884892869129789e-6
        1.932608172243636e-6 1.981531343400190e-6 2.031692957329910e-6 2.083124362633210e-6
        2.135857701364258e-6 2.189925929110175e-6 2.245362835578188e-6 2.302203065703562e-6
        2.360482141291455e-6 2.420236483206248e-6 2.481503434122110e-6 2.544321281849065e-6
        2.608729283249031e-6 2.674767688756796e-6 2.742477767521196e-6 2.811901833182147e-6
        2.883083270299648e-6 2.956066561451189e-6 3.030897315014450e-6 3.107622293652651e-6
        3.186289443520224e-6 3.266947924207098e-6 3.349648139440195e-6 3.434441768561253e-6
        3.521381798800649e-6 3.610522558367260e-6 3.701919750374997e-6 3.795630487627186e-6
        3.891713328280341e-6 3.990228312409683e-6 4.091236999499047e-6 4.194802506878593e-6
        4.300989549134230e-6 4.409864478513236e-6 4.521495326351324e-6 4.635951845546805e-6
        4.753305554108392e-6 4.873629779803681e-6 4.996999705936055e-6 5.123492418278585e-6
        5.253186953194000e-6 5.386164346970734e-6 5.522507686405707e-6 5.662302160665234e-6
        5.805635114456399e-6 5.952596102541834e-6 6.103276945631857e-6 6.257771787688688e-6
        6.416177154678280e-6 6.578592014806346e-6 6.745117840275933e-6 6.915858670604908e-6
        7.090921177542658e-6 7.270414731626397e-6 7.454451470418134e-6 7.643146368464961e-6
        7.836617309025849e-6 8.034985157609533e-6 8.238373837369075e-6 8.446910406399784e-6
        8.660725136988555e-6 8.879951596863654e-6 9.104726732495221e-6 9.335190954498373e-6
        9.571488225191352e-6 9.813766148363428e-6 1.006217606130780e-5 1.031687312917656e-5
        1.057801644171621e-5 1.084576911244327e-5 1.112029838032173e-5 1.140177571400488e-5
        1.169037691870609e-5 1.198628224576466e-5 1.228967650497411e-5 1.260074917974277e-5
        1.291969454515730e-5 1.324671178902232e-5 1.358200513595075e-5 1.392578397458121e-5
        1.427826298800126e-5 1.463966228745667e-5 1.501020754942904e-5 1.539013015616642e-5
        1.577966733975317e-5 1.617906232980808e-5 1.658856450490128e-5 1.700842954778320e-5
        1.743891960452127e-5 1.788030344764142e-5 1.833285664337540e-5 1.879686172311613e-5
        1.927260835918635e-5 1.976039354502856e-5 2.026052177992628e-5 2.077330525837044e-5
        2.129906406418630e-5 2.183812636954011e-5 2.239082863894715e-5 2.295751583840550e-5
        2.353854164978417e-5 2.413426869059576e-5 2.474506873928802e-5 2.537132296619218e-5
        2.601342217026779e-5 2.667176702178968e-5 2.734676831112347e-5 2.803884720374198e-5
        2.874843550163717e-5 2.947597591128606e-5 3.022192231833416e-5 3.098674006916236e-5
        3.177090625950823e-5 3.257491003031642e-5 3.339925287099757e-5 3.424444893027829e-5
        3.511102533483110e-5 3.599952251587569e-5 3.691049454394919e-5 3.784450947204692e-5
        3.880214968733948e-5 3.978401227167915e-5 4.079070937111084e-5 4.182286857460999e-5
        4.288113330227461e-5 4.396616320320301e-5 4.507863456329638e-5 4.621924072322940e-5
        4.738869250683794e-5 4.858771866017988e-5 4.981706630152981e-5 5.107750138257549e-5
        5.236980916108997e-5 5.369479468535937e-5 5.505328329065389e-5 5.644612110803381e-5
        5.787417558579349e-5 5.933833602384877e-5 6.083951412138290e-5 6.237864453807350e-5
        6.395668546922860e-5 6.557461923516974e-5 6.723345288520638e-5 6.893421881655376e-5
        7.067797540855603e-5 7.246580767258135e-5 7.429882791796855e-5 7.617817643440952e-5
        7.810502219116238e-5 8.008056355349908e-5 8.210602901679859e-5 8.418267795870888e-5
        8.631180140980794e-5 8.849472284320424e-5 9.073279898352784e-5 9.302742063577028e-5
        9.538001353444672e-5 9.779203921355805e-5 1.002649958978456e-4 1.028004194158400e-4
        1.053998841352148e-4 1.080650039209712e-4 1.107974331169860e-4 1.135988675514692e-4
        1.164710455668906e-4 1.194157490749396e-4 1.224348046371043e-4 1.255300845714601e-4
        1.287035080862718e-4 1.319570424410305e-4 1.352927041355480e-4 1.387125601277604e-4
        1.422187290808878e-4 1.458133826406231e-4 1.494987467430304e-4 1.532771029538447e-4
        1.571507898398854e-4 1.611222043733012e-4 1.651938033693822e-4 1.693681049586904e-4
        1.736476900942653e-4 1.780352040946870e-4 1.825333582237845e-4 1.871449313077914e-4
        1.918727713907730e-4 1.967197974291485e-4 2.016890010261660e-4 2.067834482071804e-4
        2.120062812366164e-4 2.173607204775042e-4 2.228500662944855e-4 2.284777010012158e-4
        2.342470908530875e-4 2.401617880862194e-4 2.462254330036748e-4 2.524417561098729e-4
        2.588145802941855e-4 2.653478230647141e-4 2.720454988332563e-4 2.789117212524889e-4
        2.859507056063968e-4 2.931667712550024e-4 3.005643441344453e-4 3.081479593134878e-4
        3.159222636075236e-4 3.238920182511718e-4 3.320621016305653e-4 3.404375120764308e-4
        3.490233707190763e-4 3.578249244064085e-4 3.668475486860985e-4 3.760967508530378e-4
        3.855781730632079e-4 3.952975955151056e-4 4.052609396998648e-4 4.154742717212002e-4
        4.259438056863275e-4 4.366759071689766e-4 4.476770967456373e-4 4.589540536061570e-4
        4.705136192397935e-4 4.823628011978460e-4 4.945087769339374e-4 5.069588977230271e-4
        5.197206926602215e-4 5.328018727403992e-4 5.462103350196902e-4 5.599541668597775e-4
        5.740416502559884e-4 5.884812662501012e-4 6.032816994287536e-4 6.184518425083036e-4
        6.340008010069521e-4 6.499378980048716e-4 6.662726789930594e-4 6.830149168115383e-4
        7.001746166775067e-4 7.177620213039352e-4 7.357876161090465e-4 7.542621345170435e-4
        7.731965633503295e-4 7.926021483134226e-4 8.124903995686104e-4 8.328730974033062e-4
        8.537622979889703e-4 8.751703392312693e-4 8.971098467110929e-4 9.195937397158371e-4
        9.426352373602329e-4 9.662478647958325e-4 9.904454595080782e-4 1.015242177699700e-3
        1.040652500758979e-3 1.066691241811182e-3 1.093373552351293e-3 1.120714928955824e-3
        1.148731220071363e-3 1.177438632877105e-3 1.206853740218407e-3 1.236993487608062e-3
        1.267875200291638e-3 1.299516590372923e-3 1.331935763995096e-3 1.365151228572878e-3
        1.399181900070475e-3 1.434047110319705e-3 1.469766614372208e-3 1.506360597879166e-3
        1.543849684491408e-3 1.582254943272240e-3 1.621597896114726e-3 1.661900525154583e-3
        1.703185280169121e-3 1.745475085952026e-3 1.788793349653059e-3 1.833163968070895e-3
        1.878611334886638e-3 1.925160347824607e-3 1.972836415726095e-3 2.021665465520920e-3
        2.071673949080483e-3 2.122888849935119e-3 2.175337689837327e-3 2.229048535151351e-3
        2.284050003048376e-3 2.340371267485218e-3 2.398042064943233e-3 2.457092699902534e-3
        2.517554050025279e-3 2.579457571020145e-3 2.642835301158487e-3 2.707719865411007e-3
        2.774144479171847e-3 2.842142951535247e-3 2.911749688087873e-3 2.982999693177782e-3
        3.055928571618976e-3 3.130572529788051e-3 3.206968376067151e-3 3.285153520584980e-3
        3.365165974204849e-3 3.447044346706252e-3 3.530827844103410e-3 3.616556265041325e-3
        3.704269996206822e-3 3.794010006688636e-3 3.885817841217499e-3 3.979735612213349e-3
        4.075805990563282e-3 4.174072195049993e-3 4.274577980346349e-3 4.377367623487774e-3
        4.482485908729553e-3 4.589978110691840e-3 4.699889975690361e-3 4.812267701145912e-3
        4.927157912960823e-3 5.044607640745133e-3 5.164664290769880e-3 5.287375616519253e-3
        5.412789686707351e-3 5.540954850619528e-3 5.671919700631678e-3 5.805733031754593e-3
        5.942443798043733e-3 6.082101065707674e-3 6.224753962741754e-3 6.370451624905624e-3
        6.519243137856167e-3 6.671177475239363e-3 6.826303432536513e-3 6.984669556452422e-3
        7.146324069624268e-3 7.311314790421580e-3 7.479689047598887e-3 7.651493589553376e-3
        7.826774487931204e-3 8.005577035316257e-3 8.187945636726093e-3 8.373923694630001e-3
        8.563553487194314e-3 8.756876039450759e-3 8.953930987073143e-3 9.154756432438296e-3
        9.359388792637125e-3 9.567862639091512e-3 9.780210528423655e-3 9.996462824213992e-3
        1.021664750927492e-2 1.044078998805804e-2 1.066891287880346e-2 1.090103579503143e-2
        1.113717511596795e-2 1.137734374548842e-2 1.162155085915614e-2 1.186980163892593e-2
        1.212209699507758e-2 1.237843327493874e-2 1.263880195795306e-2 1.290318933664685e-2
        1.317157618304571e-2 1.344393740009308e-2 1.372024165762356e-2 1.400045101244788e-2
        1.428452051211128e-2 1.457239778189428e-2 1.486402259463562e-2 1.515932642296844e-2
        1.545823197357700e-2 1.576065270309938e-2 1.606649231532334e-2 1.637564423934922e-2
        1.668799108842171e-2 1.700340409916854e-2 1.732174255102205e-2 1.764285316564343e-2
        1.796656948622093e-2 1.829271123656719e-2 1.862108366000476e-2 1.895147683809825e-2
        1.928366498936726e-2 1.961740574820176e-2 1.995243942429282e-2 2.028848824299644e-2
        2.062525556716120e-2 2.096242510107240e-2 2.129966007730260e-2 2.163660242740301e-2
        2.197287193753078e-2 2.230806539028046e-2 2.264175569417314e-2 2.297349100246152e-2
        2.330279382312408e-2 2.362916012215817e-2 2.395205842253303e-2 2.427092890143271e-2
        2.458518248871034e-2 2.489419996978189e-2 2.519733109651863e-2 2.549389371004895e-2
        2.578317287975195e-2 2.606442006312354e-2 2.633685229161361e-2 2.659965138797759e-2
        2.685196322115413e-2 2.709289700517244e-2 2.732152464911285e-2 2.753688016568550e-2
        2.773795914656201e-2 2.792371831318753e-2 2.809307515241764e-2 2.824490764696640e-2
        2.837805411131444e-2 2.849131314441065e-2 2.858344371120535e-2 2.865316536577241e-2
        2.869915862951460e-2 2.872006553869183e-2 2.871449037626783e-2 2.868100060382680e-2
        2.861812801006975e-2 2.852437009314721e-2 2.839819169482134e-2 2.823802690516359e-2
        2.804228125717757e-2 2.780933423138327e-2 2.753754209099224e-2 2.722524106883930e-2
        2.687075092769591e-2 2.647237891596094e-2 2.602842414099457e-2 2.553718238250452e-2
        2.499695136840246e-2 2.440603653539291e-2 2.376275729621959e-2 2.306545383495379e-2
        2.231249445092977e-2 2.150228347090223e-2 2.063326974767495e-2 1.970395576180593e-2
        1.871290734100351e-2 1.765876400943915e-2 1.654024997640404e-2 1.535618577046740e-2
        1.410550052152906e-2 1.278724488886228e-2 1.140060462835237e-2 9.944914786645009e-3
        8.419674503753329e-3 6.824562398813143e-3 5.159452506087731e-3 3.424430719945079e-3
        1.619811698368300e-3 -2.538438354545529e-4 -2.195711464779678e-3 -4.204685207245184e-3
        -6.279359494783105e-3 -8.418011114684216e-3 -1.061858123537930e-2 -1.287865765572705e-2
        -1.519545743261671e-2 -1.756581005848860e-2 -1.998614137780584e-2 -2.245245844953589e-2
        -2.496033558115669e-2 -2.750490177842941e-2 -3.008082987403448e-2 -3.268232761685714e-2
        -3.530313102203884e-2 -3.793650029953779e-2 -4.057521869551141e-2 -4.321159459599603e-2
        -4.583746725559546e-2 -4.844421652476534e-2 -5.102277695719541e-2 -5.356365668313179e-2
        -5.605696143461101e-2 -5.849242410370613e-2 -6.085944020428316e-2 -6.314710959055978e-2
        -6.534428476105334e-2 -6.743962604341514e-2 -6.942166391314447e-2 -7.127886864634002e-2
        -7.299972744244741e-2 -7.457282907642909e-2 -7.598695605000804e-2 -7.723118410768381e-2
        -7.829498886436634e-2 -7.916835915701337e-2 -7.984191658213069e-2 -8.030704051413812e-2
        -8.055599771640420e-2 -8.058207545756716e-2 -8.037971683130523e-2 -7.994465674919837e-2
        -7.927405683547374e-2 -7.836663720160317e-2 -7.722280282097696e-2 -7.584476196306862e-2
        -7.423663388732305e-2 -7.240454274511443e-2 -7.035669440021858e-2 -6.810343266205548e-2
        -6.565727124043473e-2 -6.303289758568670e-2 -6.024714468515151e-2 -5.731892685840037e-2
        -5.426913564268477e-2 -5.112049200141461e-2 -4.789735133707489e-2 -4.462545816166975e-2
        -4.133164778849796e-2 -3.804349307452144e-2 -3.478889507799214e-2 -3.159561751505379e-2
        -2.849076611361742e-2 -2.550021538187669e-2 -2.264798693749412e-2 -1.995558538213027e-2
        -1.744129974871451e-2 -1.511948078257980e-2 -1.299980672037007e-2 -1.108655277036357e-2
        -9.377882130876586e-3 -7.865179052925373e-3 -6.532447088286486e-3 -5.359603300824300e-3
        -4.336000860081541e-3 -3.453243863815902e-3 -2.702057149910120e-3 -2.072377281280013e-3
        -1.553474895952395e-3 -1.134110766038782e-3 -8.027236655204772e-4 -5.476444217251409e-4
        -3.573277487627369e-4 -2.205917468290075e-4 -1.268541814422458e-4 -6.635460105255953e-5
        -3.035176863527833e-5 -1.128658433158236e-5 -2.901548296019296e-6 -3.088119268426781e-7
        0.000000000000000e0 0.000000000000000e0 0.000000000000000e0 0.000000000000000e0
        0.000000000000000e0 0.000000000000000e0 0.000000000000000e0 0.000000000000000e0
        0.000000000000000e0 0.000000000000000e0 0.000000000000000e0 0.000000000000000e0
        0.000000000000000e0 0.000000000000000e0 0.000000000000000e0 0.000000000000000e0
        0.000000000000000e0 0.000000000000000e0 0.000000000000000e0 0.000000000000000e0
        0.000000000000000e0 0.000000000000000e0 0.000000000000000e0 0.000000000000000e0
        0.000000000000000e0 0.000000000000000e0 0.000000000000000e0 0.000000000000000e0
        0.000000000000000e0 0.000000000000000e0 0.000000000000000e0 0.000000000000000e0
        0.000000000000000e0 0.000000000000000e0 0.000000000000000e0 0.000000000000000e0
        0.000000000000000e0 0.000000000000000e0 0.000000000000000e0 0.000000000000000e0
        0.000000000000000e0 0.000000000000000e0 0.000000000000000e0 0.000000000000000e0
        0.000000000000000e0 0.000000000000000e0 0.000000000000000e0 0.000000000000000e0
        0.000000000000000e0 0.000000000000000e0 0.000000000000000e0 0.000000000000000e0
        0.000000000000000e0 0.000000000000000e0 0.000000000000000e0 0.000000000000000e0
        0.000000000000000e0 0.000000000000000e0 0.000000000000000e0 0.000000000000000e0
        0.000000000000000e0 0.000000000000000e0 0.000000000000000e0 0.000000000000000e0
        0.000000000000000e0 0.000000000000000e0 0.000000000000000e0 0.000000000000000e0
        0.000000000000000e0 0.000000000000000e0 0.000000000000000e0 0.000000000000000e0
        0.000000000000000e0 0.000000000000000e0 0.000000000000000e0 0.000000000000000e0
        0.000000000000000e0 0.000000000000000e0 0.000000000000000e0 0.000000000000000e0
        0.000000000000000e0 0.000000000000000e0 0.000000000000000e0 0.000000000000000e0
        0.000000000000000e0 0.000000000000000e0 0.000000000000000e0 0.000000000000000e0
        0.000000000000000e0 0.000000000000000e0 0.000000000000000e0 0.000000000000000e0
        0.000000000000000e0 0.000000000000000e0 0.000000000000000e0 0.000000000000000e0
        0.000000000000000e0 0.000000000000000e0 0.000000000000000e0 0.000000000000000e0
        0.000000000000000e0 0.000000000000000e0 0.000000000000000e0 0.000000000000000e0
        0.000000000000000e0 0.000000000000000e0 0.000000000000000e0 0.000000000000000e0
        0.000000000000000e0 0.000000000000000e0 0.000000000000000e0 0.000000000000000e0
        0.000000000000000e0 0.000000000000000e0 0.000000000000000e0 0.000000000000000e0
        0.000000000000000e0 0.000000000000000e0 0.000000000000000e0 0.000000000000000e0
        0.000000000000000e0 0.000000000000000e0 0.000000000000000e0 0.000000000000000e0
        0.000000000000000e0 0.000000000000000e0 0.000000000000000e0 0.000000000000000e0
        0.000000000000000e0 0.000000000000000e0 0.000000000000000e0 0.000000000000000e0
        0.000000000000000e0 0.000000000000000e0 0.000000000000000e0 0.000000000000000e0
        0.000000000000000e0 0.000000000000000e0 0.000000000000000e0 0.000000000000000e0
        0.000000000000000e0 0.000000000000000e0 0.000000000000000e0 0.000000000000000e0
        0.000000000000000e0 0.000000000000000e0 0.000000000000000e0 0.000000000000000e0
        0.000000000000000e0 0.000000000000000e0 0.000000000000000e0 0.000000000000000e0
        0.000000000000000e0 0.000000000000000e0 0.000000000000000e0 0.000000000000000e0
        0.000000000000000e0 0.000000000000000e0 0.000000000000000e0 0.000000000000000e0
        0.000000000000000e0 0.000000000000000e0 0.000000000000000e0 0.000000000000000e0
        0.000000000000000e0 0.000000000000000e0 0.000000000000000e0 0.000000000000000e0
        0.000000000000000e0 0.000000000000000e0 0.000000000000000e0 0.000000000000000e0
        0.000000000000000e0 0.000000000000000e0 0.000000000000000e0 0.000000000000000e0
        0.000000000000000e0 0.000000000000000e0 0.000000000000000e0 0.000000000000000e0
        0.000000000000000e0 0.000000000000000e0 0.000000000000000e0 0.000000000000000e0
        0.000000000000000e0 0.000000000000000e0 0.000000000000000e0 0.000000000000000e0
        0.000000000000000e0 0.000000000000000e0 0.000000000000000e0 0.000000000000000e0
        0.000000000000000e0 0.000000000000000e0 0.000000000000000e0 0.000000000000000e0
        0.000000000000000e0 0.000000000000000e0 0.000000000000000e0 0.000000000000000e0
        0.000000000000000e0 0.000000000000000e0 0.000000000000000e0 0.000000000000000e0
        0.000000000000000e0 0.000000000000000e0 0.000000000000000e0 0.000000000000000e0
        0.000000000000000e0 0.000000000000000e0 0.000000000000000e0 0.000000000000000e0
        0.000000000000000e0 0.000000000000000e0 0.000000000000000e0 0.000000000000000e0
        0.000000000000000e0 0.000000000000000e0 0.000000000000000e0 0.000000000000000e0
        0.000000000000000e0 0.000000000000000e0 0.000000000000000e0 0.000000000000000e0
        0.000000000000000e0 0.000000000000000e0 0.000000000000000e0 0.000000000000000e0
        0.000000000000000e0 0.000000000000000e0 0.000000000000000e0 0.000000000000000e0
        0.000000000000000e0 0.000000000000000e0 0.000000000000000e0 0.000000000000000e0
        0.000000000000000e0 0.000000000000000e0 0.000000000000000e0 0.000000000000000e0
        0.000000000000000e0 0.000000000000000e0 0.000000000000000e0 0.000000000000000e0
        0.000000000000000e0 0.000000000000000e0 0.000000000000000e0 0.000000000000000e0
        0.000000000000000e0 0.000000000000000e0 0.000000000000000e0 0.000000000000000e0
        0.000000000000000e0 0.000000000000000e0 0.000000000000000e0 0.000000000000000e0
        0.000000000000000e0 0.000000000000000e0 0.000000000000000e0 0.000000000000000e0
        0.000000000000000e0 0.000000000000000e0 0.000000000000000e0 0.000000000000000e0
        0.000000000000000e0 0.000000000000000e0 0.000000000000000e0 0.000000000000000e0
        0.000000000000000e0 0.000000000000000e0 0.000000000000000e0 0.000000000000000e0
        0.000000000000000e0 0.000000000000000e0 0.000000000000000e0 0.000000000000000e0
        0.000000000000000e0 0.000000000000000e0 0.000000000000000e0 0.000000000000000e0
        0.000000000000000e0 0.000000000000000e0 0.000000000000000e0 0.000000000000000e0
        0.000000000000000e0 0.000000000000000e0 0.000000000000000e0 0.000000000000000e0
        0.000000000000000e0 0.000000000000000e0 0.000000000000000e0 0.000000000000000e0
        0.000000000000000e0 0.000000000000000e0 0.000000000000000e0 0.000000000000000e0
        0.000000000000000e0 0.000000000000000e0 0.000000000000000e0 0.000000000000000e0
        0.000000000000000e0 0.000000000000000e0 0.000000000000000e0 0.000000000000000e0
        0.000000000000000e0 0.000000000000000e0 0.000000000000000e0 0.000000000000000e0
        0.000000000000000e0 0.000000000000000e0 0.000000000000000e0 0.000000000000000e0
        0.000000000000000e0 0.000000000000000e0 0.000000000000000e0 0.000000000000000e0
        0.000000000000000e0 0.000000000000000e0 0.000000000000000e0
        </PP_QIJL.4.4.0>
      <PP_QIJL.4.4.2 first_index="4" second_index="4" composite_index="10" angular_momentum="2">
        -2.364088577289847e-17 -2.485297989952265e-17 -2.612721942044283e-17 -2.746679059812123e-17
        -2.887504305818720e-17 -3.035549816524515e-17 -3.191185782812005e-17 -3.354801375655746e-17
        -3.526805719252408e-17 -3.707628914044400e-17 -3.897723112194860e-17 -4.097563648203570e-17
        -4.307650227490724e-17 -4.528508175920676e-17 -4.760689753390229e-17 -5.004775534765854e-17
        -5.261375861623240e-17 -5.531132368419055e-17 -5.814719586911149e-17 -6.112846632839304e-17
        -6.426258979083688e-17 -6.755740319735325e-17 -7.102114529739358e-17 -7.466247725011406e-17
        -7.849050428178417e-17 -8.251479845359166e-17 -8.674542259678141e-17 -9.119295547497192e-17
        -9.586851823657238e-17 -1.007838022234459e-16 -1.059510982053491e-16 -1.113833271132574e-16
        -1.170940723484193e-16 -1.230976137479314e-16 -1.294089632917677e-16 -1.360439026405427e-16
        -1.430190225978809e-16 -1.503517645960634e-16 -1.580604643086885e-16 -1.661643974994035e-16
        -1.746838282213456e-16 -1.836400594878267e-16 -1.930554865409560e-16 -2.029536528514039e-16
        -2.133593089893372e-16 -2.242984745137250e-16 -2.357985030347833e-16 -2.478881506122399e-16
        -2.605976476604515e-16 -2.739587745401787e-16 -2.880049410260259e-16 -3.027712698482719e-16
        -3.182946845179760e-16 -3.346140016549746e-16 -3.517700280496378e-16 -3.698056627010794e-16
        -3.887660040869863e-16 -4.086984629332838e-16 -4.296528807656241e-16 -4.516816545391467e-16
        -4.748398676581266e-16 -4.991854277131566e-16 -5.247792112802594e-16 -5.516852161440050e-16
        -5.799707213252841e-16 -6.097064553138591e-16 -6.409667729264003e-16 -6.738298412322173e-16
        -7.083778350116011e-16 -7.446971422355436e-16 -7.828785800805989e-16 -8.230176220190859e-16
        -8.652146365524402e-16 -9.095751381846801e-16 -9.562100512635761e-16 -1.005235987349211e-15
        -1.056775536803544e-15 -1.110957575330100e-15 -1.167917586230255e-15 -1.227797999181973e-15
        -1.290748546388078e-15 -1.356926636984642e-15 -1.426497750645700e-15 -1.499635851368492e-15
        -1.576523822473949e-15 -1.657353923910073e-15 -1.742328273001815e-15 -1.831659349849477e-15
        -1.925570528639447e-15 -2.024296636195834e-15 -2.128084539169597e-15 -2.237193761333531e-15
        -2.351897132526630e-15 -2.472481470870511e-15 -2.599248299963847e-15 -2.732514602848050e-15
        -2.872613614629682e-15 -3.019895655741405e-15 -3.174729007925131e-15 -3.337500835127817e-15
        -3.508618151612471e-15 -3.688508839705348e-15 -3.877622719724097e-15 -4.076432674762246e-15
        -4.285435833142701e-15 -4.505154811496722e-15 -4.736139021577035e-15 -4.978966044072608e-15
        -5.234243072860362e-15 -5.502608433305259e-15 -5.784733178405160e-15 -6.081322766771827e-15
        -6.393118826643773e-15 -6.720901010341882e-15 -7.065488943805089e-15 -7.427744276080583e-15
        -7.808572833893765e-15 -8.208926886685241e-15 -8.629807527778556e-15 -9.072267177633192e-15
        -9.537412215441600e-15 -1.002640574565138e-14 -1.054047050632969e-14 -1.108089192664283e-14
        -1.164902134109584e-14 -1.224627936856958e-14 -1.287415946460463e-14 -1.353423165581456e-14
        -1.422814646576641e-14 -1.495763904214543e-14 -1.572453349552333e-14 -1.653074746058041e-14
        -1.737829689118576e-14 -1.826930110132658e-14 -1.920598806449123e-14 -2.019069998475679e-14
        -2.122589915351234e-14 -2.231417410646279e-14 -2.345824609630805e-14 -2.466097589728402e-14
        -2.592537095857842e-14 -2.725459292451060e-14 -2.865196554027811e-14 -3.012098296303929e-14
        -3.166531849911385e-14 -3.328883378914798e-14 -3.499558846421296e-14 -3.678985029698183e-14
        -3.867610587336650e-14 -4.065907181130202e-14 -4.274370655472745e-14 -4.493522277225777e-14
        -4.723910039154733e-14 -4.966110030193861e-14 -5.220727875966017e-14 -5.488400253159195e-14
        -5.769796481546862e-14 -6.065620197632652e-14 -6.376611114104509e-14 -6.703546869497925e-14
        -7.047244972692981e-14 -7.408564847108000e-14 -7.788409979700828e-14 -8.187730180151537e-14
        -8.607523955875912e-14 -9.048841008807653e-14 -9.512784860193824e-14 -1.000051560996534e-13
        -1.051325283758362e-13 -1.105227865161634e-13 -1.161894089566746e-13 -1.221465651867929e-13
        -1.284091511803212e-13 -1.349928266430267e-13 -1.419140541699441e-13 -1.491901404103042e-13
        -1.568392793430401e-13 -1.648805977710547e-13 -1.733342031480326e-13 -1.822212338573749e-13
        -1.915639120689754e-13 -2.013855993060260e-13 -2.117108548607680e-13 -2.225654972052836e-13
        -2.339766685508737e-13 -2.459729027174419e-13 -2.585841964826252e-13 -2.718420845890356e-13
        -2.857797185972042e-13 -3.004319497813869e-13 -3.158354162754919e-13 -3.320286346870902e-13
        -3.490520964085184e-13 -3.669483688659620e-13 -3.857622019596586e-13 -4.055406399613697e-13
        -4.263331391489570e-13 -4.481916914721524e-13 -4.711709545587960e-13 -4.953283883866035e-13
        -5.207243989621775e-13 -5.474224893666103e-13 -5.754894185452651e-13 -6.049953682388677e-13
        -6.360141184732884e-13 -6.686232320467916e-13 -7.029042484761399e-13 -7.389428878864191e-13
        -7.768292653544718e-13 -8.166581162418925e-13 -8.585290330809649e-13 -9.025467146059889e-13
        -9.488212275525548e-13 -9.974682818794953e-13 -1.048609520101663e-12 -1.102372821456954e-12
        -1.158892621668267e-12 -1.218310249099792e-12 -1.280774278148304e-12 -1.346440900753062e-12
        -1.415474316953209e-12 -1.488047145469391e-12 -1.564340855336049e-12 -1.644546219663822e-12
        -1.728863792666643e-12 -1.817504411146177e-12 -1.910689721687834e-12 -2.008652734886238e-12
        -2.111638407986250e-12 -2.219904257396297e-12 -2.333721002605475e-12 -2.453373243114791e-12
        -2.579160170074810e-12 -2.711396314409402e-12 -2.850412333296179e-12 -2.996555836969936e-12
        -3.150192257916951e-12 -3.311705764632943e-12 -3.481500222229922e-12 -3.660000202293723e-12
        -3.847652044517099e-12 -4.044924972763417e-12 -4.252312268350974e-12 -4.470332503492137e-12
        -4.699530837971206e-12 -4.940480382303241e-12 -5.193783630782425e-12 -5.460073968003051e-12
        -5.740017252620159e-12 -6.034313482309890e-12 -6.343698544092473e-12 -6.668946054394636e-12
        -7.010869293452036e-12 -7.370323238888725e-12 -7.748206703558330e-12 -8.145464582992311e-12
        -8.563090218074956e-12 -9.002127878852500e-12 -9.463675375687114e-12 -9.948886804284463e-12
        -1.045897543145831e-11 -1.099521672884815e-11 -1.155895156217455e-11 -1.215158954400723e-11
        -1.277461255842864e-11 -1.342957846640578e-11 -1.411812500113558e-11 -1.484197386310291e-11
        -1.560293502509072e-11 -1.640291125790628e-11 -1.724390288813892e-11 -1.812801279984603e-11
        -1.905745169267212e-11 -2.003454360954902e-11 -2.106173174779759e-11 -2.214158456816032e-11
        -2.327680221704006e-11 -2.447022327800151e-11 -2.572483186941677e-11 -2.704376510600133e-11
        -2.843032094289532e-11 -2.988796642190412e-11 -3.142034634051448e-11 -3.303129236536206e-11
        -3.472483261293635e-11 -3.650520172147625e-11 -3.837685143924001e-11 -4.034446175562093e-11
        -4.241295260294091e-11 -4.458749615817817e-11 -4.687352977538513e-11 -4.927676958113278e-11
        -5.180322476696978e-11 -5.445921261463235e-11 -5.725137429157090e-11 -6.018669145628202e-11
        -6.327250371496667e-11 -6.651652697315437e-11 -6.992687272817800e-11 -7.351206835073296e-11
        -7.728107840622471e-11 -8.124332706921484e-11 -8.540872168699931e-11 -8.978767755123469e-11
        -9.439114393954121e-11 -9.923063149218752e-11 -1.043182409923053e-10 -1.096666936215790e-10
        -1.152893627670586e-10 -1.212003074586078e-10 -1.274143075205836e-10 -1.339469005256292e-10
        -1.408144206429593e-10 -1.480340394782629e-10 -1.556238090073190e-10 -1.636027067106567e-10
        -1.719906830220977e-10 -1.808087112097914e-10 -1.900788398144487e-10 -1.998242477758605e-10
        -2.100693023855070e-10 -2.208396202101404e-10 -2.321621311386286e-10 -2.440651457121769e-10
        -2.565784259062316e-10 -2.697332595410162e-10 -2.835625385066900e-10 -2.981008409986976e-10
        -3.133845179688558e-10 -3.294517840082927e-10 -3.463428128894119e-10 -3.640998380057048e-10
        -3.827672579604839e-10 -4.023917475684588e-10 -4.230223745476208e-10 -4.447107221931247e-10
        -4.675110183397718e-10 -4.914802709354764e-10 -5.166784105645550e-10 -5.431684402770868e-10
        -5.710165930988370e-10 -6.002924976154079e-10 -6.310693520445193e-10 -6.634241072314497e-10
        -6.974376590250275e-10 -7.331950505149926e-10 -7.707856846361296e-10 -8.103035476705866e-10
        -8.518474442069184e-10 -8.955212441430723e-10 -9.414341423506311e-10 -9.897009316492055e-10
        -1.040442289773213e-9 -1.093785081048153e-9 -1.149862673530275e-9 -1.208815272402189e-9
        -1.270790270457492e-9 -1.335942616550319e-9 -1.404435202930443e-9 -1.476439272431843e-9
        -1.552134846532218e-9 -1.631711175352983e-9 -1.715367210677876e-9 -1.803312103481880e-9
        -1.895765726363197e-9 -1.992959223197787e-9 -2.095135587737917e-9 -2.202550269626452e-9
        -2.315471813498105e-9 -2.434182530870996e-9 -2.558979204782508e-9 -2.690173832045218e-9
        -2.828094403590526e-9 -2.973085722593266e-9 -3.125510268549725e-9 -3.285749101060716e-9
        -3.454202813857555e-9 -3.631292535371689e-9 -3.817460980821222e-9 -4.013173559613152e-9
        -4.218919537493894e-9 -4.435213260188996e-9 -4.662595438068270e-9 -4.901634498089905e-9
        -5.152928004074965e-9 -5.417104149553422e-9 -5.694823328459994e-9 -5.986779785228701e-9
        -6.293703349074385e-9 -6.616361255953253e-9 -6.955560071827181e-9 -7.312147704209644e-9
        -7.687015519909870e-9 -8.081100573748285e-9 -8.495387935931348e-9 -8.930913189846500e-9
        -9.388764983000016e-9 -9.870087768840776e-9 -1.037608464154726e-8 -1.090802037333325e-8
        -1.146722456688231e-8 -1.205509493467701e-8 -1.267310086022007e-8 -1.332278701927767e-8
        -1.400577724962011e-8 -1.472377863874368e-8 -1.547858570575953e-8 -1.627208499310726e-8
        -1.710625970737147e-8 -1.798319466852575e-8 -1.890508157937295e-8 -1.987422441937113e-8
        -2.089304526136063e-8 -2.196409029401770e-8 -2.309003617932438e-8 -2.427369676312885e-8
        -2.551803005096018e-8 -2.682614564572292e-8 -2.820131250010354e-8 -2.964696704074493e-8
        -3.116672180889464e-8 -3.276437444017455e-8 -3.444391716514962e-8 -3.620954675580928e-8
        -3.806567502104368e-8 -4.001693983455013e-8 -4.206821666284066e-8 -4.422463077594667e-8
        -4.649157005699394e-8 -4.887469838343636e-8 -5.137996984869250e-8 -5.401364353339996e-8
        -5.678229922861238e-8 -5.969285373377998e-8 -6.275257822241659e-8 -6.596911635418743e-8
        -6.935050330881774e-8 -7.290518589080872e-8 -7.664204354483272e-8 -8.057041059124339e-8
        -8.470009940907758e-8 -8.904142501155491e-8 -9.360523066678809e-8 -9.840291505204657e-8
        -1.034464606541579e-7 -1.087484635480919e-7 -1.143221649884278e-7 -1.201814842269101e-7
        -1.263410533885820e-7 -1.328162538839411e-7 -1.396232546886004e-7 -1.467790528158190e-7
        -1.543015154576140e-7 -1.622094247238841e-7 -1.705225243239265e-7 -1.792615688186044e-7
        -1.884483753057457e-7 -1.981058778100543e-7 -2.082581843994294e-7 -2.189306372071684e-7
        -2.301498756324063e-7 -2.419439026201355e-7 -2.543421543987762e-7 -2.673755738205961e-7
        -2.810766873722553e-7 -2.954796861318845e-7 -3.106205109079010e-7 -3.265369416976363e-7
        -3.432686916846520e-7 -3.608575060621495e-7 -3.793472658967633e-7 -3.987840973288248e-7
        -4.192164862196998e-7 -4.406953988073844e-7 -4.632744084355844e-7 -4.870098287944730e-7
        -5.119608537386563e-7 -5.381897046567309e-7 -5.657617849809389e-7 -5.947458427257448e-7
        -6.252141412610066e-7 -6.572426388551584e-7 -6.909111773150678e-7 -7.263036802630124e-7
        -7.635083614847417e-7 -8.026179439050971e-7 -8.437298897020877e-7 -8.869466422200647e-7
        -9.323758799236332e-7 -9.801307837937836e-7 -1.030330317730141e-6 -1.083099523606756e-6
        -1.138569831273242e-6 -1.196879384197887e-6 -1.258173381788304e-6 -1.322604439072815e-6
        -1.390332964651812e-6 -1.461527557847765e-6 -1.536365426024771e-6 -1.615032823185054e-6
        -1.697725510721097e-6 -1.784649241586178e-6 -1.876020269042659e-6 -1.972065881313572e-6
        -2.073024963136067e-6 -2.179148586058449e-6 -2.290700628379941e-6 -2.407958426743596e-6
        -2.531213460617241e-6 -2.660772071445186e-6 -2.796956218272441e-6 -2.940104271476609e-6
        -3.090571846899873e-6 -3.248732681843322e-6 -3.414979555728101e-6 -3.589725256930679e-6
        -3.773403598700351e-6 -3.966470486303852e-6 -4.169405038045354e-6 -4.382710762915726e-6
        -4.606916797469413e-6 -4.842579205400165e-6 -5.090282342186567e-6 -5.350640288889535e-6
        -5.624298357858388e-6 -5.911934674453997e-6 -6.214261838051791e-6 -6.532028666885680e-6
        -6.866022030492804e-6 -7.217068773884845e-6 -7.586037738845320e-6 -7.973841886261686e-6
        -8.381440525058681e-6 -8.809841652776027e-6 -9.260104413419791e-6 -9.733341678345775e-6
        -1.023072275627037e-5 -1.075347623868884e-5 -1.130289298758690e-5 -1.188032927225835e-5
        -1.248721006256697e-5 -1.312503248655159e-5 -1.379536946010831e-5 -1.449987349757996e-5
        -1.524028071164830e-5 -1.601841501235790e-5 -1.683619251427398e-5 -1.769562616283144e-5
        -1.859883058949416e-5 -1.954802720792039e-5 -2.054554956196183e-5 -2.159384893833764e-5
        -2.269550025635824e-5 -2.385320824834711e-5 -2.506981394480947e-5 -2.634830147876691e-5
        -2.769180522493413e-5 -2.910361728969327e-5 -3.058719536848422e-5 -3.214617098858508e-5
        -3.378435815527708e-5 -3.550576242092991e-5 -3.731459039701135e-5 -3.921525972980736e-5
        -4.121240956228037e-5 -4.331091150465014e-5 -4.551588113770044e-5 -4.783269007411814e-5
        -5.026697860373561e-5 -5.282466895015647e-5 -5.551197916720207e-5 -5.833543770500383e-5
        -6.130189867677650e-5 -6.441855785864953e-5 -6.769296945639108e-5 -7.113306367422032e-5
        -7.474716512256158e-5 -7.854401210293384e-5 -8.253277680989532e-5 -8.672308649152210e-5
        -9.112504561214251e-5 -9.574925906162257e-5 -1.006068564589544e-4 -1.057095175982608e-4
        -1.110694990883924e-4 -1.166996622387076e-4 -1.226135022459267e-4 -1.288251787389885e-4
        -1.353495477412606e-4 -1.422021951111149e-4 -1.493994715251695e-4 -1.569585290699037e-4
        -1.648973595100751e-4 -1.732348343055506e-4 -1.819907464492832e-4 -1.911858542031689e-4
        -2.008419268101653e-4 -2.109817922642832e-4 -2.216293872223525e-4 -2.328098091445336e-4
        -2.445493707531082e-4 -2.568756569019342e-4 -2.698175839517258e-4 -2.834054617490093e-4
        -2.976710583097718e-4 -3.126476673110441e-4 -3.283701784966552e-4 -3.448751511066115e-4
        -3.622008904410084e-4 -3.803875276732312e-4 -3.994771030289082e-4 -4.195136524497648e-4
        -4.405432978635364e-4 -4.626143411837566e-4 -4.857773621641793e-4 -5.100853202356105e-4
        -5.355936604530358e-4 -5.623604236832922e-4 -5.904463611637608e-4 -6.199150535632119e-4
        -6.508330346764136e-4 -6.832699198836040e-4 -7.172985395050540e-4 -7.529950771801724e-4
        -7.904392133981081e-4 -8.297142743048578e-4 -8.709073859080716e-4 -9.141096337972757e-4
        -9.594162284918173e-4 -1.006926676523267e-3 -1.056744957351846e-3 -1.108979706208726e-3
        -1.163744402946029e-3 -1.221157566966661e-3 -1.281342958292969e-3 -1.344429784820136e-3
        -1.410552915784196e-3 -1.479853101457806e-3 -1.552477199066660e-3 -1.628578404898738e-3
        -1.708316492553825e-3 -1.791858057254765e-3 -1.879376766112370e-3 -1.971053614204035e-3
        -2.067077186290240e-3 -2.167643923955304e-3 -2.272958397915560e-3 -2.383233585192598e-3
        -2.498691150798868e-3 -2.619561733528205e-3 -2.746085235384445e-3 -2.878511114117795e-3
        -3.017098678268188e-3 -3.162117384040755e-3 -3.313847133256828e-3 -3.472578571537796e-3
        -3.638613385784473e-3 -3.812264599914514e-3 -3.993856867713259e-3 -4.183726761536378e-3
        -4.382223055481033e-3 -4.589707001509576e-3 -4.806552596869237e-3 -5.033146841002583e-3
        -5.269889979983928e-3 -5.517195736348298e-3 -5.775491522001772e-3 -6.045218631711505e-3
        -6.326832414475741e-3 -6.620802419862335e-3 -6.927612516183355e-3 -7.247760977141042e-3
        -7.581760533334970e-3 -7.930138384766839e-3 -8.293436170210601e-3 -8.672209889039246e-3
        -9.067029770810995e-3 -9.478480087616250e-3 -9.907158903880575e-3 -1.035367775799656e-2
        -1.081866126983225e-2 -1.130274666782788e-2 -1.180658322904901e-2 -1.233083162522001e-2
        -1.287616316740776e-2 -1.344325894167461e-2 -1.403280882766835e-2 -1.464551039176468e-2
        -1.528206764603909e-2 -1.594318966400616e-2 -1.662958904374669e-2 -1.734198020873787e-2
        -1.808107753641682e-2 -1.884759330425658e-2 -1.964223544290496e-2 -2.046570508575579e-2
        -2.131869390418278e-2 -2.220188121757827e-2 -2.311593086731990e-2 -2.406148784383108e-2
        -2.503917465603218e-2 -2.604958743269964e-2 -2.709329174556851e-2 -2.817081814445921e-2
        -2.928265739526953e-2 -3.042925541238713e-2 -3.161100787794722e-2 -3.282825454139635e-2
        -3.408127319406553e-2 -3.537027331488902e-2 -3.669538938507932e-2 -3.805667387148443e-2
        -3.945408988052670e-2 -4.088750348710020e-2 -4.235667574556463e-2 -4.386125439307996e-2
        -4.540076525897274e-2 -4.697460339763132e-2 -4.858202396663851e-2 -5.022213287644445e-2
        -5.189387724291612e-2 -5.359603567956496e-2 -5.532720847215897e-2 -5.708580768481083e-2
        -5.887004725345831e-2 -6.067793312996460e-2 -6.250725354783297e-2 -6.435556948873838e-2
        -6.622020543774719e-2 -6.809824052414433e-2 -6.998650015423374e-2 -7.188154825224613e-2
        -7.377968023551715e-2 -7.567691686035380e-2 -7.756899908534947e-2 -7.945138410928477e-2
        -8.131924275101616e-2 -8.316745834876221e-2 -8.499062736582287e-2 -8.678306189877578e-2
        -8.853879429242689e-2 -9.025158407299074e-2 -9.191492741687092e-2 -9.352206937675662e-2
        -9.506601908917050e-2 -9.653956818781058e-2 -9.793531264460562e-2 -9.924567825496078e-2
        -1.004629499747890e-1 -1.015793053041141e-1 -1.025868518948456e-1 -1.034776695382345e-1
        -1.042438566600144e-1 -1.048775814177909e-1 -1.053711374553161e-1 -1.057170043213622e-1
        -1.059079125064724e-1 -1.059369129884256e-1 -1.057974511063862e-1 -1.054834445040066e-1
        -1.049893647929303e-1 -1.043103224899796e-1 -1.034421546737244e-1 -1.023815146891745e-1
        -1.011259631032523e-1 -9.967405897892876e-2 -9.802545039311999e-2 -9.618096297362221e-2
        -9.414268507475109e-2 -9.191404805162518e-2 -8.949989993116388e-2 -8.690657061638273e-2
        -8.414192660236239e-2 -8.121541303083319e-2 -7.813808076971224e-2 -7.492259607871996e-2
        -7.158323031773810e-2 -6.813582707668571e-2 -6.459774406101695e-2 -6.098776706275166e-2
        -5.732599339110209e-2 -5.363368223790711e-2 -4.993306962028742e-2 -4.624714578590345e-2
        -4.259939329500011e-2 -3.901348441832310e-2 -3.551293702149501e-2 -3.212072875469855e-2
        -2.885887014140389e-2 -2.574793807041615e-2 -2.280657224943877e-2 -2.005093838184532e-2
        -1.749416318508215e-2 -1.514574787994989e-2 -1.301096844190029e-2 -1.109027271073149e-2
        -9.378686390354121e-3 -7.865242015407615e-3 -6.532447088286483e-3 -5.359603300824300e-3
        -4.336000860081541e-3 -3.453243863815902e-3 -2.702057149910120e-3 -2.072377281280013e-3
        -1.553474895952395e-3 -1.134110766038782e-3 -8.027236655204772e-4 -5.476444217251409e-4
        -3.573277487627369e-4 -2.205917468290075e-4 -1.268541814422458e-4 -6.635460105255953e-5
        -3.035176863527833e-5 -1.128658433158236e-5 -2.901548296019296e-6 -3.088119268426781e-7
        0.000000000000000e0 0.000000000000000e0 0.000000000000000e0 0.000000000000000e0
        0.000000000000000e0 0.000000000000000e0 0.000000000000000e0 0.000000000000000e0
        0.000000000000000e0 0.000000000000000e0 0.000000000000000e0 0.000000000000000e0
        0.000000000000000e0 0.000000000000000e0 0.000000000000000e0 0.000000000000000e0
        0.000000000000000e0 0.000000000000000e0 0.000000000000000e0 0.000000000000000e0
        0.000000000000000e0 0.000000000000000e0 0.000000000000000e0 0.000000000000000e0
        0.000000000000000e0 0.000000000000000e0 0.000000000000000e0 0.000000000000000e0
        0.000000000000000e0 0.000000000000000e0 0.000000000000000e0 0.000000000000000e0
        0.000000000000000e0 0.000000000000000e0 0.000000000000000e0 0.000000000000000e0
        0.000000000000000e0 0.000000000000000e0 0.000000000000000e0 0.000000000000000e0
        0.000000000000000e0 0.000000000000000e0 0.000000000000000e0 0.000000000000000e0
        0.000000000000000e0 0.000000000000000e0 0.000000000000000e0 0.000000000000000e0
        0.000000000000000e0 0.000000000000000e0 0.000000000000000e0 0.000000000000000e0
        0.000000000000000e0 0.000000000000000e0 0.000000000000000e0 0.000000000000000e0
        0.000000000000000e0 0.000000000000000e0 0.000000000000000e0 0.000000000000000e0
        0.000000000000000e0 0.000000000000000e0 0.000000000000000e0 0.000000000000000e0
        0.000000000000000e0 0.000000000000000e0 0.000000000000000e0 0.000000000000000e0
        0.000000000000000e0 0.000000000000000e0 0.000000000000000e0 0.000000000000000e0
        0.000000000000000e0 0.000000000000000e0 0.000000000000000e0 0.000000000000000e0
        0.000000000000000e0 0.000000000000000e0 0.000000000000000e0 0.000000000000000e0
        0.000000000000000e0 0.000000000000000e0 0.000000000000000e0 0.000000000000000e0
        0.000000000000000e0 0.000000000000000e0 0.000000000000000e0 0.000000000000000e0
        0.000000000000000e0 0.000000000000000e0 0.000000000000000e0 0.000000000000000e0
        0.000000000000000e0 0.000000000000000e0 0.000000000000000e0 0.000000000000000e0
        0.000000000000000e0 0.000000000000000e0 0.000000000000000e0 0.000000000000000e0
        0.000000000000000e0 0.000000000000000e0 0.000000000000000e0 0.000000000000000e0
        0.000000000000000e0 0.000000000000000e0 0.000000000000000e0 0.000000000000000e0
        0.000000000000000e0 0.000000000000000e0 0.000000000000000e0 0.000000000000000e0
        0.000000000000000e0 0.000000000000000e0 0.000000000000000e0 0.000000000000000e0
        0.000000000000000e0 0.000000000000000e0 0.000000000000000e0 0.000000000000000e0
        0.000000000000000e0 0.000000000000000e0 0.000000000000000e0 0.000000000000000e0
        0.000000000000000e0 0.000000000000000e0 0.000000000000000e0 0.000000000000000e0
        0.000000000000000e0 0.000000000000000e0 0.000000000000000e0 0.000000000000000e0
        0.000000000000000e0 0.000000000000000e0 0.000000000000000e0 0.000000000000000e0
        0.000000000000000e0 0.000000000000000e0 0.000000000000000e0 0.000000000000000e0
        0.000000000000000e0 0.000000000000000e0 0.000000000000000e0 0.000000000000000e0
        0.000000000000000e0 0.000000000000000e0 0.000000000000000e0 0.000000000000000e0
        0.000000000000000e0 0.000000000000000e0 0.000000000000000e0 0.000000000000000e0
        0.000000000000000e0 0.000000000000000e0 0.000000000000000e0 0.000000000000000e0
        0.000000000000000e0 0.000000000000000e0 0.000000000000000e0 0.000000000000000e0
        0.000000000000000e0 0.000000000000000e0 0.000000000000000e0 0.000000000000000e0
        0.000000000000000e0 0.000000000000000e0 0.000000000000000e0 0.000000000000000e0
        0.000000000000000e0 0.000000000000000e0 0.000000000000000e0 0.000000000000000e0
        0.000000000000000e0 0.000000000000000e0 0.000000000000000e0 0.000000000000000e0
        0.000000000000000e0 0.000000000000000e0 0.000000000000000e0 0.000000000000000e0
        0.000000000000000e0 0.000000000000000e0 0.000000000000000e0 0.000000000000000e0
        0.000000000000000e0 0.000000000000000e0 0.000000000000000e0 0.000000000000000e0
        0.000000000000000e0 0.000000000000000e0 0.000000000000000e0 0.000000000000000e0
        0.000000000000000e0 0.000000000000000e0 0.000000000000000e0 0.000000000000000e0
        0.000000000000000e0 0.000000000000000e0 0.000000000000000e0 0.000000000000000e0
        0.000000000000000e0 0.000000000000000e0 0.000000000000000e0 0.000000000000000e0
        0.000000000000000e0 0.000000000000000e0 0.000000000000000e0 0.000000000000000e0
        0.000000000000000e0 0.000000000000000e0 0.000000000000000e0 0.000000000000000e0
        0.000000000000000e0 0.000000000000000e0 0.000000000000000e0 0.000000000000000e0
        0.000000000000000e0 0.000000000000000e0 0.000000000000000e0 0.000000000000000e0
        0.000000000000000e0 0.000000000000000e0 0.000000000000000e0 0.000000000000000e0
        0.000000000000000e0 0.000000000000000e0 0.000000000000000e0 0.000000000000000e0
        0.000000000000000e0 0.000000000000000e0 0.000000000000000e0 0.000000000000000e0
        0.000000000000000e0 0.000000000000000e0 0.000000000000000e0 0.000000000000000e0
        0.000000000000000e0 0.000000000000000e0 0.000000000000000e0 0.000000000000000e0
        0.000000000000000e0 0.000000000000000e0 0.000000000000000e0 0.000000000000000e0
        0.000000000000000e0 0.000000000000000e0 0.000000000000000e0 0.000000000000000e0
        0.000000000000000e0 0.000000000000000e0 0.000000000000000e0 0.000000000000000e0
        0.000000000000000e0 0.000000000000000e0 0.000000000000000e0 0.000000000000000e0
        0.000000000000000e0 0.000000000000000e0 0.000000000000000e0 0.000000000000000e0
        0.000000000000000e0 0.000000000000000e0 0.000000000000000e0 0.000000000000000e0
        0.000000000000000e0 0.000000000000000e0 0.000000000000000e0 0.000000000000000e0
        0.000000000000000e0 0.000000000000000e0 0.000000000000000e0 0.000000000000000e0
        0.000000000000000e0 0.000000000000000e0 0.000000000000000e0 0.000000000000000e0
        0.000000000000000e0 0.000000000000000e0 0.000000000000000e0 0.000000000000000e0
        0.000000000000000e0 0.000000000000000e0 0.000000000000000e0 0.000000000000000e0
        0.000000000000000e0 0.000000000000000e0 0.000000000000000e0 0.000000000000000e0
        0.000000000000000e0 0.000000000000000e0 0.000000000000000e0 0.000000000000000e0
        0.000000000000000e0 0.000000000000000e0 0.000000000000000e0 0.000000000000000e0
        0.000000000000000e0 0.000000000000000e0 0.000000000000000e0 0.000000000000000e0
        0.000000000000000e0 0.000000000000000e0 0.000000000000000e0 0.000000000000000e0
        0.000000000000000e0 0.000000000000000e0 0.000000000000000e0 0.000000000000000e0
        0.000000000000000e0 0.000000000000000e0 0.000000000000000e0 0.000000000000000e0
        0.000000000000000e0 0.000000000000000e0 0.000000000000000e0 0.000000000000000e0
        0.000000000000000e0 0.000000000000000e0 0.000000000000000e0
        </PP_QIJL.4.4.2>
    </PP_AUGMENTATION>
  </PP_NONLOCAL>
  <PP_PSWFC>
    <PP_CHI.1 index="1" label="3S" l="0" occupation="2.000000000000e0" n="1" pseudo_energy="-5.670344045147e-1" cutoff_radius="1.500000000000e0" ultrasoft_cutoff_radius="1.900000000000e0">
      2.008724167143958e-5 2.033990806840835e-5 2.059575261744631e-5 2.085481529478670e-5
      2.111713657950202e-5 2.138275745982881e-5 2.165171943957223e-5 2.192406454459112e-5
      2.219983532936460e-5 2.247907488364134e-5 2.276182683917238e-5 2.304813537652868e-5
      2.333804523200448e-5 2.363160170460737e-5 2.392885066313647e-5 2.422983855334937e-5
      2.453461240521945e-5 2.484321984028455e-5 2.515570907908764e-5 2.547212894871173e-5
      2.579252889040887e-5 2.611695896732571e-5 2.644546987232586e-5 2.677811293591073e-5
      2.711494013424014e-5 2.745600409725362e-5 2.780135811689394e-5 2.815105615543417e-5
      2.850515285390927e-5 2.886370354065411e-5 2.922676423994836e-5 2.959439168077058e-5
      2.996664330566218e-5 3.034357727970298e-5 3.072525249959967e-5 3.111172860288837e-5
      3.150306597725334e-5 3.189932576996254e-5 3.230056989742209e-5 3.270686105485090e-5
      3.311826272607682e-5 3.353483919345619e-5 3.395665554791804e-5 3.438377769913481e-5
      3.481627238582081e-5 3.525420718616026e-5 3.569765052836662e-5 3.614667170137452e-5
      3.660134086566647e-5 3.706172906423554e-5 3.752790823368588e-5 3.799995121547312e-5
      3.847793176728591e-5 3.896192457457076e-5 3.945200526220195e-5 3.994825040629779e-5
      4.045073754618608e-5 4.095954519651968e-5 4.147475285954463e-5 4.199644103752265e-5
      4.252469124530963e-5 4.305958602309262e-5 4.360120894928693e-5 4.414964465359542e-5
      4.470497883023217e-5 4.526729825131222e-5 4.583669078041013e-5 4.641324538628880e-5
      4.699705215680091e-5 4.758820231296561e-5 4.818678822322183e-5 4.879290341786115e-5
      4.940664260364210e-5 5.002810167858831e-5 5.065737774697298e-5 5.129456913449133e-5
      5.193977540362457e-5 5.259309736919652e-5 5.325463711412636e-5 5.392449800537933e-5
      5.460278471011786e-5 5.528960321205632e-5 5.598506082802119e-5 5.668926622471938e-5
      5.740232943571812e-5 5.812436187863753e-5 5.885547637256011e-5 5.959578715565906e-5
      6.034540990304816e-5 6.110446174485648e-5 6.187306128453015e-5 6.265132861736442e-5
      6.343938534926896e-5 6.423735461576902e-5 6.504536110124598e-5 6.586353105841915e-5
      6.669199232807346e-5 6.753087435903478e-5 6.838030822839664e-5 6.924042666200167e-5
      7.011136405517990e-5 7.099325649374876e-5 7.188624177527682e-5 7.279045943061489e-5
      7.370605074569855e-5 7.463315878362391e-5 7.557192840700193e-5 7.652250630059361e-5
      7.748504099423003e-5 7.845968288602045e-5 7.944658426585245e-5 8.044589933918765e-5
      8.145778425115697e-5 8.248239711095859e-5 8.351989801656329e-5 8.457044907972985e-5
      8.563421445133589e-5 8.671136034702666e-5 8.780205507318700e-5 8.890646905323997e-5
      9.002477485427542e-5 9.115714721401490e-5 9.230376306811422e-5 9.346480157781105e-5
      9.464044415791927e-5 9.583087450517503e-5 9.703627862694084e-5 9.825684487026940e-5
      9.949276395133367e-5 1.007442289852271e-4 1.020114355161381e-4 1.032945815479050e-4
      1.045938675749549e-4 1.059094966136309e-4 1.072416742339156e-4 1.085906085915508e-4
      1.099565104605635e-4 1.113395932661999e-4 1.127400731182741e-4 1.141581688449357e-4
      1.155941020268630e-4 1.170480970318859e-4 1.185203810500442e-4 1.200111841290870e-4
      1.215207392104187e-4 1.230492821654973e-4 1.245970518326901e-4 1.261642900545932e-4
      1.277512417158208e-4 1.293581547812696e-4 1.309852803348640e-4 1.326328726187896e-4
      1.343011890732198e-4 1.359904903765414e-4 1.377010404860884e-4 1.394331066793848e-4
      1.411869595959094e-4 1.429628732793840e-4 1.447611252205945e-4 1.465819964007506e-4
      1.484257713353896e-4 1.502927381188348e-4 1.521831884692109e-4 1.540974177740271e-4
      1.560357251363333e-4 1.579984134214557e-4 1.599857893043231e-4 1.619981633173850e-4
      1.640358498991349e-4 1.660991674432440e-4 1.681884383483107e-4 1.703039890682392e-4
      1.724461501632485e-4 1.746152563515262e-4 1.768116465615299e-4 1.790356639849457e-4
      1.812876561303172e-4 1.835679748773442e-4 1.858769765318665e-4 1.882150218815412e-4
      1.905824762522157e-4 1.929797095650157e-4 1.954070963941459e-4 1.978650160254220e-4
      2.003538525155362e-4 2.028739947520694e-4 2.054258365142589e-4 2.080097765345293e-4
      2.106262185607978e-4 2.132755714195647e-4 2.159582490797941e-4 2.186746707176032e-4
      2.214252607817602e-4 2.242104490600104e-4 2.270306707462342e-4 2.298863665084494e-4
      2.327779825576724e-4 2.357059707176420e-4 2.386707884954216e-4 2.416728991528919e-4
      2.447127717791370e-4 2.477908813637491e-4 2.509077088710487e-4 2.540637413152411e-4
      2.572594718365205e-4 2.604953997781263e-4 2.637720307643750e-4 2.670898767796684e-4
      2.704494562484982e-4 2.738512941164593e-4 2.772959219322757e-4 2.807838779308671e-4
      2.843157071174529e-4 2.878919613527189e-4 2.915131994390532e-4 2.951799872078671e-4
      2.988928976080177e-4 3.026525107953383e-4 3.064594142232978e-4 3.103142027348018e-4
      3.142174786551438e-4 3.181698518861337e-4 3.221719400014026e-4 3.262243683429111e-4
      3.303277701186724e-4 3.344827865017002e-4 3.386900667302079e-4 3.429502682090638e-4
      3.472640566125237e-4 3.516321059882594e-4 3.560550988626887e-4 3.605337263476395e-4
      3.650686882483503e-4 3.696606931728299e-4 3.743104586425975e-4 3.790187112048080e-4
      3.837861865457988e-4 3.886136296060553e-4 3.935017946966284e-4 3.984514456170178e-4
      4.034633557745328e-4 4.085383083051630e-4 4.136770961959622e-4 4.188805224089787e-4
      4.241494000067397e-4 4.294845522793198e-4 4.348868128730038e-4 4.403570259205720e-4
      4.458960461732237e-4 4.515047391341609e-4 4.571839811938522e-4 4.629346597670020e-4
      4.687576734312392e-4 4.746539320675528e-4 4.806243570024971e-4 4.866698811521842e-4
      4.927914491680895e-4 4.989900175846909e-4 5.052665549689688e-4 5.116220420717857e-4
      5.180574719811704e-4 5.245738502775342e-4 5.311721951908387e-4 5.378535377597391e-4
      5.446189219927394e-4 5.514694050313653e-4 5.584060573153979e-4 5.654299627501844e-4
      5.725422188760585e-4 5.797439370398885e-4 5.870362425687854e-4 5.944202749460041e-4
      6.018971879890502e-4 6.094681500300348e-4 6.171343440982985e-4 6.248969681053317e-4
      6.327572350320296e-4 6.407163731182942e-4 6.487756260550346e-4 6.569362531785789e-4
      6.651995296675333e-4 6.735667467421253e-4 6.820392118660463e-4 6.906182489508481e-4
      6.993051985629045e-4 7.081014181329842e-4 7.170082821684610e-4 7.260271824681912e-4
      7.351595283401073e-4 7.444067468215467e-4 7.537702829023529e-4 7.632515997507905e-4
      7.728521789423035e-4 7.825735206911561e-4 7.924171440849895e-4 8.023845873223390e-4
      8.124774079531310e-4 8.226971831222263e-4 8.330455098160130e-4 8.435240051121269e-4
      8.541343064322946e-4 8.648780717983863e-4 8.757569800916730e-4 8.867727313153670e-4
      8.979270468604595e-4 9.092216697749166e-4 9.206583650362637e-4 9.322389198276062e-4
      9.439651438171204e-4 9.558388694410876e-4 9.678619521904746e-4 9.800362709011351e-4
      9.923637280476729e-4 1.004846250041011e-3 1.017485787529694e-3 1.030284315705012e-3
      1.043243834609968e-3 1.056366369452125e-3 1.069653970920415e-3 1.083108715505935e-3
      1.096732705826796e-3 1.110528070957061e-3 1.124496966759836e-3 1.138641576224565e-3
      1.152964109808574e-3 1.167466805782940e-3 1.182151930582691e-3 1.197021779161473e-3
      1.212078675350640e-3 1.227324972222918e-3 1.242763052460638e-3 1.258395328728619e-3
      1.274224244051769e-3 1.290252272197438e-3 1.306481918062608e-3 1.322915718065981e-3
      1.339556240544986e-3 1.356406086157837e-3 1.373467888290656e-3 1.390744313469727e-3
      1.408238061778983e-3 1.425951867282736e-3 1.443888498453781e-3 1.462050758606892e-3
      1.480441486337797e-3 1.499063555967718e-3 1.517919877993501e-3 1.537013399543476e-3
      1.556347104839049e-3 1.575924015662156e-3 1.595747191828614e-3 1.615819731667466e-3
      1.636144772506389e-3 1.656725491163250e-3 1.677565104443879e-3 1.698666869646154e-3
      1.720034085070450e-3 1.741670090536559e-3 1.763578267907172e-3 1.785762041617962e-3
      1.808224879214418e-3 1.830970291895450e-3 1.854001835063906e-3 1.877323108884060e-3
      1.900937758846164e-3 1.924849476338170e-3 1.949061999224686e-3 1.973579112433302e-3
      1.998404648548330e-3 2.023542488412108e-3 2.048996561733921e-3 2.074770847706642e-3
      2.100869375631235e-3 2.127296225549173e-3 2.154055528882891e-3 2.181151469084390e-3
      2.208588282292092e-3 2.236370257996012e-3 2.264501739711457e-3 2.292987125661220e-3
      2.321830869466532e-3 2.351037480846755e-3 2.380611526328011e-3 2.410557629960844e-3
      2.440880474047011e-3 2.471584799875558e-3 2.502675408468269e-3 2.534157161334615e-3
      2.566034981236362e-3 2.598313852961926e-3 2.630998824110619e-3 2.664095005886923e-3
      2.697607573904892e-3 2.731541769002864e-3 2.765902898068568e-3 2.800696334874821e-3
      2.835927520925907e-3 2.871601966314785e-3 2.907725250591287e-3 2.944303023641464e-3
      2.981341006578189e-3 3.018844992643182e-3 3.056820848120645e-3 3.095274513262592e-3
      3.134212003226098e-3 3.173639409022588e-3 3.213562898479355e-3 3.253988717213407e-3
      3.294923189617909e-3 3.336372719861322e-3 3.378343792899390e-3 3.420842975500243e-3
      3.463876917282672e-3 3.507452351767865e-3 3.551576097444725e-3 3.596255058848936e-3
      3.641496227656049e-3 3.687306683788693e-3 3.733693596538133e-3 3.780664225700412e-3
      3.828225922727191e-3 3.876386131891604e-3 3.925152391469212e-3 3.974532334934361e-3
      4.024533692172100e-3 4.075164290705913e-3 4.126432056941462e-3 4.178345017426557e-3
      4.230911300127604e-3 4.284139135722760e-3 4.338036858911995e-3 4.392612909744361e-3
      4.447875834962629e-3 4.503834289365630e-3 4.560497037188481e-3 4.617872953500966e-3
      4.675971025624373e-3 4.734800354566987e-3 4.794370156478561e-3 4.854689764123999e-3
      4.915768628376552e-3 4.977616319730840e-3 5.040242529835842e-3 5.103657073048382e-3
      5.167869888007188e-3 5.232891039227979e-3 5.298730718719784e-3 5.365399247622882e-3
      5.432907077868640e-3 5.501264793861562e-3 5.570483114183967e-3 5.640572893323527e-3
      5.711545123424019e-3 5.783410936059765e-3 5.856181604033966e-3 5.929868543201343e-3
      6.004483314315536e-3 6.080037624901489e-3 6.156543331153337e-3 6.234012439858134e-3
      6.312457110345797e-3 6.391889656465777e-3 6.472322548590697e-3 6.553768415647552e-3
      6.636240047176839e-3 6.719750395419990e-3 6.804312577435727e-3 6.889939877245600e-3
      6.976645748009361e-3 7.064443814230471e-3 7.153347873992422e-3 7.243371901226194e-3
      7.334530048009514e-3 7.426836646898296e-3 7.520306213290939e-3 7.614953447825865e-3
      7.710793238813021e-3 7.807840664699746e-3 7.906110996571715e-3 8.005619700689550e-3
      8.106382441061559e-3 8.208415082053405e-3 8.311733691035201e-3 8.416354541066811e-3
      8.522294113621832e-3 8.629569101351164e-3 8.738196410886683e-3 8.848193165685831e-3
      8.959576708917741e-3 9.072364606391814e-3 9.186574649529268e-3 9.302224858378805e-3
      9.419333484676706e-3 9.537919014952642e-3 9.658000173681682e-3 9.779595926483662e-3
      9.902725483370535e-3 1.002740830204273e-2 1.015366409123543e-2 1.028151281411577e-2
      1.041097469173176e-2 1.054207020651425e-2 1.067482010583247e-2 1.080924540560467e-2
      1.094536739396470e-2 1.108320763498566e-2 1.122278797246187e-2 1.136413053374995e-2
      1.150725773367082e-2 1.165219227847328e-2 1.179895716986067e-2 1.194757570908201e-2
      1.209807150108869e-2 1.225046845875817e-2 1.240479080718637e-2 1.256106308804958e-2
      1.271931016403809e-2 1.287955722336245e-2 1.304182978433423e-2 1.320615370002292e-2
      1.337255516299041e-2 1.354106071010501e-2 1.371169722743640e-2 1.388449195523375e-2
      1.405947249298842e-2 1.423666680458354e-2 1.441610322353217e-2 1.459781045830598e-2
      1.478181759775688e-2 1.496815411663325e-2 1.515684988119350e-2 1.534793515491875e-2
      1.554144060432715e-2 1.573739730489234e-2 1.593583674706834e-2 1.613679084242338e-2
      1.634029192988566e-2 1.654637278210305e-2 1.675506661192029e-2 1.696640707897592e-2
      1.718042829642227e-2 1.739716483777144e-2 1.761665174387009e-2 1.783892453000701e-2
      1.806401919315599e-2 1.829197221935779e-2 1.852282059124496e-2 1.875660179571259e-2
      1.899335383173921e-2 1.923311521836164e-2 1.947592500280756e-2 1.972182276879021e-2
      1.997084864496917e-2 2.022304331358191e-2 2.047844801925039e-2 2.073710457796730e-2
      2.099905538626736e-2 2.126434343058766e-2 2.153301229682298e-2 2.180510618008094e-2
      2.208066989464264e-2 2.235974888413437e-2 2.264238923191581e-2 2.292863767169142e-2
      2.321854159835060e-2 2.351214907904322e-2 2.380950886449718e-2 2.411067040058443e-2
      2.441568384014279e-2 2.472460005506087e-2 2.503747064863311e-2 2.535434796819306e-2
      2.567528511803237e-2 2.600033597261448e-2 2.632955519009029e-2 2.666299822612578e-2
      2.700072134804992e-2 2.734278164933174e-2 2.768923706439707e-2 2.804014638379457e-2
      2.839556926972057e-2 2.875556627191430e-2 2.912019884393344e-2 2.948952935982169e-2
      2.986362113118018e-2 3.024253842465390e-2 3.062634647984607e-2 3.101511152767287e-2
      3.140890080917175e-2 3.180778259477678e-2 3.221182620407486e-2 3.262110202605731e-2
      3.303568153988170e-2 3.345563733615882e-2 3.388104313878098e-2 3.431197382730771e-2
      3.474850545992545e-2 3.519071529699844e-2 3.563868182522909e-2 3.609248478244532e-2
      3.655220518303438e-2 3.701792534404234e-2 3.748972891195917e-2 3.796770089021031e-2
      3.845192766737533e-2 3.894249704615627e-2 3.943949827311776e-2 3.994302206922188e-2
      4.045316066118207e-2 4.097000781365973e-2 4.149365886232962e-2 4.202421074783947e-2
      4.256176205069032e-2 4.310641302706522e-2 4.365826564563405e-2 4.421742362536373e-2
      4.478399247436297e-2 4.535807952979242e-2 4.593979399887138e-2 4.652924700101243e-2
      4.712655161111795e-2 4.773182290407140e-2 4.834517800045792e-2 4.896673611354974e-2
      4.959661859759280e-2 5.023494899743122e-2 5.088185309950799e-2 5.153745898427964e-2
      5.220189708008539e-2 5.287530021851186e-2 5.355780369129246e-2 5.424954530878539e-2
      5.495066546007267e-2 5.566130717472374e-2 5.638161618626805e-2 5.711174099742300e-2
      5.785183294712120e-2 5.860204627938574e-2 5.936253821410014e-2 6.013346901972119e-2
      6.091500208798271e-2 6.170730401064052e-2 6.251054465830701e-2 6.332489726142741e-2
      6.415053849344591e-2 6.498764855621402e-2 6.583641126769228e-2 6.669701415199438e-2
      6.756964853182792e-2 6.845450962338079e-2 6.935179663370294e-2 7.026171286063748e-2
      7.118446579534664e-2 7.212026722748578e-2 7.306933335307098e-2 7.403188488508825e-2
      7.500814716689179e-2 7.599835028843359e-2 7.700272920536944e-2 7.802152386108042e-2
      7.905497931164835e-2 8.010334585382481e-2 8.116687915602089e-2 8.224584039235355e-2
      8.334049637977024e-2 8.445111971827577e-2 8.557798893428112e-2 8.672138862708159e-2
      8.788160961847870e-2 8.905894910554011e-2 9.025371081649592e-2 9.146620516976075e-2
      9.269674943605457e-2 9.394566790360026e-2 9.521329204635569e-2 9.649996069523123e-2
      9.780602021223716e-2 9.913182466748328e-2 1.004777360189531e-1 1.018441242949482e-1
      1.032313677790928e-1 1.046398531977689e-1 1.060699759098314e-1 1.075221400984426e-1
      1.089967589648347e-1 1.104942549237942e-1 1.120150598006398e-1 1.135596150294304e-1
      1.151283718521306e-1 1.167217915184111e-1 1.183403454857488e-1 1.199845156194521e-1
      1.216547943921969e-1 1.233516850826310e-1 1.250757019725580e-1 1.268273705421723e-1
      1.286072276627740e-1 1.304158217863367e-1 1.322537131312647e-1 1.341214738636054e-1
      1.360196882729360e-1 1.379489529420882e-1 1.399098769097895e-1 1.419030818252582e-1
      1.439292020936960e-1 1.459888850115566e-1 1.480827908903902e-1 1.502115931679668e-1
      1.523759785053114e-1 1.545766468681678e-1 1.568143115913246e-1 1.590896994241318e-1
      1.614035505554134e-1 1.637566186158836e-1 1.661496706560411e-1 1.685834870973945e-1
      1.710588616547412e-1 1.735766012270746e-1 1.761375257545639e-1 1.787424680388843e-1
      1.813922735240259e-1 1.840878000345505e-1 1.868299174680780e-1 1.896195074386268e-1
      1.924574628672312e-1 1.953446875160804e-1 1.982820954622249e-1 2.012706105066807e-1
      2.043111655145720e-1 2.074047016817205e-1 2.105521677228752e-1 2.137545189765566e-1
      2.170127164212396e-1 2.203277255973884e-1 2.237005154295939e-1 2.271320569428334e-1
      2.306233218666360e-1 2.341752811206684e-1 2.377889031750318e-1 2.414651522783045e-1
      2.452049865461215e-1 2.490093559028593e-1 2.528791998687295e-1 2.568154451844036e-1
      2.608190032650316e-1 2.648907674753470e-1 2.690316102173516e-1 2.732423798218948e-1
      2.775238972353349e-1 2.818769524923182e-1 2.863023009656340e-1 2.908006593840493e-1
      2.953727016089624e-1 3.000190541607817e-1 3.047402914859520e-1 3.095369309556995e-1
      3.144094275877332e-1 3.193581684823672e-1 3.243834669648701e-1 3.294855564262236e-1
      3.346645838549600e-1 3.399206030533464e-1 3.452535675318452e-1 3.506633230766226e-1
      3.561495999857685e-1 3.617120049709980e-1 3.673500127228156e-1 3.730629571384804e-1
      3.788500222137076e-1 3.847102326007350e-1 3.906424438373727e-1 3.966453322537524e-1
      4.027173845659207e-1 4.088568871680077e-1 4.150619151375803e-1 4.213303209719520e-1
      4.276597230766053e-1 4.340474940306363e-1 4.404907486581442e-1 4.469863319388198e-1
      4.535308067957012e-1 4.601204418030356e-1 4.667511988625831e-1 4.734187209024327e-1
      4.801183196584235e-1 4.868449636047816e-1 4.935932661073049e-1 5.003574738796214e-1
      5.071314558305319e-1 5.139086923982127e-1 5.206822654752370e-1 5.274448490366947e-1
      5.341887005923499e-1 5.409056535926054e-1 5.475871109269562e-1 5.542240396627220e-1
      5.608069671808364e-1 5.673259788744672e-1 5.737707175850405e-1 5.801303849586707e-1
      5.863937449141247e-1 5.925491294209224e-1 5.985844467930144e-1 6.044871927092953e-1
      6.102444641769354e-1 6.158429766569576e-1 6.212690845732910e-1 6.265088054265549e-1
      6.315478477316755e-1 6.363716429938634e-1 6.409653819301572e-1 6.453140551332572e-1
      6.494024983604568e-1 6.532154426126640e-1 6.567375691463968e-1 6.599535695348764e-1
      6.628482108623719e-1 6.654085422538238e-1 6.676304140443335e-1 6.695121725578854e-1
      6.710525368077538e-1 6.722505993661332e-1 6.731058277694927e-1 6.736180662725564e-1
      6.737875377623820e-1 6.736148456522431e-1 6.731009755898071e-1 6.722472967807596e-1
      6.710555624571400e-1 6.695279109877204e-1 6.676668653106703e-1 6.654753318511361e-1
      6.629565986853168e-1 6.601143328822304e-1 6.569525770003942e-1 6.534757447284544e-1
      6.496886156695057e-1 6.455963292781059e-1 6.412043779668354e-1 6.365185994057692e-1
      6.315451680436652e-1 6.262905858839936e-1 6.207616725524493e-1 6.149655546952273e-1
      6.089096547493456e-1 6.026016791276731e-1 5.960496058621551e-1 5.892616717490875e-1
      5.822463590402211e-1 5.750123817229767e-1 5.675686714322135e-1 5.599243630347220e-1
      5.520887799260464e-1 5.440714190772851e-1 5.358819358671836e-1 5.275301287322004e-1
      5.190259236641886e-1 5.103793585819981e-1 5.016005675996573e-1 4.926997652098299e-1
      4.836872303972394e-1 4.745732906922534e-1 4.653683061708243e-1 4.560826534026838e-1
      4.467267093459030e-1 4.373108351825660e-1 4.278453600876918e-1 4.183405649218768e-1
      4.088066658377195e-1 3.992537977910819e-1 3.896919979509967e-1 3.801311890065975e-1
      3.705811623760191e-1 3.610515613307927e-1 3.515518640597235e-1 3.420913667084537e-1
      3.326791664444295e-1 3.233241446114554e-1 3.140349500527476e-1 3.048199826957573e-1
      2.956873775053023e-1 2.866449889229364e-1 2.777003759193932e-1 2.688607877925642e-1
      2.601331508455158e-1 2.515240560773552e-1 2.430397480137808e-1 2.346861147943075e-1
      2.264686796198361e-1 2.183925936477204e-1 2.104626304025071e-1 2.026831817497787e-1
      1.950582554588347e-1 1.875914743580468e-1 1.802860770653676e-1 1.731449202563430e-1
      1.661704824135832e-1 1.593648689854660e-1 1.527298188681363e-1 1.462667121138153e-1
      1.399765787600976e-1 1.338601086692123e-1 1.279176622630346e-1 1.221492820387350e-1
      1.165547047510759e-1 1.111333741502350e-1 1.058844541683364e-1 1.008068424533072e-1
      9.589918415496491e-2 9.115988587510689e-2 8.658712970059135e-2 8.217888724574816e-2
      7.793293363778877e-2 7.384686138603623e-2 6.991809408267889e-2 6.614389988928496e-2
      6.252140476944261e-2 5.904760543359294e-2 5.571938196738317e-2 5.253351011969051e-2
      4.948667323086799e-2 4.657547378575495e-2 4.379644457960266e-2 4.114605948831115e-2
      3.862074383726716e-2 3.621688436564344e-2 3.393083878526382e-2 3.175894493507570e-2
      2.969752953390104e-2 2.774291653545609e-2 2.589143509067033e-2 2.413942712306352e-2
      2.248325452338055e-2 2.091930596989143e-2 1.944400338070697e-2 1.805380800418611e-2
      1.674522615307672e-2 1.551481458745880e-2 1.435918555090212e-2 1.327501146355823e-2
      1.225902927523171e-2 1.130804448086222e-2 1.041893480034493e-2 9.588653524256184e-3
      8.814232526865068e-3 8.092784947820334e-3 7.421507544115256e-3 6.797682714353261e-3
      6.218680197955859e-3 5.681958452755111e-3 5.185065715374575e-3 4.725640749894884e-3
      4.301413291492824e-3 3.910204193001085e-3 3.549925283624638e-3 3.218578950335846e-3
      2.914257453720471e-3 2.635141991232187e-3 2.379501521907302e-3 2.145691367572235e-3
      1.932151606426255e-3 1.737405275586867e-3 1.560056399736340e-3 1.398787863399364e-3
      1.252359144612358e-3 1.119603927816320e-3 9.994276137218536e-4 8.908047436647685e-4
      7.927763556024312e-4 7.044472884062294e-4 6.249834504963230e-4 5.536090681544708e-4
      4.896039280530978e-4 4.323006276678059e-4 3.810818463102883e-4 3.353776485428685e-4
      2.946628307278387e-4 2.584543204371982e-4 2.263086374130720e-4 1.978194237371479e-4
      1.726150498489674e-4 1.503563020569365e-4 1.307341562206191e-4 1.134676413552359e-4
      9.830179602537273e-5 8.500571955930161e-5 7.337071933088581e-5 6.320855464547968e-5
      5.434977706117260e-5 4.664216640550540e-5 3.994926118013878e-5 3.414898155900503e-5
      2.913234275549670e-5 2.480225616144172e-5 2.107241534360439e-5 1.786626371992499e-5
      1.511604052497253e-5 1.276190150913452e-5 1.075111069563961e-5 9.037299440108344e-6
      7.579788995252212e-6 6.342972776419086e-6 5.295754544394278e-6 4.411073224365042e-6
      3.665713597959992e-6 3.039216654813895e-6 2.513859132745706e-6 2.074356915749813e-6
      1.707561117060532e-6 1.402187375788177e-6 1.148575372357292e-6 9.384757589049983e-7
      7.648618871054237e-7 6.217638989667430e-7 5.041229248028760e-7 4.076633057832088e-7
      3.287809254055493e-7 2.644458940137400e-7 2.121179829082284e-7 1.696733488786423e-7
      1.353412260695602e-7 1.076493897414695e-7 8.537731565763506e-8 6.751606955583993e-8
      5.323406357588231e-8 4.184791080595857e-8 3.279769554145611e-8 2.562605572644814e-8
      1.996054571968804e-8 1.549881237212510e-8 1.199617582269434e-8 9.255258827976508e-9
      7.117355260567781e-9 5.455270062302702e-9 4.167399838455733e-9 3.172855834679322e-9
      2.407459643283867e-9 1.820467016714080e-9 1.371896982317787e-9 1.030362392265503e-9
      7.713144234700684e-10 5.756276614395474e-10 4.284645359349643e-10 3.183682833642103e-10
      2.365425334566095e-10 1.750783198924292e-10 1.290857588681173e-10 9.480386101562503e-11
      6.935121568179278e-11 5.052901750318767e-11 3.666607651414778e-11 2.649736277871409e-11
      1.906922410271443e-11 1.366572903370155e-11 9.751669314962109e-12 6.928642932611256e-12
      4.901362606606398e-12 3.451922285662443e-12 2.420229197365340e-12 1.689191054327291e-12
      1.173553824775216e-12 8.115290630642487e-13 5.585428680988996e-13 3.825908125745523e-13
      2.608026836671335e-13 1.769141786031372e-13 1.194151778210984e-13 8.020023245368291e-14
      5.358996765407174e-14 3.562503917918549e-14 2.355933687703567e-14 1.549808876256534e-14
      1.014078912244845e-14 6.599555397707851e-15 4.271469907718580e-15 2.749348686784047e-15
      1.759712711838437e-15 1.119908375561236e-15 7.086322231795767e-16 4.457850531836760e-16
      2.787818101845644e-16 1.733027330096833e-16 1.070818221899913e-16 6.576008450010483e-17
      4.013393378051625e-17 2.434052391633470e-17 1.466839444241279e-17 8.782838810083417e-18
      5.224583688978164e-18 3.087430866950086e-18 1.812322349831444e-18 1.056646524493116e-18
      6.118473097130124e-19 3.518340951443113e-19 2.008983464132160e-19 1.138990026917921e-19
      6.411057435714142e-20 3.582334848932765e-20 1.986961870289227e-20 1.093853881680265e-20
      5.976330217944035e-21 3.240215613502777e-21 1.743152245873902e-21 9.304141808821269e-22
      4.926674689599006e-22 2.587762693244308e-22 1.348167604402425e-22 6.965744387288233e-23
      3.569029632105058e-23 1.813200978770509e-23 9.132896342062164e-24 4.560274054219366e-24
      2.257073154919833e-24 1.107195866242646e-24 5.382433185012133e-25 2.592739243675064e-25
      1.237414061081047e-25 5.850549320408406e-26 2.740011463026526e-26 1.270955517910886e-26
      5.838187050961472e-27 2.655474458569789e-27 1.195828327673916e-27 5.330937239817141e-28
      2.352291172420657e-28 1.027248278101210e-28 4.439151359333606e-29 1.898048536461533e-29
      8.028592662644382e-30 3.359212467579301e-30 1.390086775324215e-30 5.688430279260301e-31
      2.301590197968055e-31 9.206334821398755e-32 3.640039822213081e-32
      </PP_CHI.1>
    <PP_CHI.2 index="2" label="3P" l="1" occupation="1.000000000000e0" n="2" pseudo_energy="-1.976745580968e-1" cutoff_radius="1.500000000000e0" ultrasoft_cutoff_radius="1.900000000000e0">
      1.085553140741065e-9 1.113034049319122e-9 1.141210640409362e-9 1.170100525298389e-9
      1.199721761104651e-9 1.230092862064720e-9 1.261232811105297e-9 1.293161071708159e-9
      1.325897600075465e-9 1.359462857603040e-9 1.393877823669402e-9 1.429164008748562e-9
      1.465343467854772e-9 1.502438814327624e-9 1.540473233966129e-9 1.579470499520582e-9
      1.619454985551321e-9 1.660451683663610e-9 1.702486218128204e-9 1.745584861897363e-9
      1.789774553026296e-9 1.835082911510313e-9 1.881538256548235e-9 1.929169624242808e-9
      1.978006785749216e-9 2.028080265883015e-9 2.079421362199140e-9 2.132062164553900e-9
      2.186035575162170e-9 2.241375329162358e-9 2.298116015701958e-9 2.356293099556893e-9
      2.415942943298151e-9 2.477102830019583e-9 2.539810986641045e-9 2.604106607801467e-9
      2.670029880356777e-9 2.737622008497993e-9 2.806925239505182e-9 2.877982890153389e-9
      2.950839373787026e-9 3.025540228079656e-9 3.102132143496528e-9 3.180662992477628e-9
      3.261181859359519e-9 3.343739071054647e-9 3.428386228507284e-9 3.515176238945811e-9
      3.604163348951462e-9 3.695403178364187e-9 3.788952755046864e-9 3.884870550529580e-9
      3.983216516556220e-9 4.084052122556276e-9 4.187440394065231e-9 4.293445952117569e-9
      4.402135053637019e-9 4.513575632849282e-9 4.627837343743156e-9 4.744991603606522e-9
      4.865111637664475e-9 4.988272524847473e-9 5.114551244718105e-9 5.244026725585844e-9
      5.376779893839768e-9 5.512893724530219e-9 5.652453293230884e-9 5.795545829213806e-9
      5.942260769970503e-9 6.092689817113326e-9 6.246926993691949e-9 6.405068702960806e-9
      6.567213788634284e-9 6.733463596667235e-9 6.903922038599521e-9 7.078695656504075e-9
      7.257893689579174e-9 7.441628142426485e-9 7.630013855057589e-9 7.823168574672699e-9
      8.021213029256511e-9 8.224271003037092e-9 8.432469413855099e-9 8.645938392491455e-9
      8.864811364003435e-9 9.089225131119562e-9 9.319319959745801e-9 9.555239666636302e-9
      9.797131709283541e-9 1.004514727808405e-8 1.029944139083729e-8 1.056017298963687e-8
      1.082750504021448e-8 1.110160463379874e-8 1.138264309155273e-8 1.167079607165519e-8
      1.196624367909263e-8 1.226917057823077e-8 1.257976610823579e-8 1.289822440141742e-8
      1.322474450456801e-8 1.355953050337312e-8 1.390279164997180e-8 1.425474249374590e-8
      1.461560301542045e-8 1.498559876455871e-8 1.536496100053794e-8 1.575392683709409e-8
      1.615273939052554e-8 1.656164793164864e-8 1.698090804160013e-8 1.741078177158354e-8
      1.785153780665977e-8 1.830345163368392e-8 1.876680571349354e-8 1.924188965745576e-8
      1.972900040848383e-8 2.022844242663606e-8 2.074052787941318e-8 2.126557683687325e-8
      2.180391747168561e-8 2.235588626424964e-8 2.292182821300580e-8 2.350209705007085e-8
      2.409705546233189e-8 2.470707531813741e-8 2.533253789972701e-8 2.597383414154514e-8
      2.663136487458785e-8 2.730554107693465e-8 2.799678413061981e-8 2.870552608501709e-8
      2.943220992688131e-8 3.017728985722906e-8 3.094123157522915e-8 3.172451256927941e-8
      3.252762241545240e-8 3.335106308349650e-8 3.419534925058298e-8 3.506100862299602e-8
      3.594858226596608e-8 3.685862494185312e-8 3.779170545689112e-8 3.874840701671014e-8
      3.972932759085900e-8 4.073508028655501e-8 4.176629373189629e-8 4.282361246877423e-8
      4.390769735573310e-8 4.501922598102808e-8 4.615889308613942e-8 4.732741100000851e-8
      4.852551008426636e-8 4.975393918973298e-8 5.101346612447366e-8 5.230487813370315e-8
      5.362898239183962e-8 5.498660650701454e-8 5.637859903835425e-8 5.780583002635721e-8
      5.926919153669635e-8 6.076959821778964e-8 6.230798787248419e-8 6.388532204421322e-8
      6.550258661799208e-8 6.716079243662678e-8 6.886097593252483e-8 7.060419977549709e-8
      7.239155353696153e-8 7.422415437096006e-8 7.610314771241472e-8 7.802970799306255e-8
      8.000503937551198e-8 8.203037650588330e-8 8.410698528550226e-8 8.623616366212740e-8
      8.841924244121119e-8 9.065758611769372e-8 9.295259372885656e-8 9.530569972876629e-8
      9.771837488485183e-8 1.001921271971835e-7 1.027285028410193e-7 1.053290871332140e-7
      1.079955055230938e-7 1.107294246084109e-7 1.135325531770234e-7 1.164066432749398e-7
      1.193534913014031e-7 1.223749391316996e-7 1.254728752683856e-7 1.286492360216654e-7
      1.319060067196426e-7 1.352452229492148e-7 1.386689718283807e-7 1.421793933107514e-7
      1.457786815230922e-7 1.494690861367193e-7 1.532529137736146e-7 1.571325294481393e-7
      1.611103580452380e-7 1.651888858360732e-7 1.693706620320184e-7 1.736583003779965e-7
      1.780544807861537e-7 1.825619510108842e-7 1.871835283662678e-7 1.919221014869750e-7
      1.967806321337547e-7 2.017621570446290e-7 2.068697898329442e-7 2.121067229334810e-7
      2.174762295978219e-7 2.229816659402349e-7 2.286264730353514e-7 2.344141790689395e-7
      2.403484015431343e-7 2.464328495374830e-7 2.526713260272374e-7 2.590677302603301e-7
      2.656260601945196e-7 2.723504149962424e-7 2.792449976027134e-7 2.863141173488897e-7
      2.935621926609400e-7 3.009937538178890e-7 3.086134457831864e-7 3.164260311079448e-7
      3.244363929076789e-7 3.326495379144036e-7 3.410705996059853e-7 3.497048414147289e-7
      3.585576600171729e-7 3.676345887071767e-7 3.769413008543987e-7 3.864836134503108e-7
      3.962674907440038e-7 4.062990479700115e-7 4.165845551705139e-7 4.271304411143046e-7
      4.379432973149505e-7 4.490298821506912e-7 4.603971250886171e-7 4.720521310157900e-7
      4.840021846800053e-7 4.962547552429687e-7 5.088175009487408e-7 5.216982739103583e-7
      5.349051250176316e-7 5.484463089691811e-7 5.623302894318577e-7 5.765657443307811e-7
      5.911615712732818e-7 6.061268931101607e-7 6.214710636377262e-7 6.372036734441792e-7
      6.533345559039985e-7 6.698737933240732e-7 6.868317232454217e-7 7.042189449044428e-7
      7.220463258577224e-7 7.403250087745628e-7 7.590664184014418e-7 7.782822687027978e-7
      7.979845701825679e-7 8.181856373910696e-7 8.388980966219318e-7 8.601348938038532e-7
      8.819093025921486e-7 9.042349326651365e-7 9.271257382305315e-7 9.505960267471970e-7
      9.746604678676601e-7 9.993341026070206e-7 1.024632352743972e-6 1.050571030459788e-6
      1.077166348221341e-6 1.104434928914290e-6 1.132393816232782e-6 1.161060485332194e-6
      1.190452853751501e-6 1.220589292612188e-6 1.251488638100619e-6 1.283170203241101e-6
      1.315653789966973e-6 1.348959701497262e-6 1.383108755026666e-6 1.418122294736754e-6
      1.454022205136565e-6 1.490830924740901e-6 1.528571460094884e-6 1.567267400153539e-6
      1.606942931025388e-6 1.647622851089273e-6 1.689332586493851e-6 1.732098207049444e-6
      1.775946442522199e-6 1.820904699340706e-6 1.867001077725549e-6 1.914264389252469e-6
      1.962724174860148e-6 2.012410723313807e-6 2.063355090136255e-6 2.115589117018104e-6
      2.169145451719396e-6 2.224057568474973e-6 2.280359788916442e-6 2.338087303523722e-6
      2.397276193619645e-6 2.457963453921333e-6 2.520187015662413e-6 2.583985770300598e-6
      2.649399593825366e-6 2.716469371680978e-6 2.785237024320413e-6 2.855745533406139e-6
      2.928038968674180e-6 3.002162515478158e-6 3.078162503030653e-6 3.156086433359412e-6
      3.235983010996550e-6 3.317902173419345e-6 3.401895122261554e-6 3.488014355314836e-6
      3.576313699340234e-6 3.666848343710265e-6 3.759674874902557e-6 3.854851311866721e-6
      3.952437142286433e-6 4.052493359759445e-6 4.155082501918783e-6 4.260268689518873e-6
      4.368117666511115e-6 4.478696841133917e-6 4.592075328042780e-6 4.708323991506951e-6
      4.827515489699390e-6 4.949724320107970e-6 5.075026866096131e-6 5.203501444642125e-6
      5.335228355286725e-6 5.470289930319848e-6 5.608770586237686e-6 5.750756876502287e-6
      5.896337545636618e-6 6.045603584689020e-6 6.198648288101463e-6 6.355567312017465e-6
      6.516458734065794e-6 6.681423114657507e-6 6.850563559834624e-6 7.023985785709491e-6
      7.201798184535452e-6 7.384111892449797e-6 7.571040858931455e-6 7.762701918016823e-6
      7.959214861318232e-6 8.160702512890595e-6 8.367290805993113e-6 8.579108861793960e-6
      8.796289070067175e-6 9.018967171931955e-6 9.247282344686376e-6 9.481377288788327e-6
      9.721398317038027e-6 9.967495446017944e-6 1.021982248984701e-5 1.047853715630799e-5
      1.074380114540797e-5 1.101578025043328e-5 1.129464446156250e-5 1.158056807210163e-5
      1.187372978740850e-5 1.217431283657376e-5 1.248250508692882e-5 1.279849916145189e-5
      1.312249255914550e-5 1.345468777846090e-5 1.379529244384625e-5 1.414451943549772e-5
      1.450258702239458e-5 1.486971899870113e-5 1.524614482362107e-5 1.563209976479142e-5
      1.602782504530548e-5 1.643356799445686e-5 1.684958220229870e-5 1.727612767811429e-5
      1.771347101289867e-5 1.816188554595197e-5 1.862165153568914e-5 1.909305633477246e-5
      1.957639456967608e-5 2.007196832479503e-5 2.058008733121345e-5 2.110106916024991e-5
      2.163523942190099e-5 2.218293196830634e-5 2.274448910236310e-5 2.332026179161951e-5
      2.391060988758098e-5 2.451590235056623e-5 2.513651748025326e-5 2.577284315205945e-5
      2.642527705950316e-5 2.709422696269819e-5 2.778011094313658e-5 2.848335766491794e-5
      2.920440664258916e-5 2.994370851576156e-5 3.070172533067646e-5 3.147893082889568e-5
      3.227581074329586e-5 3.309286310155302e-5 3.393059853730537e-5 3.478954060918923e-5
      3.567022612794719e-5 3.657320549181188e-5 3.749904303037583e-5 3.844831735716085e-5
      3.942162173110758e-5 4.041956442721082e-5 4.144276911653103e-5 4.249187525582009e-5
      4.356753848700393e-5 4.467043104677098e-5 4.580124218652265e-5 4.696067860294630e-5
      4.814946487948141e-5 4.936834393895252e-5 5.061807750765168e-5 5.189944659116065e-5
      5.321325196220764e-5 5.456031466086496e-5 5.594147650739795e-5 5.735760062808572e-5
      5.880957199434027e-5 6.029829797546333e-5 6.182470890537962e-5 6.338975866370609e-5
      6.499442527151449e-5 6.663971150216350e-5 6.832664550757261e-5 7.005628146033893e-5
      7.182970021208870e-5 7.364800996847540e-5 7.551234698124975e-5 7.742387625782323e-5
      7.938379228877802e-5 8.139331979376808e-5 8.345371448627869e-5 8.556626385772276e-5
      8.773228798135804e-5 8.995314033652878e-5 9.223020865374243e-5 9.456491578111180e-5
      9.695872057269614e-5 9.941311879929639e-5 1.019296440822739e-4 1.045098688509693e-4
      1.071554053243190e-4 1.098679065172823e-4 1.126490672726972e-4 1.155006253192179e-4
      1.184243623559826e-4 1.214221051646876e-4 1.244957267497656e-4 1.276471475073646e-4
      1.308783364238649e-4 1.341913123046742e-4 1.375881450340644e-4 1.410709568668314e-4
      1.446419237525823e-4 1.483032766934714e-4 1.520573031362283e-4 1.559063483993393e-4
      1.598528171362724e-4 1.638991748356494e-4 1.680479493593003e-4 1.723017325191477e-4
      1.766631816939061e-4 1.811350214865923e-4 1.857200454238805e-4 1.904211176983457e-4
      1.952411749546882e-4 2.001832281210306e-4 2.052503642864366e-4 2.104457486258016e-4
      2.157726263733137e-4 2.212343248457018e-4 2.268342555165287e-4 2.325759161428080e-4
      2.384628929452556e-4 2.444988628435352e-4 2.506875957478689e-4 2.570329569084310e-4
      2.635389093239822e-4 2.702095162112211e-4 2.770489435363866e-4 2.840614626106690e-4
      2.912514527510326e-4 2.986234040080872e-4 3.061819199626942e-4 3.139317205930297e-4
      3.218776452138683e-4 3.300246554899030e-4 3.383778385249498e-4 3.469424100289396e-4
      3.557237175646484e-4 3.647272438761609e-4 3.739586103011086e-4 3.834235802687886e-4
      3.931280628862942e-4 4.030781166148772e-4 4.132799530388250e-4 4.237399407288779e-4
      4.344646092033800e-4 4.454606529885030e-4 4.567349357803127e-4 4.682944947123842e-4
      4.801465447297041e-4 4.922984830731277e-4 5.047578938757923e-4 5.175325528758213e-4
      5.306304322464351e-4 5.440597055484626e-4 5.578287528056557e-4 5.719461657087987e-4
      5.864207529494085e-4 6.012615456877850e-4 6.164778031577145e-4 6.320790184121417e-4
      6.480749242126089e-4 6.644754990656041e-4 6.812909734121584e-4 6.985318359693776e-4
      7.162088402337437e-4 7.343330111453197e-4 7.529156519193672e-4 7.719683510484567e-4
      7.915029894805469e-4 8.115317479752365e-4 8.320671146448269e-4 8.531218926838601e-4
      8.747092082903558e-4 8.968425187866590e-4 9.195356209415131e-4 9.428026595001903e-4
      9.666581359280643e-4 9.911169173703501e-4 1.016194245837328e-3 1.041905747616325e-3
      1.068267442919537e-3 1.095295755770826e-3 1.123007524139436e-3 1.151420010324529e-3
      1.180550911599074e-3 1.210418371116819e-3 1.241040989091303e-3 1.272437834251178e-3
      1.304628455580305e-3 1.337632894348689e-3 1.371471696441495e-3 1.406165924993094e-3
      1.441737173334303e-3 1.478207578258816e-3 1.515599833619163e-3 1.553937204256592e-3
      1.593243540276414e-3 1.633543291674461e-3 1.674861523324195e-3 1.717223930334092e-3
      1.760656853781507e-3 1.805187296834497e-3 1.850842941269908e-3 1.897652164396635e-3
      1.945644056394793e-3 1.994848438079717e-3 2.045295879100725e-3 2.097017716586546e-3
      2.150046074245619e-3 2.204413881933453e-3 2.260154895697656e-3 2.317303718311927e-3
      2.375895820310211e-3 2.435967561532431e-3 2.497556213194259e-3 2.560699980493078e-3
      2.625438025762342e-3 2.691810492185973e-3 2.759858528087897e-3 2.829624311808126e-3
      2.901151077178995e-3 2.974483139616763e-3 3.049665922839717e-3 3.126745986230298e-3
      3.205771052853459e-3 3.286790038146549e-3 3.369853079296484e-3 3.455011565318978e-3
      3.542318167855367e-3 3.631826872703731e-3 3.723593012099033e-3 3.817673297760717e-3
      3.914125854723324e-3 4.013010255966884e-3 4.114387557865598e-3 4.218320336472267e-3
      4.324872724655101e-3 4.434110450106881e-3 4.546100874244042e-3 4.660913032014776e-3
      4.778617672635746e-3 4.899287301274946e-3 5.022996221703332e-3 5.149820579932523e-3
      5.279838408860396e-3 5.413129673944432e-3 5.549776319923399e-3 5.689862318609002e-3
      5.833473717768277e-3 5.980698691118373e-3 6.131627589455483e-3 6.286352992939404e-3
      6.444969764557053e-3 6.607575104785603e-3 6.774268607479394e-3 6.945152317002082e-3
      7.120330786627644e-3 7.299911138232139e-3 7.484003123301511e-3 7.672719185275398e-3
      7.866174523253284e-3 8.064487157083652e-3 8.267777993861593e-3 8.476170895856628e-3
      8.689792749894405e-3 8.908773538215453e-3 9.133246410834143e-3 9.363347759420186e-3
      9.599217292725861e-3 9.840998113580898e-3 1.008883679747719e-2 1.034288347276551e-2
      1.060329190248479e-2 1.087021956784553e-2 1.114382775338671e-2 1.142428163382779e-2
      1.171175036263238e-2 1.200640716230366e-2 1.230842941642850e-2 1.261799876348711e-2
      1.293530119244278e-2 1.326052714012731e-2 1.359387159043508e-2 1.393553417533701e-2
      1.428571927772548e-2 1.464463613609906e-2 1.501249895109319e-2 1.538952699386444e-2
      1.577594471632834e-2 1.617198186325514e-2 1.657787358621931e-2 1.699386055940217e-2
      1.742018909723833e-2 1.785711127389748e-2 1.830488504459072e-2 1.876377436868284e-2
      1.923404933459259e-2 1.971598628645789e-2 2.020986795253715e-2 2.071598357531657e-2
      2.123462904328522e-2 2.176610702433709e-2 2.231072710075384e-2 2.286880590571288e-2
      2.344066726126562e-2 2.402664231771720e-2 2.462706969433819e-2 2.524229562132583e-2
      2.587267408293005e-2 2.651856696164672e-2 2.718034418337339e-2 2.785838386341553e-2
      2.855307245321610e-2 2.926480488767629e-2 2.999398473292080e-2 3.074102433434898e-2
      3.150634496480386e-2 3.229037697267181e-2 3.309355992971760e-2 3.391634277844197e-2
      3.475918397873059e-2 3.562255165355125e-2 3.650692373343474e-2 3.741278809945722e-2
      3.834064272442323e-2 3.929099581192487e-2 4.026436593293338e-2 4.126128215955442e-2
      4.228228419555231e-2 4.332792250322867e-2 4.439875842620188e-2 4.549536430761933e-2
      4.661832360329115e-2 4.776823098920827e-2 4.894569246287635e-2 5.015132543785240e-2
      5.138575883084285e-2 5.264963314067819e-2 5.394360051843432e-2 5.526832482793740e-2
      5.662448169582870e-2 5.801275855033268e-2 5.943385464780909e-2 6.088848108612255e-2
      6.237736080380889e-2 6.390122856395121e-2 6.546083092162952e-2 6.705692617372915e-2
      6.869028428983894e-2 7.036168682289406e-2 7.207192679814032e-2 7.382180857893177e-2
      7.561214770777973e-2 7.744377072099620e-2 7.931751493518586e-2 8.123422820374399e-2
      8.319476864143219e-2 8.520000431499380e-2 8.725081289767457e-2 8.934808128540961e-2
      9.149270517231399e-2 9.368558858301585e-2 9.592764335923533e-2 9.821978859789725e-2
      1.005629500379404e-1 1.029580593928387e-1 1.054060536257332e-1 1.079078741639152e-1
      1.104644660492626e-1 1.130767770210906e-1 1.157457565277048e-1 1.184723546628119e-1
      1.212575210227641e-1 1.241022034804578e-1 1.270073468715480e-1 1.299738915884528e-1
      1.330027720774743e-1 1.360949152341709e-1 1.392512386919526e-1 1.424726489987030e-1
      1.457600396760371e-1 1.491142891556660e-1 1.525362585871322e-1 1.560267895110435e-1
      1.595867013917621e-1 1.632167890033345e-1 1.669178196623304e-1 1.706905303010839e-1
      1.745356243747269e-1 1.784537685952781e-1 1.824455894859371e-1 1.865116697486751e-1
      1.906525444381083e-1 1.948686969346292e-1 1.991605547097340e-1 2.035284848764818e-1
      2.079727895180883e-1 2.124937007876890e-1 2.170913757724588e-1 2.217658911153900e-1
      2.265172373882558e-1 2.313453132095312e-1 2.362499191013304e-1 2.412307510798207e-1
      2.462873939739704e-1 2.514193144680168e-1 2.566258538636140e-1 2.619062205582774e-1
      2.672594822375173e-1 2.726845577788706e-1 2.781802088670192e-1 2.837450313202363e-1
      2.893774461295569e-1 2.950756902133915e-1 3.008378068916976e-1 3.066616360853931e-1
      3.125448042483923e-1 3.184847140414562e-1 3.244785337590798e-1 3.305231865227344e-1
      3.366153392561120e-1 3.427513914604703e-1 3.489274638107865e-1 3.551393865962317e-1
      3.613826880314091e-1 3.676525824679076e-1 3.739439585390055e-1 3.802513672737378e-1
      3.865690102201222e-1 3.928907276210269e-1 3.992099866900138e-1 4.055198700384079e-1
      4.118130643088060e-1 4.180818490743961e-1 4.243180860675170e-1 4.305132088051074e-1
      4.366582126828074e-1 4.427436456135779e-1 4.487595992907665e-1 4.546957011594398e-1
      4.605411071835904e-1 4.662844955004287e-1 4.719140610562876e-1 4.774175113217810e-1
      4.827820631865508e-1 4.879960171698110e-1 4.930536797340832e-1 4.979509759949879e-1
      5.026839244985722e-1 5.072486403031200e-1 5.116413387981408e-1 5.158583401487949e-1
      5.198960742479261e-1 5.237510860588086e-1 5.274200412376329e-1 5.308997322908104e-1
      5.341870873208990e-1 5.372791693440444e-1 5.401731850706089e-1 5.428664909673959e-1
      5.453565987676622e-1 5.476411807630282e-1 5.497180748468163e-1 5.515852892858084e-1
      5.532410072043389e-1 5.546835907707858e-1 5.559115850818132e-1 5.569237217441999e-1
      5.577189221579292e-1 5.582963005073431e-1 5.586551664697646e-1 5.587950276530574e-1
      5.587155917751837e-1 5.584167686000226e-1 5.578986716444831e-1 5.571616196723864e-1
      5.562061379906825e-1 5.550329595632604e-1 5.536430259570286e-1 5.520374881339207e-1
      5.502177071008955e-1 5.481852544286992e-1 5.459419126471143e-1 5.434896755221574e-1
      5.408307482171000e-1 5.379675473352834e-1 5.349027008381483e-1 5.316390478266985e-1
      5.281796381688943e-1 5.245277319490610e-1 5.206867987085434e-1 5.166605164396499e-1
      5.124527702874441e-1 5.080676509064784e-1 5.035094524123864e-1 4.987826698616812e-1
      4.938919961875276e-1 4.888423185150788e-1 4.836387137776705e-1 4.782864435551624e-1
      4.727909480584480e-1 4.671578391899514e-1 4.613928926190645e-1 4.555020388240623e-1
      4.494913530680027e-1 4.433670442952428e-1 4.371354429570658e-1 4.308029877988024e-1
      4.243762116660193e-1 4.178617264128121e-1 4.112662070200304e-1 4.045963750540959e-1
      3.978589816171220e-1 3.910607899556692e-1 3.842085579072176e-1 3.773090203702943e-1
      3.703688719859764e-1 3.633947502149093e-1 3.563932189854538e-1 3.493707530754969e-1
      3.423337233735645e-1 3.352883831448881e-1 3.282408554058956e-1 3.211971214871207e-1
      3.141630108405769e-1 3.071441921240571e-1 3.001461655722756e-1 2.931742566438130e-1
      2.862336109139690e-1 2.793291901670723e-1 2.724657696278336e-1 2.656479362599440e-1
      2.588800880512985e-1 2.521664341988841e-1 2.455109961022597e-1 2.389176090725225e-1
      2.323899246633933e-1 2.259314135323133e-1 2.195453687419728e-1 2.132349094162112e-1
      2.070029846685209e-1 2.008523777262479e-1 1.947857101788151e-1 1.888054462837925e-1
      1.829138972702513e-1 1.771132255845399e-1 1.714054490293189e-1 1.657924447524033e-1
      1.602759530476732e-1 1.548575809360455e-1 1.495388055002778e-1 1.443209769532230e-1
      1.392053214250862e-1 1.341929434612697e-1 1.292848282284892e-1 1.244818434330022e-1
      1.197847409609211e-1 1.151941582565877e-1 1.107106194608562e-1 1.063345363365956e-1
      1.020662090136821e-1 9.790582659024876e-2 9.385346763061662e-2 8.990910060311286e-2
      8.607258430286748e-2 8.234366830552226e-2 7.872199349756980e-2 7.520709272777097e-2
      7.179839162182310e-2 6.849520959922329e-2 6.529676112721965e-2 6.220215724197939e-2
      5.921040736178633e-2 5.632042141136802e-2 5.353101227050915e-2 5.084089855409443e-2
      4.824870772479464e-2 4.575297953389445e-2 4.335216978039132e-2 4.104465437355581e-2
      3.882873367972475e-2 3.670263713024757e-2 3.466452806425556e-2 3.271250877729628e-2
      3.084462574485844e-2 2.905887498839670e-2 2.735320755061704e-2 2.572553504646412e-2
      2.417373525641759e-2 2.269565772930237e-2 2.128912936279918e-2 1.995195993114762e-2
      1.868194753111771e-2 1.747688391913304e-2 1.633455971441094e-2 1.525276944510124e-2
      1.422931641661070e-2 1.326201738355987e-2 1.234870700910116e-2 1.148724209760022e-2
      1.067550558892426e-2 9.911410304769481e-3 9.192902439575336e-3 8.517964790604911e-3
      7.884619723702579e-3 7.290931873065886e-3 6.735010575080109e-3 6.215012037855873e-3
      5.729141249580795e-3 5.275653630141654e-3 4.852856431695818e-3 4.459109894968874e-3
      4.092828169031860e-3 3.752480003151418e-3 3.436589219960291e-3 3.143734980530181e-3
      2.872551850867309e-3 2.621729681399392e-3 2.390013310567796e-3 2.176202103967762e-3
      1.979149340636381e-3 1.797761458140494e-3 1.630997168090529e-3 1.477866453606832e-3
      1.337429460096561e-3 1.208795290466865e-3 1.091120715608039e-3 9.836088106292094e-4
      8.855075269134908e-4 7.961082097509008e-4 7.147440707745942e-4 6.407936197190587e-4
      5.737186774625270e-4 5.129666256878609e-4 4.580163689045267e-4 4.083824083531584e-4
      3.636130613837180e-4 3.232887184578108e-4 2.870201405720490e-4 2.544467999911007e-4
      2.252352668685798e-4 1.990776440237161e-4 1.756900518334245e-4 1.548111648937493e-4
      1.362008018230020e-4 1.196385692530468e-4 1.049225608124849e-4 9.186811161840307e-5
      8.030660853942081e-5 7.008435625089714e-5 6.106149887625093e-5 5.311099679813313e-5
      4.611765803091624e-5 3.997722337284983e-5 3.459550440349397e-5 2.988757326100887e-5
      2.577700302596751e-5 2.219515745523466e-5 1.908052875309590e-5 1.637812203966487e-5
      1.403888518173035e-5 1.201918269258085e-5 1.028031249008462e-5 8.788064433086685e-6
      7.512319743740433e-6 6.408783832981520e-6 5.456155076870028e-6 4.635493418020400e-6
      3.929994380052492e-6 3.324780363304258e-6 2.806708387259914e-6 2.364193433103942e-6
      1.987046534563908e-6 1.666326766245189e-6 1.394206285452063e-6 1.163847595485943e-6
      9.692922150574406e-7 8.053599591896692e-7 6.675580612764664e-7 5.519993932540470e-7
      4.553290706277492e-7 3.746587608685928e-7 3.075080469843679e-7 2.517522324332582e-7
      2.055760085720101e-7 1.674324411369982e-7 1.360067675015078e-7 1.101845313284385e-7
      8.902361547280112e-8 7.172976734695755e-8 5.763524324276375e-8 4.618022914174110e-8
      3.689672520257108e-8 2.939460929062563e-8 2.334962153139823e-8 1.849303687927075e-8
      1.460281606955937e-8 1.149604706105483e-8 9.022509192985705e-9 7.059210805463350e-9
      5.505768050898354e-9 4.280508112003528e-9 3.317194105499075e-9 2.562281662377168e-9
      1.972628613668143e-9 1.513589456654829e-9 1.157435413864503e-9 8.820490098699921e-10
      6.698492621601613e-10 5.069098935342745e-10 3.822385034490591e-10 2.871894599996912e-10
      2.149874643927621e-10 1.603423632726244e-10 1.191389039855808e-10 8.818780204449570e-11
      6.502677221618221e-11 4.776211364891399e-11 3.494307957343979e-11 2.546264322990765e-11
      1.847942948155887e-11 1.335654780695936e-11 9.613865061046829e-12 6.890920198237920e-12
      4.918229572949833e-12 3.495179152472641e-12 2.473065116239569e-12 1.742140710015249e-12
      1.221766679507920e-12 8.529551425614432e-13 5.927508236786108e-13 4.100162592386114e-13
      2.822848010978845e-13 1.934219067917975e-13 1.318953535748600e-13 8.950197084468577e-14
      6.043495883142080e-14 4.060404687073287e-14 2.714241312427894e-14 1.805085937688664e-14
      1.194234176633384e-14 7.859498543940315e-15 5.144996636497185e-15 3.349894207216346e-15
      2.169218429734566e-15 1.396920733225464e-15 8.945533288270630e-16 5.696079410396883e-16
      3.606202469452551e-16 2.269849201209303e-16 1.420315719153628e-16 8.834490980476822e-17
      5.462032452391430e-17 3.356371874981701e-17 2.049724319857670e-17 1.243931682458477e-17
      7.501342307761007e-18 4.494569209229174e-18 2.675522524500954e-18 1.582213105274306e-18
      9.294394409012401e-19 5.423010531626264e-19 3.142577836578620e-19
      </PP_CHI.2>
  </PP_PSWFC>
  <PP_FULL_WFC number_of_wfc="4">
    <PP_AEWFC.1 index="1" label="3S" l="0">
      4.381375268910273e-4 4.436236090595590e-4 4.491783844938181e-4 4.548027133276140e-4
      4.604973923077258e-4 4.662631446813933e-4 4.721008982574768e-4 4.780115435621822e-4
      4.839959902693543e-4 4.900551593482113e-4 4.961899831956095e-4 5.024014057775723e-4
      5.086903827755941e-4 5.150578817307312e-4 5.215048821773884e-4 5.280323757876459e-4
      5.346413665304702e-4 5.413328708451425e-4 5.481079177870333e-4 5.549675491515055e-4
      5.619128196458625e-4 5.689447970579034e-4 5.760645624143489e-4 5.832732101391901e-4
      5.905718481907839e-4 5.979615982478790e-4 6.054435959231192e-4 6.130189909105849e-4
      6.206889471234074e-4 6.284546428849519e-4 6.363172711119996e-4 6.442780394896738e-4
      6.523381706551135e-4 6.604989023700716e-4 6.687614877183333e-4 6.771271953112658e-4
      6.855973094413428e-4 6.941731302729249e-4 7.028559740818043e-4 7.116471734163936e-4
      7.205480772902151e-4 7.295600514051539e-4 7.386844783476900e-4 7.479227577868509e-4
      7.572763066752964e-4 7.667465594996386e-4 7.763349684692238e-4 7.860430037153153e-4
      7.958721535428941e-4 8.058239246261687e-4 8.158998422220662e-4 8.261014504325965e-4
      8.364303124307860e-4 8.468880106638577e-4 8.574761471034131e-4 8.681963434745143e-4
      8.790502415042923e-4 8.900395031897995e-4 9.011658110207312e-4 9.124308682102120e-4
      9.238363989381968e-4 9.353841486295609e-4 9.470758842328877e-4 9.589133944800793e-4
      9.708984901241886e-4 9.830330041668336e-4 9.953187921906101e-4 1.007757732629147e-3
      1.020351727014331e-3 1.033102700259398e-3 1.046012600953123e-3 1.059083401677239e-3
      1.072317099248631e-3 1.085715715003398e-3 1.099281295112816e-3 1.113015910881131e-3
      1.126921659093911e-3 1.141000662286646e-3 1.155255069022703e-3 1.169687054192396e-3
      1.184298819389064e-3 1.199092593261234e-3 1.214070631765010e-3 1.229235218470244e-3
      1.244588664937574e-3 1.260133311080301e-3 1.275871525442611e-3 1.291805705579360e-3
      1.307938278451554e-3 1.324271700698057e-3 1.340808458963335e-3 1.357551070335035e-3
      1.374502082734334e-3 1.391664075205951e-3 1.409039658278037e-3 1.426631474396463e-3
      1.444442198270377e-3 1.462474537266560e-3 1.480731231795499e-3 1.499215055703928e-3
      1.517928816670368e-3 1.536875356613101e-3 1.556057552122505e-3 1.575478314830170e-3
      1.595140591750530e-3 1.615047365843343e-3 1.635201656428434e-3 1.655606519457044e-3
      1.676265048053010e-3 1.697180372964115e-3 1.718355662985825e-3 1.739794125482591e-3
      1.761499006705193e-3 1.783473592275087e-3 1.805721207807073e-3 1.828245219205465e-3
      1.851049033136245e-3 1.874136097589201e-3 1.897509902310724e-3 1.921173979307307e-3
      1.945131903335787e-3 1.969387292402075e-3 1.993943808264762e-3 2.018805156944079e-3
      2.043975089236357e-3 2.069457401233883e-3 2.095255934850247e-3 2.121374578351222e-3
      2.147817266891213e-3 2.174587983055337e-3 2.201690757407176e-3 2.229129669042230e-3
      2.256908846147070e-3 2.285032466564259e-3 2.313504758361586e-3 2.342330000418192e-3
      2.371512523043410e-3 2.401056708515434e-3 2.430966991596214e-3 2.461247860277846e-3
      2.491903856300929e-3 2.522939575686357e-3 2.554359669547652e-3 2.586168844690247e-3
      2.618371864141678e-3 2.650973547896569e-3 2.683978773492730e-3 2.717392476579406e-3
      2.751219651712617e-3 2.785465352946344e-3 2.820134694523915e-3 2.855232851550168e-3
      2.890765060674306e-3 2.926736620779129e-3 2.963152893676803e-3 3.000019304811214e-3
      3.037341343967039e-3 3.075124565985484e-3 3.113374591486739e-3 3.152097107599202e-3
      3.191297868695463e-3 3.230982697135099e-3 3.271157484014299e-3 3.311828189922347e-3
      3.353000845704969e-3 3.394681553234596e-3 3.436876486187541e-3 3.479591890828109e-3
      3.522834086799675e-3 3.566609467922731e-3 3.610924502999919e-3 3.655785736628078e-3
      3.701199790017291e-3 3.747173361816968e-3 3.793713228948953e-3 3.840826247447685e-3
      3.888519353307379e-3 3.936799563336277e-3 3.985673976017937e-3 4.035149772379565e-3
      4.085234216867394e-3 4.135934658229093e-3 4.187258530403215e-3 4.239213353415653e-3
      4.291806734283094e-3 4.345046367923483e-3 4.398940038073424e-3 4.453495618212563e-3
      4.508721072494871e-3 4.564624456686883e-3 4.621213919112842e-3 4.678497701604442e-3
      4.736484140470687e-3 4.795181667517723e-3 4.854598810983690e-3 4.914744196353919e-3
      4.975626547386780e-3 5.037254687183689e-3 5.099637539385195e-3 5.162784129138647e-3
      5.226703583792244e-3 5.291405134073194e-3 5.356898115168529e-3 5.423191967694423e-3
      5.490296238754729e-3 5.558220582978821e-3 5.626974763569735e-3 5.696568653357725e-3
      5.767012235859550e-3 5.838315606343231e-3 5.910488972898288e-3 5.983542657511242e-3
      6.057487097146330e-3 6.132332844831229e-3 6.208090570747691e-3 6.284771063326923e-3
      6.362385230349559e-3 6.440944100050049e-3 6.520458822225317e-3 6.600940669347497e-3
      6.682401037680554e-3 6.764851448400620e-3 6.848303548719804e-3 6.932769113013332e-3
      7.018260043949703e-3 7.104788373623738e-3 7.192366264692202e-3 7.281006011511810e-3
      7.370720041279317e-3 7.461520915173469e-3 7.553421329498500e-3 7.646434116828931e-3
      7.740572247155333e-3 7.835848829030773e-3 7.932277110717624e-3 8.029870481334399e-3
      8.128642472002250e-3 8.228606756990850e-3 8.329777154863187e-3 8.432167629618974e-3
      8.535792291836239e-3 8.640665399810716e-3 8.746801360692588e-3 8.854214731620168e-3
      8.962920220850076e-3 9.072932688883412e-3 9.184267149587498e-3 9.296938771312641e-3
      9.410962878003444e-3 9.526354950304128e-3 9.643130626657294e-3 9.761305704395626e-3
      9.880896140825854e-3 1.000191805430450e-2 1.012438772530468e-2 1.024832159747339e-2
      1.037373627867865e-2 1.050064854204565e-2 1.062907532698151e-2 1.075903374018758e-2
      1.089054105665890e-2 1.102361472066968e-2 1.115827234674438e-2 1.129453172061329e-2
      1.143241080015199e-2 1.157192771630365e-2 1.171310077398344e-2 1.185594845296405e-2
      1.200048940874145e-2 1.214674247337982e-2 1.229472665633481e-2 1.244446114525397e-2
      1.259596530675342e-2 1.274925868716962e-2 1.290436101328510e-2 1.306129219302711e-2
      1.322007231613795e-2 1.338072165481578e-2 1.354326066432477e-2 1.370770998357308e-2
      1.387409043565773e-2 1.404242302837465e-2 1.421272895469282e-2 1.438502959319091e-2
      1.455934650845508e-2 1.473570145143634e-2 1.491411635976606e-2 1.509461335802801e-2
      1.527721475798526e-2 1.546194305876044e-2 1.564882094696744e-2 1.583787129679304e-2
      1.602911717002657e-2 1.622258181603573e-2 1.641828867168683e-2 1.661626136120732e-2
      1.681652369598889e-2 1.701909967432890e-2 1.722401348110814e-2 1.743128948740287e-2
      1.764095225002881e-2 1.785302651101492e-2 1.806753719700483e-2 1.828450941858318e-2
      1.850396846952498e-2 1.872593982596503e-2 1.895044914548529e-2 1.917752226611734e-2
      1.940718520525737e-2 1.963946415849115e-2 1.987438549832581e-2 2.011197577282615e-2
      2.035226170415197e-2 2.059527018699403e-2 2.084102828690504e-2 2.108956323852311e-2
      2.134090244368400e-2 2.159507346941919e-2 2.185210404583645e-2 2.211202206387928e-2
      2.237485557296196e-2 2.264063277847654e-2 2.290938203916817e-2 2.318113186437492e-2
      2.345591091112859e-2 2.373374798111215e-2 2.401467201747034e-2 2.429871210146898e-2
      2.458589744899900e-2 2.487625740692101e-2 2.516982144924595e-2 2.546661917314743e-2
      2.576668029480131e-2 2.607003464504789e-2 2.637671216487191e-2 2.668674290069564e-2
      2.700015699948026e-2 2.731698470363022e-2 2.763725634569584e-2 2.796100234286869e-2
      2.828825319126446e-2 2.861903945998816e-2 2.895339178497569e-2 2.929134086260656e-2
      2.963291744308179e-2 2.997815232356119e-2 3.032707634105409e-2 3.067972036505736e-2
      3.103611528993473e-2 3.139629202703080e-2 3.176028149651358e-2 3.212811461893896e-2
      3.249982230653031e-2 3.287543545416666e-2 3.325498493007242e-2 3.363850156620165e-2
      3.402601614830973e-2 3.441755940570526e-2 3.481316200067467e-2 3.521285451757217e-2
      3.561666745156730e-2 3.602463119704236e-2 3.643677603563185e-2 3.685313212389604e-2
      3.727372948062016e-2 3.769859797373146e-2 3.812776730682529e-2 3.856126700529212e-2
      3.899912640203641e-2 3.944137462277901e-2 3.988804057093387e-2 4.033915291205028e-2
      4.079474005781131e-2 4.125483014957943e-2 4.171945104147968e-2 4.218863028301102e-2
      4.266239510117633e-2 4.314077238212115e-2 4.362378865227137e-2 4.411147005895995e-2
      4.460384235053260e-2 4.510093085592205e-2 4.560276046368089e-2 4.610935560046241e-2
      4.662074020893877e-2 4.713693772514644e-2 4.765797105524739e-2 4.818386255169612e-2
      4.871463398880086e-2 4.925030653766857e-2 4.979090074052230e-2 5.033643648437995e-2
      5.088693297408318e-2 5.144240870466536e-2 5.200288143304687e-2 5.256836814904682e-2
      5.313888504569948e-2 5.371444748886396e-2 5.429506998611578e-2 5.488076615490880e-2
      5.547154868999570e-2 5.606742933009582e-2 5.666841882379863e-2 5.727452689469120e-2
      5.788576220569829e-2 5.850213232262361e-2 5.912364367688045e-2 5.975030152740077e-2
      6.038210992171093e-2 6.101907165616314e-2 6.166118823531117e-2 6.230845983041951e-2
      6.296088523709480e-2 6.361846183202862e-2 6.428118552884139e-2 6.494905073301625e-2
      6.562205029591295e-2 6.630017546785152e-2 6.698341585025585e-2 6.767175934684709e-2
      6.836519211387792e-2 6.906369850939827e-2 6.976726104154341e-2 7.047586031583629e-2
      7.118947498149540e-2 7.190808167674055e-2 7.263165497308920e-2 7.336016731863594e-2
      7.409358898030868e-2 7.483188798509534e-2 7.557503006023557e-2 7.632297857237191e-2
      7.707569446565623e-2 7.783313619880739e-2 7.859525968111636e-2 7.936201820739650e-2
      8.013336239187698e-2 8.090924010103752e-2 8.168959638538452e-2 8.247437341016838e-2
      8.326351038504322e-2 8.405694349267119e-2 8.485460581627377e-2 8.565642726613433e-2
      8.646233450505665e-2 8.727225087278523e-2 8.808609630939440e-2 8.890378727765457e-2
      8.972523668438461e-2 9.055035380080131e-2 9.137904418187754e-2 9.221120958472230e-2
      9.304674788599772e-2 9.388555299838847e-2 9.472751478614168e-2 9.557251897969635e-2
      9.642044708942315e-2 9.727117631849682e-2 9.812457947492605e-2 9.898052488276628e-2
      9.983887629254362e-2 1.006994927909202e-1 1.015622287096322e-1 1.024269335337347e-1
      1.032934518091908e-1 1.041616230498410e-1 1.050312816437958e-1 1.059022567592935e-1
      1.067743722500690e-1 1.076474465602812e-1 1.085212926290507e-1 1.093957177946599e-1
      1.102705236984727e-1 1.111455061886311e-1 1.120204552235933e-1 1.128951547755746e-1
      1.137693827339623e-1 1.146429108087732e-1 1.155155044342296e-1 1.163869226725306e-1
      1.172569181179005e-1 1.181252368009974e-1 1.189916180937725e-1 1.198557946148689e-1
      1.207174921356592e-1 1.215764294870170e-1 1.224323184669295e-1 1.232848637490562e-1
      1.241337627923458e-1 1.249787057518272e-1 1.258193753906943e-1 1.266554469938082e-1
      1.274865882827462e-1 1.283124593325314e-1 1.291327124901783e-1 1.299469922951990e-1
      1.307549354022169e-1 1.315561705058379e-1 1.323503182679392e-1 1.331369912475338e-1
      1.339157938333808e-1 1.346863221795106e-1 1.354481641438445e-1 1.362008992300888e-1
      1.369440985330924e-1 1.376773246878595e-1 1.384001318224165e-1 1.391120655147362e-1
      1.398126627539276e-1 1.405014519059069e-1 1.411779526837690e-1 1.418416761230843e-1
      1.424921245623525e-1 1.431287916288493e-1 1.437511622301087e-1 1.443587125512872e-1
      1.449509100586633e-1 1.455272135095309e-1 1.460870729687509e-1 1.466299298322288e-1
      1.471552168575938e-1 1.476623582023600e-1 1.481507694698531e-1 1.486198577631940e-1
      1.490690217476341e-1 1.494976517215427e-1 1.499051296963511e-1 1.502908294857632e-1
      1.506541168045466e-1 1.509943493772232e-1 1.513108770569807e-1 1.516030419551335e-1
      1.518701785814612e-1 1.521116139957602e-1 1.523266679709452e-1 1.525146531680402e-1
      1.526748753234023e-1 1.528066334485240e-1 1.529092200427605e-1 1.529819213193317e-1
      1.530240174449492e-1 1.530347827934195e-1 1.530134862135754e-1 1.529593913118877e-1
      1.528717567501083e-1 1.527498365582955e-1 1.525928804635709e-1 1.524001342349539e-1
      1.521708400446203e-1 1.519042368459235e-1 1.515995607685174e-1 1.512560455309140e-1
      1.508729228708003e-1 1.504494229934394e-1 1.499847750384668e-1 1.494782075653905e-1
      1.489289490580916e-1 1.483362284486146e-1 1.476992756605250e-1 1.470173221721003e-1
      1.462896015996090e-1 1.455153503009177e-1 1.446938079996522e-1 1.438242184301220e-1
      1.429058300032028e-1 1.419378964933502e-1 1.409196777469008e-1 1.398504404117952e-1
      1.387294586888363e-1 1.375560151045710e-1 1.363294013058607e-1 1.350489188761782e-1
      1.337138801736426e-1 1.323236091907722e-1 1.308774424359081e-1 1.293747298362250e-1
      1.278148356622166e-1 1.261971394735040e-1 1.245210370857801e-1 1.227859415586661e-1
      1.209912842042134e-1 1.191365156157467e-1 1.172211067166966e-1 1.152445498290305e-1
      1.132063597608405e-1 1.111060749126028e-1 1.089432584015728e-1 1.067174992037303e-1
      1.044284133126383e-1 1.020756449145257e-1 9.965886757885110e-2 9.717778546354767e-2
      9.463213453409701e-2 9.202168379551756e-2 8.934623653629895e-2 8.660563158325175e-2
      8.379974456618289e-2 8.092848919124513e-2 7.799181852174685e-2 7.498972626514462e-2
      7.192224806487708e-2 6.878946279563227e-2 6.559149386057470e-2 6.232851048898933e-2
      5.900072903273152e-2 5.560841425979978e-2 5.215188064327741e-2 4.863149364381419e-2
      4.504767098374574e-2 4.140088391087068e-2 3.769165844982995e-2 3.392057663895534e-2
      3.008827775037749e-2 2.619545949110947e-2 2.224287918275016e-2 1.823135491738601e-2
      1.416176668721092e-2 1.003505748533719e-2 5.852234375237504e-3 1.614369526244674e-3
      -2.677398787454753e-3 -7.021865226856974e-3 -1.141775646965654e-2 -1.586373033557717e-2
      -2.035837495769529e-2 -2.490020800172590e-2 -2.948767593498358e-2 -3.411915334642559e-2
      -3.879294231883287e-2 -4.350727185379780e-2 -4.826029734977800e-2 -5.305010013306237e-2
      -5.787468704110310e-2 -6.273199005732478e-2 -6.761986599626457e-2 -7.253609623775851e-2
      -7.747838650891021e-2 -8.244436671279253e-2 -8.743159080327285e-2 -9.243753670604555e-2
      -9.745960628691430e-2 -1.024951253695987e-1 -1.075413438068330e-1 -1.125954356102493e-1
      -1.176544991464471e-1 -1.227155574086670e-1 -1.277755583755077e-1 -1.328313754700181e-1
      -1.378798081340968e-1 -1.429175825342570e-1 -1.479413524152710e-1 -1.529477001178295e-1
      -1.579331377750003e-1 -1.628941086999061e-1 -1.678269889737311e-1 -1.727280892390781e-1
      -1.775936566991554e-1 -1.824198773186527e-1 -1.872028782179003e-1 -1.919387302483989e-1
      -1.966234507353691e-1 -2.012530063717655e-1 -2.058233162482606e-1 -2.103302550048619e-1
      -2.147696560918532e-1 -2.191373151302982e-1 -2.234289933650896e-1 -2.276404212061629e-1
      -2.317673018557855e-1 -2.358053150216320e-1 -2.397501207165925e-1 -2.435973631469435e-1
      -2.473426746906731e-1 -2.509816799675011e-1 -2.545100000015503e-1 -2.579232564768088e-1
      -2.612170760845723e-1 -2.643870949610306e-1 -2.674289632121384e-1 -2.703383495219224e-1
      -2.731109458394634e-1 -2.757424721389705e-1 -2.782286812466467e-1 -2.805653637274435e-1
      -2.827483528243036e-1 -2.847735294421065e-1 -2.866368271682425e-1 -2.883342373215455e-1
      -2.898618140212049e-1 -2.912156792672355e-1 -2.923920280241097e-1 -2.933871332992346e-1
      -2.941973512080801e-1 -2.948191260179250e-1 -2.952489951623800e-1 -2.954835942190591e-1
      -2.955196618430087e-1 -2.953540446487479e-1 -2.949837020340346e-1 -2.944057109387373e-1
      -2.936172705324632e-1 -2.926157068248678e-1 -2.913984771928431e-1 -2.899631748190571e-1
      -2.883075330365857e-1 -2.864294295746450e-1 -2.843268907006904e-1 -2.819980952544014e-1
      -2.794413785693124e-1 -2.766552362780812e-1 -2.736383279976019e-1 -2.703894808903702e-1
      -2.669076930986937e-1 -2.631921370484994e-1 -2.592421626196350e-1 -2.550573001796734e-1
      -2.506372634783211e-1 -2.459819523995920e-1 -2.410914555689397e-1 -2.359660528125365e-1
      -2.306062174658582e-1 -2.250126185286585e-1 -2.191861226633154e-1 -2.131277960333897e-1
      -2.068389059790583e-1 -2.003209225258709e-1 -1.935755197230336e-1 -1.866045768071358e-1
      -1.794101791869283e-1 -1.719946192444143e-1 -1.643603969471475e-1 -1.565102202662416e-1
      -1.484470053941873e-1 -1.401738767561582e-1 -1.316941668080615e-1 -1.230114156141774e-1
      -1.141293701968261e-1 -1.050519836501224e-1 -9.578341400954217e-2 -8.632802286872781e-2
      -7.669037373474459e-2 -6.687523011285423e-2 -5.688755331183906e-2 -4.673249996099466e-2
      -3.641541923014220e-2 -2.594184974441339e-2 -1.531751618615325e-2 -4.548325577091284e-3
      6.359636765011290e-3 1.740011159972248e-2 2.856667047021560e-2 3.985272074349055e-2
      5.125151098341577e-2 6.275613665303553e-2 7.435954613990483e-2 8.605454709533266e-2
      9.783381307539605e-2 1.096898904685326e-1 1.216152056915505e-1 1.336020726331697e-1
      1.456427003219175e-1 1.577292007935672e-1 1.698535971325803e-1 1.820078316624611e-1
      1.941837742618475e-1 2.063732307868185e-1 2.185679515855720e-1 2.307596400995258e-1
      2.429399615551891e-1 2.551005517638773e-1 2.672330260614078e-1 2.793289884370116e-1
      2.913800409192349e-1 3.033777933056164e-1 3.153138733409171e-1 3.271799374634605e-1
      3.389676822476060e-1 3.506688566682668e-1 3.622752752949922e-1 3.737788324812261e-1
      3.851715175401064e-1 3.964454307817682e-1 4.075928001188915e-1 4.186059977201134e-1
      4.294775559042058e-1 4.402001811328561e-1 4.507667646064021e-1 4.611703876503420e-1
      4.714043198854830e-1 4.814620082118725e-1 4.913370550272848e-1 5.010231849451020e-1
      5.105142006066350e-1 5.198039299134503e-1 5.288861688966272e-1 5.377546261065280e-1
      5.464028753882094e-1 5.548243238009693e-1 5.630122000563567e-1 5.709595663267518e-1
      5.786593530940751e-1 5.861044135593718e-1 5.932875917139001e-1 6.002017969559398e-1
      6.068400782478058e-1 6.131956920205118e-1 6.192621599015395e-1 6.250333143650037e-1
      6.305033321793172e-1 6.356667568219885e-1 6.405185117830859e-1 6.450539069523966e-1
      6.492686402083931e-1 6.531587960389503e-1 6.567208426424722e-1 6.599516285673853e-1
      6.628483795974873e-1 6.654086963030307e-1 6.676305524571942e-1 6.695122943589724e-1
      6.710526409962022e-1 6.722506849152195e-1 6.731058936262214e-1 6.736181113572670e-1
      6.737875609683615e-1 6.736148458453137e-1 6.731009516073762e-1 6.722472474805134e-1
      6.710554872076978e-1 6.695278093876249e-1 6.676667371528281e-1 6.654751771167832e-1
      6.629564175368396e-1 6.601141256555280e-1 6.569523441968435e-1 6.534754870064869e-1
      6.496883338358336e-1 6.455960242786314e-1 6.412040508772768e-1 6.365182514220537e-1
      6.315448004721213e-1 6.262902001314002e-1 6.207612701159797e-1 6.149651371523373e-1
      6.089092237476499e-1 6.026012363748538e-1 5.960491531159442e-1 5.892612108073669e-1
      5.822458917312751e-1 5.750119098959381e-1 5.675681969477270e-1 5.599238877558667e-1
      5.520883057095437e-1 5.440709477650110e-1 5.358814692780176e-1 5.275296686542250e-1
      5.190254718472596e-1 5.103789167307044e-1 5.016001373666756e-1 4.926993481897041e-1
      4.836868281185584e-1 4.745729046162824e-1 4.653679376842792e-1 4.560823038132856e-1
      4.467263798784148e-1 4.373105269753160e-1 4.278450741895814e-1 4.183403022898871e-1
      4.088064273349044e-1 3.992535841850558e-1 3.896918099129048e-1 3.801310271105561e-1
      3.705810270990133e-1 3.610514530529994e-1 3.515517830652421e-1 3.420913131863998e-1
      3.326791404903636e-1 3.233241462291054e-1 3.140349791559782e-1 3.048200391107843e-1
      2.956874609730533e-1 2.866450991015479e-1 2.777005123869953e-1 2.688609500501779e-1
      2.601333383199570e-1 2.515242681242829e-1 2.430399839209360e-1 2.346863737849356e-1
      2.264689608562975e-1 2.183928962353048e-1 2.104629533934605e-1 2.026835241475497e-1
      1.950586162225390e-1 1.875918524071367e-1 1.802864712844915e-1 1.731453295003672e-1
      1.661709055127460e-1 1.593653047506250e-1 1.527302660960685e-1 1.462671695925268e-1
      1.399770452740990e-1 1.338605830047151e-1 1.279181432130287e-1 1.221497684079072e-1
      1.165551953605337e-1 1.111338678420054e-1 1.058849498096121e-1 1.008073389404173e-1
      9.589968041705163e-2 9.116038087749551e-2 8.658762244784118e-2 8.217937678438014e-2
      7.793341905868553e-2 7.384734182651469e-2 6.991856872823869e-2 6.614436797503709e-2
      6.252186558122546e-2 5.904805830878441e-2 5.571982629541889e-2 5.253394534230011e-2
      4.948709884204108e-2 4.657588933145033e-2 4.379684965721514e-2 4.114645374590959e-2
      3.862112697261987e-2 3.621725612504550e-2 3.393119896218212e-2 3.175929336862993e-2
      2.969786610719435e-2 2.774324117377247e-2 2.589174775955953e-2 2.413972782632623e-2
      2.248354330097212e-2 2.091958289576289e-2 1.944426856059847e-2 1.805406157338966e-2
      1.674546827418403e-2 1.551504544810930e-2 1.435940536154516e-2 1.327522045524268e-2
      1.225922769743460e-2 1.130823259936738e-2 1.041911289518080e-2 9.588821887700782e-3
      8.814391461525082e-3 8.092934764789700e-3 7.421648561217729e-3 6.797815254472389e-3
      6.218804587454597e-3 5.682075019986897e-3 5.185174789286574e-3 4.725742658723754e-3
      4.301508361552759e-3 3.910292747563374e-3 3.550007641887754e-3 3.218655426484622e-3
      2.914328356072749e-3 2.635207621471058e-3 2.379562174396796e-3 2.145747328754215e-3
      1.932203154295982e-3 1.737452679244611e-3 1.560099919012186e-3 1.398827748548243e-3
      1.252395636076151e-3 1.119637256049746e-3 9.994579990787495e-4 8.908323963412103e-4
      7.928014756330692e-4 7.044700657101415e-4 6.250040649685928e-4 5.536276897996975e-4
      4.896207171570049e-4 4.323157350031345e-4 3.810954133731967e-4 3.353898078161023e-4
      2.946737059670342e-4 2.584640269767679e-4 2.263172824882486e-4 1.978271068189071e-4
      1.726218629886970e-4 1.503623302378902e-4 1.307394777135010e-4 1.134723280744791e-4
      9.830591388720290e-5 8.500932883103705e-5 7.337387498208959e-5 6.321130668724696e-5
      5.435217087901735e-5 4.664424308216680e-5 3.995105780748997e-5 3.415053153810088e-5
      2.913367608397946e-5 2.480339970769546e-5 2.107339310720544e-5 1.786709707816255e-5
      1.511674846424488e-5 1.276250085235688e-5 1.075161624139672e-5 9.037725194989921e-6
      7.580139225235341e-6 6.343298441772351e-6 5.295973143716942e-6 4.411278472849224e-6
      3.665882361351822e-6 3.039354729837365e-6 2.513971497814631e-6 2.074447833357062e-6
      1.707634222965527e-6 1.402245759148263e-6 1.148621647311056e-6 9.385121282878590e-7
      7.648901989495238e-7 6.217856964213721e-7 5.041394900461079e-7 4.076756985233629e-7
      3.287900164646432e-7 2.644523945052702e-7 2.121224694571952e-7 1.696762853026348e-7
      1.353429819010302e-7 1.076502559331590e-7 8.537751777418851e-8 6.751577871449572e-8
      5.323340535703402e-8 4.184697230916589e-8 3.279653071248952e-8 2.562468902376281e-8
      1.995897412093129e-8 1.549700563807120e-8 1.199407483058511e-8 9.252771649004279e-9
      7.114350473850672e-9 5.451566549717882e-9 4.162751970297569e-9 3.166932463508636e-9
      2.399814779682629e-9 1.810498561459373e-9 1.358791598337634e-9 1.013008129518558e-9
      7.482235916865687e-10 5.446750532149409e-10 3.877770852166924e-10 2.604393876389282e-10
      0.000000000000000e0 0.000000000000000e0 0.000000000000000e0 0.000000000000000e0
      0.000000000000000e0 0.000000000000000e0 0.000000000000000e0 0.000000000000000e0
      0.000000000000000e0 0.000000000000000e0 0.000000000000000e0 0.000000000000000e0
      0.000000000000000e0 0.000000000000000e0 0.000000000000000e0 0.000000000000000e0
      0.000000000000000e0 0.000000000000000e0 0.000000000000000e0 0.000000000000000e0
      0.000000000000000e0 0.000000000000000e0 0.000000000000000e0 0.000000000000000e0
      0.000000000000000e0 0.000000000000000e0 0.000000000000000e0 0.000000000000000e0
      0.000000000000000e0 0.000000000000000e0 0.000000000000000e0 0.000000000000000e0
      0.000000000000000e0 0.000000000000000e0 0.000000000000000e0 0.000000000000000e0
      0.000000000000000e0 0.000000000000000e0 0.000000000000000e0 0.000000000000000e0
      0.000000000000000e0 0.000000000000000e0 0.000000000000000e0 0.000000000000000e0
      0.000000000000000e0 0.000000000000000e0 0.000000000000000e0 0.000000000000000e0
      0.000000000000000e0 0.000000000000000e0 0.000000000000000e0 0.000000000000000e0
      0.000000000000000e0 0.000000000000000e0 0.000000000000000e0 0.000000000000000e0
      0.000000000000000e0 0.000000000000000e0 0.000000000000000e0 0.000000000000000e0
      0.000000000000000e0 0.000000000000000e0 0.000000000000000e0 0.000000000000000e0
      0.000000000000000e0 0.000000000000000e0 0.000000000000000e0 0.000000000000000e0
      0.000000000000000e0 0.000000000000000e0 0.000000000000000e0 0.000000000000000e0
      0.000000000000000e0 0.000000000000000e0 0.000000000000000e0 0.000000000000000e0
      0.000000000000000e0 0.000000000000000e0 0.000000000000000e0 0.000000000000000e0
      0.000000000000000e0 0.000000000000000e0 0.000000000000000e0 0.000000000000000e0
      0.000000000000000e0 0.000000000000000e0 0.000000000000000e0 0.000000000000000e0
      0.000000000000000e0 0.000000000000000e0 0.000000000000000e0
      </PP_AEWFC.1>
    <PP_AEWFC.2 index="2" label="3S" l="0">
      7.018108946003675e-4 7.105985286153508e-4 7.194961958489343e-4 7.285052740677801e-4
      7.376270394865514e-4 7.468626505670629e-4 7.562135934867067e-4 7.656812946913756e-4
      7.752672112996679e-4 7.849728185231197e-4 7.947996098780655e-4 8.047490974123360e-4
      8.148228119396100e-4 8.250223032702170e-4 8.353491404254346e-4 8.458049118686722e-4
      8.563912257604938e-4 8.671097102364136e-4 8.779620136403988e-4 8.889498047233335e-4
      9.000747729184477e-4 9.113386286113052e-4 9.227431033935702e-4 9.342899503166480e-4
      9.459809441112856e-4 9.578178814855443e-4 9.698025814667899e-4 9.819368856380201e-4
      9.942226583582986e-4 1.006661787068986e-3 1.019256182587162e-3 1.032007779385819e-3
      1.044918535888068e-3 1.057990434743607e-3 1.071225483144942e-3 1.084625713156635e-3
      1.098193181961219e-3 1.111929972164785e-3 1.125838192180686e-3 1.139919976487723e-3
      1.154177485938475e-3 1.168612908116905e-3 1.183228457652676e-3 1.198026376538233e-3
      1.213008934450900e-3 1.228178429153835e-3 1.243537186798422e-3 1.259087562243313e-3
      1.274831939457768e-3 1.290772731834813e-3 1.306912382533208e-3 1.323253364897699e-3
      1.339798182820914e-3 1.356549371068816e-3 1.373509495681436e-3 1.390681154339817e-3
      1.408066976764229e-3 1.425669625143209e-3 1.443491794490315e-3 1.461536213013793e-3
      1.479805642506452e-3 1.498302878791104e-3 1.517030752167119e-3 1.535992127826272e-3
      1.555189906233688e-3 1.574627023492110e-3 1.594306451874353e-3 1.614231200255876e-3
      1.634404314510775e-3 1.654828877965235e-3 1.675508011868754e-3 1.696444875902579e-3
      1.717642668567655e-3 1.739104627639607e-3 1.760834030674857e-3 1.782834195487617e-3
      1.805108480707876e-3 1.827660286211627e-3 1.850493053566087e-3 1.873610266508742e-3
      1.897015451549738e-3 1.920712178535968e-3 1.944704061055336e-3 1.968994756927165e-3
      1.993587968806138e-3 2.018487444761933e-3 2.043696978724868e-3 2.069220411094234e-3
      2.095061629371758e-3 2.121224568596810e-3 2.147713211871377e-3 2.174531591060950e-3
      2.201683787419792e-3 2.229173932055445e-3 2.257006206505194e-3 2.285184843431694e-3
      2.313714127176469e-3 2.342598394391566e-3 2.371842034657959e-3 2.401449491114300e-3
      2.431425261090474e-3 2.461773896761074e-3 2.492500005837901e-3 2.523608252161183e-3
      2.555103356246780e-3 2.586990096187153e-3 2.619273308315675e-3 2.651957887641237e-3
      2.685048788715106e-3 2.718551026353860e-3 2.752469676318114e-3 2.786809876147508e-3
      2.821576825669005e-3 2.856775787772676e-3 2.892412089409081e-3 2.928491122063637e-3
      2.965018342512862e-3 3.001999273724803e-3 3.039439505552236e-3 3.077344695539146e-3
      3.115720569705958e-3 3.154572923348362e-3 3.193907621843955e-3 3.233730601467450e-3
      3.274047870214694e-3 3.314865508635339e-3 3.356189670674286e-3 3.398026584522012e-3
      3.440382553473803e-3 3.483263956798008e-3 3.526677250613377e-3 3.570628968775541e-3
      3.615125723772589e-3 3.660174207629921e-3 3.705781192821970e-3 3.751953533211025e-3
      3.798698165038401e-3 3.846022107787231e-3 3.893932465007141e-3 3.942436425509768e-3
      3.991541264198972e-3 4.041254342922596e-3 4.091583111773593e-3 4.142535110049876e-3
      4.194117967103498e-3 4.246339403533883e-3 4.299207232110528e-3 4.352729358683137e-3
      4.406913783455504e-3 4.461768601932371e-3 4.517302006026801e-3 4.573522285136745e-3
      4.630437827238720e-3 4.688057119991722e-3 4.746388751851595e-3 4.805441413195930e-3
      4.865223897459753e-3 4.925745102281843e-3 4.987014030661853e-3 5.049039792128232e-3
      5.111831603916984e-3 5.175398792161340e-3 5.239750793092348e-3 5.304897154250455e-3
      5.370847535708084e-3 5.437611711303262e-3 5.505199569884336e-3 5.573621116565785e-3
      5.642886473995182e-3 5.713005883631313e-3 5.783989707033491e-3 5.855848427162074e-3
      5.928592649690217e-3 6.002233104326863e-3 6.076780646151001e-3 6.152246256957179e-3
      6.228641046612308e-3 6.305976254423728e-3 6.384263250518564e-3 6.463513537234360e-3
      6.543738750520973e-3 6.624950661353751e-3 6.707161177157918e-3 6.790382343244238e-3
      6.874626344255843e-3 6.959905505626274e-3 7.046232295048655e-3 7.133619323955981e-3
      7.222079349012517e-3 7.311625273616289e-3 7.402270149412584e-3 7.494027177814894e-3
      7.586909711557985e-3 7.680931256331060e-3 7.776105472274732e-3 7.872446175286324e-3
      7.969967338662580e-3 8.068683094813144e-3 8.168607737175954e-3 8.269755721766730e-3
      8.372141668290062e-3 8.475780362026075e-3 8.580686755561056e-3 8.686875970339523e-3
      8.794363298359135e-3 8.903164203832468e-3 9.013294324865210e-3 9.124769475143095e-3
      9.237605645627889e-3 9.351819006262197e-3 9.467425907682960e-3 9.584442882943412e-3
      9.702886649243307e-3 9.822774109667174e-3 9.944122354930396e-3 1.006694866513287e-2
      1.019127051151993e-2 1.031710555825043e-2 1.044447166417151e-2 1.057338688459993e-2
      1.070386947310954e-2 1.083593788332471e-2 1.096961077071926e-2 1.110490699442066e-2
      1.124184561901906e-2 1.138044591638088e-2 1.152072736746650e-2 1.166270966415165e-2
      1.180641271105222e-2 1.195185662735184e-2 1.209906174863203e-2 1.224804862870425e-2
      1.239883804144355e-2 1.255145098262316e-2 1.270590867174967e-2 1.286223255389811e-2
      1.302044430154656e-2 1.318056581640953e-2 1.334261923126964e-2 1.350662691180697e-2
      1.367261145842547e-2 1.384059570807565e-2 1.401060273607308e-2 1.418265585791183e-2
      1.435677863107218e-2 1.453299485682193e-2 1.471132858201037e-2 1.489180410085434e-2
      1.507444595671529e-2 1.525927894386677e-2 1.544632810925129e-2 1.563561875422561e-2
      1.582717643629375e-2 1.602102697082651e-2 1.621719643276666e-2 1.641571115831876e-2
      1.661659774662240e-2 1.681988306140807e-2 1.702559423263419e-2 1.723375865810447e-2
      1.744440400506410e-2 1.765755821177384e-2 1.787324948906051e-2 1.809150632184272e-2
      1.831235747063039e-2 1.853583197299682e-2 1.876195914502175e-2 1.899076858270403e-2
      1.922229016334237e-2 1.945655404688261e-2 1.969359067722995e-2 1.993343078352450e-2
      2.017610538137841e-2 2.042164577407291e-2 2.067008355371341e-2 2.092145060234099e-2
      2.117577909299815e-2 2.143310149074708e-2 2.169345055363840e-2 2.195685933362833e-2
      2.222336117744214e-2 2.249298972738184e-2 2.276577892207578e-2 2.304176299716791e-2
      2.332097648594450e-2 2.360345421989566e-2 2.388923132920945e-2 2.417834324319590e-2
      2.447082569063844e-2 2.476671470007000e-2 2.506604659997105e-2 2.536885801888691e-2
      2.567518588546129e-2 2.598506742838312e-2 2.629854017624385e-2 2.661564195730179e-2
      2.693641089915063e-2 2.726088542828867e-2 2.758910426958545e-2 2.792110644564246e-2
      2.825693127604423e-2 2.859661837649644e-2 2.894020765784706e-2 2.928773932498703e-2
      2.963925387562644e-2 2.999479209894223e-2 3.035439507409343e-2 3.071810416859974e-2
      3.108596103657917e-2 3.145800761684037e-2 3.183428613082516e-2 3.221483908039684e-2
      3.259970924546929e-2 3.298893968147241e-2 3.338257371664863e-2 3.378065494917588e-2
      3.418322724411152e-2 3.459033473015208e-2 3.500202179620361e-2 3.541833308775683e-2
      3.583931350306175e-2 3.626500818909583e-2 3.669546253731971e-2 3.713072217921487e-2
      3.757083298159667e-2 3.801584104169661e-2 3.846579268200756e-2 3.892073444488513e-2
      3.938071308689874e-2 3.984577557292525e-2 4.031596906997842e-2 4.079134094076692e-2
      4.127193873697361e-2 4.175781019224864e-2 4.224900321490875e-2 4.274556588033503e-2
      4.324754642306129e-2 4.375499322854466e-2 4.426795482461062e-2 4.478647987256354e-2
      4.531061715795460e-2 4.584041558099793e-2 4.637592414662639e-2 4.691719195417753e-2
      4.746426818670074e-2 4.801720209987590e-2 4.857604301053404e-2 4.914084028477007e-2
      4.971164332563757e-2 5.028850156041540e-2 5.087146442743595e-2 5.146058136246408e-2
      5.205590178461618e-2 5.265747508180844e-2 5.326535059572299e-2 5.387957760628050e-2
      5.450020531560797e-2 5.512728283148957e-2 5.576085915028872e-2 5.640098313932938e-2
      5.704770351872382e-2 5.770106884263456e-2 5.836112747995763e-2 5.902792759441418e-2
      5.970151712403692e-2 6.038194376003859e-2 6.106925492504821e-2 6.176349775070165e-2
      6.246471905457250e-2 6.317296531642867e-2 6.388828265380063e-2 6.461071679684656e-2
      6.534031306249926e-2 6.607711632788025e-2 6.682117100296530e-2 6.757252100248630e-2
      6.833120971705359e-2 6.909727998348290e-2 6.987077405431107e-2 7.065173356648380e-2
      7.144019950919973e-2 7.223621219089345e-2 7.303981120534113e-2 7.385103539687170e-2
      7.466992282466621e-2 7.549651072612845e-2 7.633083547930872e-2 7.717293256436381e-2
      7.802283652403490e-2 7.888058092312539e-2 7.974619830696116e-2 8.061972015881418e-2
      8.150117685627185e-2 8.239059762653334e-2 8.328801050061402e-2 8.419344226644007e-2
      8.510691842081377e-2 8.602846312023116e-2 8.695809913053264e-2 8.789584777536824e-2
      8.884172888345796e-2 8.979576073462857e-2 9.075796000460732e-2 9.172834170855426e-2
      9.270691914331346e-2 9.369370382836447e-2 9.468870544545513e-2 9.569193177689659e-2
      9.670338864250192e-2 9.772307983514978e-2 9.875100705495409e-2 9.978716984202192e-2
      1.008315655077809e-1 1.018841890648580e-1 1.029450331554927e-1 1.040140879784659e-1
      1.050913412145270e-1 1.061767779503048e-1 1.072703806006812e-1 1.083721288296156e-1
      1.094819994694005e-1 1.105999664383361e-1 1.117260006568057e-1 1.128600699617399e-1
      1.140021390194532e-1 1.151521692368423e-1 1.163101186709301e-1 1.174759419367455e-1
      1.186495901135271e-1 1.198310106492386e-1 1.210201472633875e-1 1.222169398481371e-1
      1.234213243677035e-1 1.246332327560310e-1 1.258525928127376e-1 1.270793280973278e-1
      1.283133578216662e-1 1.295545967407100e-1 1.308029550414984e-1 1.320583382303969e-1
      1.333206470185998e-1 1.345897772058904e-1 1.358656195626635e-1 1.371480597102159e-1
      1.384369779993106e-1 1.397322493870234e-1 1.410337433118823e-1 1.423413235673115e-1
      1.436548481733938e-1 1.449741692469676e-1 1.462991328700762e-1 1.476295789567893e-1
      1.489653411184205e-1 1.503062465271634e-1 1.516521157781753e-1 1.530027627501380e-1
      1.543579944643269e-1 1.557176109422255e-1 1.570814050617211e-1 1.584491624119247e-1
      1.598206611466580e-1 1.611956718366546e-1 1.625739573205266e-1 1.639552725545496e-1
      1.653393644613240e-1 1.667259717773739e-1 1.681148248997475e-1 1.695056457316877e-1
      1.708981475274475e-1 1.722920347363232e-1 1.736870028459902e-1 1.750827382252249e-1
      1.764789179661022e-1 1.778752097257652e-1 1.792712715678640e-1 1.806667518037700e-1
      1.820612888336739e-1 1.834545109876829e-1 1.848460363670357e-1 1.862354726855628e-1
      1.876224171115216e-1 1.890064561099435e-1 1.903871652856373e-1 1.917641092269957e-1
      1.931368413507623e-1 1.945049037479192e-1 1.958678270308643e-1 1.972251301820528e-1
      1.985763204042852e-1 1.999208929728298e-1 2.012583310895764e-1 2.025881057394241e-1
      2.039096755491135e-1 2.052224866487234e-1 2.065259725360548e-1 2.078195539441399e-1
      2.091026387121156e-1 2.103746216597122e-1 2.116348844656166e-1 2.128827955499761e-1
      2.141177099613191e-1 2.153389692681757e-1 2.165459014556932e-1 2.177378208275472e-1
      2.189140279134594e-1 2.200738093826437e-1 2.212164379635088e-1 2.223411723699571e-1
      2.234472572346287e-1 2.245339230494474e-1 2.256003861138379e-1 2.266458484909909e-1
      2.276694979725624e-1 2.286705080522067e-1 2.296480379083472e-1 2.306012323966041e-1
      2.315292220523034e-1 2.324311231035069e-1 2.333060374950058e-1 2.341530529237388e-1
      2.349712428860962e-1 2.357596667375905e-1 2.365173697653760e-1 2.372433832741147e-1
      2.379367246856928e-1 2.385963976533017e-1 2.392213921904094e-1 2.398106848151518e-1
      2.403632387106884e-1 2.408780039020717e-1 2.413539174501895e-1 2.417899036633476e-1
      2.421848743270672e-1 2.425377289526811e-1 2.428473550453179e-1 2.431126283918722e-1
      2.433324133695626e-1 2.435055632756896e-1 2.436309206792072e-1 2.437073177947286e-1
      2.437335768795917e-1 2.437085106546133e-1 2.436309227491637e-1 2.434996081711969e-1
      2.433133538028749e-1 2.430709389224212e-1 2.427711357528456e-1 2.424127100381757e-1
      2.419944216478342e-1 2.415150252097942e-1 2.409732707731456e-1 2.403679045006985e-1
      2.396976693922449e-1 2.389613060390937e-1 2.381575534104846e-1 2.372851496724797e-1
      2.363428330399178e-1 2.353293426620077e-1 2.342434195421202e-1 2.330838074923250e-1
      2.318492541232023e-1 2.305385118694382e-1 2.291503390516958e-1 2.276835009752290e-1
      2.261367710656829e-1 2.245089320425003e-1 2.227987771303217e-1 2.210051113087415e-1
      2.191267526007449e-1 2.171625334001195e-1 2.151113018380962e-1 2.129719231894371e-1
      2.107432813181420e-1 2.084242801629063e-1 2.060138452624105e-1 2.035109253204765e-1
      2.009144938110724e-1 1.982235506230892e-1 1.954371237447631e-1 1.925542709875477e-1
      1.895740817491842e-1 1.864956788156501e-1 1.833182202015947e-1 1.800409010288067e-1
      1.766629554421748e-1 1.731836585625355e-1 1.696023284757157e-1 1.659183282569996e-1
      1.621310680301631e-1 1.582400070601324e-1 1.542446558782343e-1 1.501445784389115e-1
      1.459393943066841e-1 1.416287808720400e-1 1.372124755948359e-1 1.326902782736939e-1
      1.280620533397666e-1 1.233277321731445e-1 1.184873154400643e-1 1.135408754489692e-1
      1.084885585233534e-1 1.033305873892099e-1 9.806726357477704e-2 9.269896982015641e-2
      8.722617249424911e-2 8.164942401632505e-2 7.596936527940743e-2 7.018672807251637e-2
      6.430233749867532e-2 5.831711438543920e-2 5.223207768455761e-2 4.604834685723787e-2
      3.976714424132426e-2 3.338979739656395e-2 2.691774142398693e-2 2.035252125529331e-2
      1.369579390801769e-2 6.949330702134855e-3 1.150194336876851e-4 -6.805133499034372e-3
      -1.380900102125393e-2 -2.089433336385704e-2 -2.805875610630466e-2 -3.529976828452405e-2
      -4.261474056777867e-2 -5.000091350821703e-2 -5.745539586642825e-2 -6.497516301588153e-2
      -7.255705542861075e-2 -8.019777724393768e-2 -8.789389492143128e-2 -9.564183597870988e-2
      -1.034378878141474e-1 -1.112781966140946e-1 -1.191587663439271e-1 -1.270754578221412e-1
      -1.350239878769056e-1 -1.429999285849830e-1 -1.509987065938319e-1 -1.590156025290066e-1
      -1.670457504907246e-1 -1.750841376456636e-1 -1.831256039226685e-1 -1.911648418240288e-1
      -1.991963963672577e-1 -2.072146651757174e-1 -2.152138987398388e-1 -2.231882008738325e-1
      -2.311315293954276e-1 -2.390376970580003e-1 -2.469003727651485e-1 -2.547130830970720e-1
      -2.624692141758138e-1 -2.701620138924711e-1 -2.777845945139958e-1 -2.853299356805111e-1
      -2.927908877966816e-1 -3.001601758132415e-1 -3.074304033880170e-1 -3.145940574103240e-1
      -3.216435128689730e-1 -3.285710380425356e-1 -3.353687999910067e-1 -3.420288703302934e-1
      -3.485432312746172e-1 -3.549037819363948e-1 -3.611023448779058e-1 -3.671306729135604e-1
      -3.729804561654828e-1 -3.786433293781817e-1 -3.841108795001880e-1 -3.893746535417175e-1
      -3.944261667177571e-1 -3.992569108856172e-1 -4.038583632851108e-1 -4.082219955882691e-1
      -4.123392832640371e-1 -4.162017152618212e-1 -4.198008040162029e-1 -4.231280957736348e-1
      -4.261751812405717e-1 -4.289337065512729e-1 -4.313953845524749e-1 -4.335520064012678e-1
      -4.353954534718246e-1 -4.369177095661078e-1 -4.381108734233130e-1 -4.389671715225729e-1
      -4.394789711733354e-1 -4.396387938878106e-1 -4.394393290299533e-1 -4.388734477355751e-1
      -4.379342170983579e-1 -4.366149146167484e-1 -4.349090428969355e-1 -4.328103446073390e-1
      -4.303128176802581e-1 -4.274107307565215e-1 -4.240986388691556e-1 -4.203713993622159e-1
      -4.162241880410117e-1 -4.116525155499883e-1 -4.066522439744976e-1 -4.012196036625898e-1
      -3.953512102627817e-1 -3.890440819734946e-1 -3.822956569994977e-1 -3.751038112102353e-1
      -3.674668759943454e-1 -3.593836563039867e-1 -3.508534488817668e-1 -3.418760606621055e-1
      -3.324518273377500e-1 -3.225816320808830e-1 -3.122669244068201e-1 -3.015097391666593e-1
      -2.903127156534238e-1 -2.786791168042100e-1 -2.666128484786178e-1 -2.541184787912715e-1
      -2.412012574735534e-1 -2.278671352367328e-1 -2.141227831055031e-1 -1.999756116875022e-1
      -1.854337903407114e-1 -1.705062661966767e-1 -1.552027829932929e-1 -1.395338996664203e-1
      -1.235110086448739e-1 -1.071463537883471e-1 -9.045304790259447e-2 -7.344508976073444e-2
      -5.613738055383220e-2 -3.854573968801839e-2 -2.068691983929868e-2 -2.578621170940625e-3
      1.576049538808939e-2 3.431079591169296e-2 5.305166240687036e-2 7.196148302692349e-2
      9.101764369558605e-2 1.101965212766365e-1 1.294734784300531e-1 1.488228603021254e-1
      1.682179932030893e-1 1.876311854317564e-1 2.070337304121932e-1 2.263959123127172e-1
      2.456870143223223e-1 2.648753297640635e-1 2.839281762288249e-1 3.028119129164042e-1
      3.214919613739317e-1 3.399328298242881e-1 3.580981412795817e-1 3.759506656369606e-1
      3.934523559562176e-1 4.105643891210232e-1 4.272472110883957e-1 4.434605869344792e-1
      4.591636559091044e-1 4.743149917172467e-1 4.888726682526259e-1 5.027943310175090e-1
      5.160372744734127e-1 5.285585255798319e-1 5.403149337921684e-1 5.512632678053081e-1
      5.613603193450942e-1 5.705630143253143e-1 5.788285317013475e-1 5.861144303615356e-1
      5.923787844013281e-1 5.975803271204599e-1 6.016786040663689e-1 6.046341354135913e-1
      6.064085879141042e-1 6.069649565720532e-1 6.062677560821132e-1 6.042832219181689e-1
      6.009795207635790e-1 5.963269697343970e-1 5.902982635665273e-1 5.828687086298826e-1
      5.740164623234452e-1 5.637227761382247e-1 5.519722405134297e-1 5.387530296347300e-1
      5.240571446190986e-1 5.078806541705819e-1 4.902239328001760e-1 4.710918980180434e-1
      4.504942493432720e-1 4.284457132212090e-1 4.049662985870627e-1 3.800815674715899e-1
      3.538229234662568e-1 3.262279180978078e-1 2.973405716098846e-1 2.672117010129185e-1
      2.358992453459964e-1 2.034685765388511e-1 1.699927843324706e-1 1.355529252210982e-1
      1.002382277656028e-1 6.414624920451173e-2 2.738298044966677e-2 -9.937102063761872e-3
      -4.769103868173245e-2 -8.574744420446738e-2 -1.239666228273073e-1 -1.622007431507862e-1
      -2.002940769689588e-1 -2.380833063186381e-1 -2.753979038422833e-1 -3.120605918650836e-1
      -3.478878857234752e-1 -3.826907268317683e-1 -4.162752107610056e-1 -4.484434152503312e-1
      -4.789943325900035e-1 -5.077249102141317e-1 -5.344312026220872e-1 -5.589096369080563e-1
      -5.809583932132769e-1 -6.003789003183523e-1 -6.169774453559906e-1 -6.305668952397447e-1
      -6.409685258644523e-1 -6.480139534326355e-1 -6.515471603931212e-1 -6.514266064405412e-1
      -6.475274128166078e-1 -6.397436057786026e-1 -6.279904025634520e-1 -6.122065204873703e-1
      -5.923564869964883e-1 -5.684329255437476e-1 -5.404587891384265e-1 -5.084895103305350e-1
      -4.726150332940350e-1 -4.329616906095607e-1 -3.896938843768452e-1 -3.430155284764583e-1
      -2.931712062263423e-1 -2.404469954275715e-1 -1.851709109622903e-1 -1.277129138013908e-1
      -6.848443461614744e-2 -7.937360291596764e-3 5.343756735749810e-2 1.151129893258810e-1
      1.765278490472936e-1 2.370910348006026e-1 2.961857797613589e-1 3.531748469437840e-1
      4.074065169211723e-1 4.582213850113451e-1 5.049599614790898e-1 5.469710531797597e-1
      5.836208879248915e-1 6.143029237150231e-1 6.384482639350751e-1 6.555365767868421e-1
      6.651073928584291e-1 6.667716291030093e-1 6.602231610143253e-1 6.452502379400926e-1
      6.217465098717003e-1 5.897214084079803e-1 5.493096007464473e-1 5.007792144563923e-1
      4.445385134936080e-1 3.811406935857988e-1 3.112864589958968e-1 2.358240440671485e-1
      1.557463532153999e-1 7.218491350870988e-2 -1.359963403081206e-2 -1.002307335392189e-1
      -1.862329744497891e-1 -2.700531101161663e-1 -3.500850440535715e-1 -4.246986892944960e-1
      -4.922724877405510e-1 -5.512292437225423e-1 -6.000747808643681e-1 -6.374387761790414e-1
      -6.621169633901175e-1 -6.731137330147305e-1 -6.696839950364128e-1 -6.513730173642945e-1
      -6.180528170877270e-1 -5.699535701356471e-1 -5.076884275256627e-1 -4.322700927617183e-1
      -3.451175352722907e-1 -2.480512991787934e-1 -1.432760246990853e-1 -3.334903952292636e-2
      7.886579391055916e-2 1.902593682481360e-1 2.975536372671498e-1 3.973922144364807e-1
      4.864438579051886e-1 5.615166891909618e-1 6.196802041001758e-1 6.583913329650050e-1
      6.756200299400260e-1 6.699691618386678e-1 6.407828761960634e-1 5.882372113465992e-1
      5.134065267009636e-1 4.182994376410033e-1 3.058583915905789e-1 1.799178670854713e-1
      4.511745037478254e-2 -9.323223988502480e-2 -2.293306582799864e-1 -3.571127992929826e-1
      -4.705134841409240e-1 -5.637618435299601e-1 -6.316942290247587e-1 -6.700707754284462e-1
      -6.758781873485439e-1 -6.475992913660493e-1 -5.854287528879758e-1 -4.914143741045213e-1
      -3.695048130351859e-1 -2.254875900595082e-1 -6.680599500679812e-2 9.775001754946341e-2
      2.584757862408144e-1 4.052942240388549e-1 5.283856971259895e-1 6.188724188650250e-1
      6.695145924430986e-1 6.753675008115209e-1 6.343434157049863e-1 5.476206407046877e-1
      4.198451760549720e-1 2.590791278999098e-1 7.646445133776690e-2 -1.144092141780387e-1
      -2.984187348704135e-1 -4.600611877062461e-1 -5.847746163110146e-1 -6.603249496243109e-1
      -6.781346839363386e-1 -6.344139820877357e-1 -5.309520134251152e-1 -3.754386327781442e-1
      -1.812157718078238e-1 3.359554542804975e-2 2.475846971218718e-1 4.380765221248364e-1
      5.835335975718414e-1 6.661047506402622e-1 6.740316089239080e-1 6.035943770214354e-1
      4.602841433386638e-1 2.589391760295372e-1 2.267942598216656e-2 -2.193870666240306e-1
      -4.355414595800827e-1 -5.955880744784439e-1 -6.752495922150812e-1 -6.602040450805361e-1
      -5.490949757180995e-1 -3.548967459458389e-1 -1.041810765890059e-1 1.658948865112896e-1
      4.126988835304138e-1 5.947535822622919e-1 6.789365195183662e-1 6.470337031411529e-1
      5.003448840138180e-1 2.611913238337497e-1 -2.940931650816519e-2 -3.179895459408841e-1
      -5.480951013399249e-1 -6.714602970485890e-1 -6.587647185578021e-1 -5.075689686057459e-1
      -2.452553685562785e-1 7.441450662795011e-2 3.812366667681919e-1 6.035490383971079e-1
      6.853140936695606e-1 6.013119073701333e-1 3.662655018003349e-1 3.462347963354524e-2
      -3.102845450921419e-1 -5.762528945772047e-1 -6.870245442471884e-1 -6.054379641337192e-1
      -3.477872342856695e-1 1.623365781683163e-2 3.800625736337397e-1 6.303835115595325e-1
      6.829521266318989e-1 5.129782011547857e-1 1.688735392607428e-1 -2.378653361383048e-1
      -5.664623459926192e-1 -6.953237266577467e-1 -5.690019423502144e-1 -2.253628136486402e-1
      2.106765340339259e-1 5.691842582458507e-1 7.007914635207887e-1 5.413739199362069e-1
      1.475397263336554e-1 -3.171875933387364e-1 -6.464189216022676e-1 -6.825906594481763e-1
      -3.963964976218977e-1 8.688942235865634e-2 5.353364065093677e-1 7.188663854628099e-1
      5.300531484477339e-1 5.363325586661870e-2 -4.615799051794393e-1 -7.271931665636071e-1
      -5.782726413748001e-1 -8.345683165855442e-2 4.734132822027386e-1 7.485653110660559e-1
      5.520346938530194e-1 -1.179103810555585e-2 -5.834327698200054e-1 -7.690763360347455e-1
      -4.155085412307279e-1 2.520894577980147e-1 7.552124812766850e-1 6.985166846760742e-1
      8.959560448885650e-2 -6.185351825964490e-1 -8.464796434912289e-1 -3.636927451179863e-1
      4.649335949249227e-1 9.244712028308053e-1 5.573022118153562e-1 -3.675399440639588e-1
      -1.004658144332081e0 -6.829831759848362e-1 3.782247479717861e-1 1.145240612918290e0
      7.395335386597673e-1 -5.548753056823390e-1 -1.380210916830069e0 -6.720742648824189e-1
      9.856137274795540e-1 1.689901602254873e0 3.172921799651542e-1 -1.784887800687535e0
      -1.907606077156427e0 6.681764912771289e-1 2.991125644207138e0 1.500561439920330e0
      -2.821364704527211e0 -4.186545404121015e0 7.907321788093751e-1 6.501266201565027e0
      3.521031556450592e0 -7.102140453388989e0 -1.021148155443496e1 3.958602301086432e0
      1.866053736621223e1 5.978989413501981e0 -2.659096325759106e1 -2.705376604948095e1
      2.806223635865136e1 6.460781712244170e1 -9.475123441538742e0 -1.226126389111774e2
      -5.782927315517159e1 1.951676776892828e2 2.297854091297623e2 -2.416628763629797e2
      -6.050136912191158e2 1.216405806602401e2 1.326965980175263e3 5.619572940063978e2
      -2.502355208615651e3 -2.803908074459528e3 3.794966927515716e3 8.823001654491792e3
      -2.973254757425952e3 -2.277612911125155e4 -8.489976012071102e3 4.963501263131713e4
      5.689199671115628e4 -8.330626195973556e4 -2.101335750337295e5 5.207410762582017e4
      6.023901776661226e5 3.698969310473665e5 -1.334372225770910e6 -2.260705927950095e6
      1.641790670633639e6 8.189005469645673e6 3.709558699278866e6 -2.045554375047146e7
      -3.469810241254015e7 2.148089183123409e7 1.358958121400472e8 1.119687124509747e8
      -2.823255492144533e8 -7.816966478699005e8 -2.753012392037199e8 0.000000000000000e0
      0.000000000000000e0 0.000000000000000e0 0.000000000000000e0 0.000000000000000e0
      0.000000000000000e0 0.000000000000000e0 0.000000000000000e0 0.000000000000000e0
      0.000000000000000e0 0.000000000000000e0 0.000000000000000e0 0.000000000000000e0
      0.000000000000000e0 0.000000000000000e0 0.000000000000000e0 0.000000000000000e0
      0.000000000000000e0 0.000000000000000e0 0.000000000000000e0 0.000000000000000e0
      0.000000000000000e0 0.000000000000000e0 0.000000000000000e0
      </PP_AEWFC.2>
    <PP_AEWFC.3 index="3" label="3P" l="1">
      1.298572591033482e-7 1.325860174213984e-7 1.353721165612843e-7 1.382167614556036e-7
      1.411239410295350e-7 1.441008109293819e-7 1.471473589205009e-7 1.502654050241689e-7
      1.534565081554243e-7 1.567222644463195e-7 1.600643082403970e-7 1.634843129575368e-7
      1.669839918080539e-7 1.705650987297407e-7 1.742294298986133e-7 1.779788248194242e-7
      1.818151668330808e-7 1.857403830663267e-7 1.897564459025000e-7 1.938653755207700e-7
      1.980692402046234e-7 2.023701569978217e-7 2.067702929449568e-7 2.112718665005322e-7
      2.158771500773419e-7 2.205884701960384e-7 2.254082065114250e-7 2.303387943709481e-7
      2.353827278986866e-7 2.405425604468916e-7 2.458209056714701e-7 2.512204391296263e-7
      2.567438996139162e-7 2.623940911864788e-7 2.681738840314127e-7 2.740862150910623e-7
      2.801340916856496e-7 2.863205930954491e-7 2.926488698286888e-7 2.991221473601055e-7
      3.057437281619855e-7 3.125169923382837e-7 3.194453998846472e-7 3.265324930785941e-7
      3.337818987935870e-7 3.411973282410004e-7 3.487825805698657e-7 3.565415458041362e-7
      3.644782051289982e-7 3.725966346027103e-7 3.809010079713164e-7 3.893955968035879e-7
      3.980847731762768e-7 4.069730137521804e-7 4.160649013280032e-7 4.253651278802980e-7
      4.348784966095454e-7 4.446099231290185e-7 4.545644397124068e-7 4.647471991544543e-7
      4.751634781551564e-7 4.858186786547551e-7 4.967183296263686e-7 5.078680902005570e-7
      5.192737546479619e-7 5.309412579763919e-7 5.428766751385217e-7 5.550862247657527e-7
      5.675762744947342e-7 5.803533443093640e-7 5.934241093600441e-7 6.067954016885812e-7
      6.204742173538612e-7 6.344677207651603e-7 6.487832474386033e-7 6.634283081273646e-7
      6.784105900188521e-7 6.937379638508842e-7 7.094184904819935e-7 7.254604264340908e-7
      7.418722241494311e-7 7.586625348956927e-7 7.758402187574643e-7 7.934143512031743e-7
      8.113942247274476e-7 8.297893524732537e-7 8.486094780361565e-7 8.678645782144910e-7
      8.875648652648101e-7 9.077207988432894e-7 9.283430936584708e-7 9.494427197085603e-7
      9.710309066047397e-7 9.931191561382658e-7 1.015719249334170e-6 1.038843248882847e-6
      1.062503508629360e-6 1.086712679875391e-6 1.111483718814450e-6 1.136829893985485e-6
      1.162764794022113e-6 1.189302334938935e-6 1.216456766073041e-6 1.244242681840515e-6
      1.272675035806313e-6 1.301769137326106e-6 1.331540661981545e-6 1.362005673142012e-6
      1.393180622058036e-6 1.425082356594281e-6 1.457728132369407e-6 1.491135616846521e-6
      1.525322911377740e-6 1.560308558564261e-6 1.596111539983156e-6 1.632751302288147e-6
      1.670247767865583e-6 1.708621339464284e-6 1.747892916330352e-6 1.788083905067263e-6
      1.829216232388768e-6 1.871312357903125e-6 1.914395287256352e-6 1.958488585601162e-6
      2.003616391391844e-6 2.049803430526996e-6 2.097075030844456e-6 2.145457136975137e-6
      2.194976325567435e-6 2.245659820889518e-6 2.297535510817902e-6 2.350631963223820e-6
      2.404978442772977e-6 2.460604928143006e-6 2.517542129816919e-6 2.575821507244864e-6
      2.635475284012428e-6 2.696536471999333e-6 2.759038898048421e-6 2.823017209379163e-6
      2.888506903647926e-6 2.955544356395232e-6 3.024166823869205e-6 3.094412468086880e-6
      3.166320389601030e-6 3.239930639359028e-6 3.315284250544132e-6 3.392423269582678e-6
      3.471390767705204e-6 3.552230873528879e-6 3.634988797015528e-6 3.719710856650712e-6
      3.806444506868330e-6 3.895238366175662e-6 3.986142245984915e-6 4.079207180164881e-6
      4.174485455321053e-6 4.272030641831114e-6 4.371897625650271e-6 4.474142640906772e-6
      4.578823303306928e-6 4.685998644369638e-6 4.795729146510968e-6 4.908076778999758e-6
      5.023105034805809e-6 5.140878968362684e-6 5.261465234267732e-6 5.384932126942444e-6
      5.511349621276899e-6 5.640789414282532e-6 5.773324967778146e-6 5.909031552134634e-6
      6.047986291104522e-6 6.190268207763088e-6 6.335958271588440e-6 6.485139446708627e-6
      6.637896741344517e-6 6.794317258477917e-6 6.954490247775068e-6 7.118507158796415e-6
      7.286461695524332e-6 7.458449872241179e-6 7.634570070790905e-6 7.814923099258229e-6
      7.999612252100206e-6 8.188743371765822e-6 8.382424911840319e-6 8.580768001751640e-6
      8.783886513076347e-6 8.991897127479957e-6 9.204919406334458e-6 9.423075862325170e-6
      9.646492031198742e-6 9.875296540385181e-6 1.010962119123399e-5 1.034960105684554e-5
      1.059537455569454e-5 1.084708352478314e-5 1.110487327970207e-5 1.136889271025171e-5
      1.163929440668745e-5 1.191623472945573e-5 1.219987389637293e-5 1.249037608544034e-5
      1.278790953004134e-5 1.309264661981639e-5 1.340476400346447e-5 1.372444269411627e-5
      1.405186817729708e-5 1.438723052155252e-5 1.473072449179335e-5 1.508254966542921e-5
      1.544291055135791e-5 1.581201671188002e-5 1.619008288760965e-5 1.657732912545412e-5
      1.697398090973703e-5 1.738026929654086e-5 1.779643105134716e-5 1.822270879005418e-5
      1.865935112345363e-5 1.910661280525040e-5 1.956475488371067e-5 2.003404485702633e-5
      2.051475683248530e-5 2.100717168953967e-5 2.151157724686571e-5 2.202826843351192e-5
      2.255754746423368e-5 2.309972401911522e-5 2.365511542758232e-5 2.422404685691096e-5
      2.480685150534028e-5 2.540387079990034e-5 2.601545459906785e-5 2.664196140036557e-5
      2.728375855302414e-5 2.794122247582735e-5 2.861473888026497e-5 2.930470299912033e-5
      3.001151982062223e-5 3.073560432829425e-5 3.147738174663756e-5 3.223728779278606e-5
      3.301576893427653e-5 3.381328265307904e-5 3.463029771603709e-5 3.546729445186911e-5
      3.632476503488816e-5 3.720321377559843e-5 3.810315741833215e-5 3.902512544609355e-5
      3.996966039278066e-5 4.093731816295922e-5 4.192866835936755e-5 4.294429461833457e-5
      4.398479495329794e-5 4.505078210661319e-5 4.614288390984887e-5 4.726174365276767e-5
      4.840802046119744e-5 4.958238968400090e-5 5.078554328935754e-5 5.201819027057578e-5
      5.328105706165851e-5 5.457488796285023e-5 5.590044557639877e-5 5.725851125276987e-5
      5.864988554755861e-5 6.007538868934631e-5 6.153586105875759e-5 6.303216367897793e-5
      6.456517871799745e-5 6.613581000285254e-5 6.774498354614339e-5 6.939364808511066e-5
      7.108277563356205e-5 7.281336204694419e-5 7.458642760086319e-5 7.640301758336311e-5
      7.826420290127784e-5 8.017108070097994e-5 8.212477500385564e-5 8.412643735684309e-5
      8.617724749837798e-5 8.827841404009773e-5 9.043117516466332e-5 9.263679934006536e-5
      9.489658605078844e-5 9.721186654621626e-5 9.958400460666752e-5 1.020143973274613e-4
      1.045044759214188e-4 1.070557065402156e-4 1.096695911150109e-4 1.123476682167835e-4
      1.150915139368182e-4 1.179027427877928e-4 1.207830086259255e-4 1.237340055946527e-4
      1.267574690903158e-4 1.298551767503458e-4 1.330289494644443e-4 1.362806524092706e-4
      1.396121961071515e-4 1.430255375093456e-4 1.465226811044016e-4 1.501056800521585e-4
      1.537766373439526e-4 1.575377069896025e-4 1.613910952317544e-4 1.653390617881852e-4
      1.693839211226678e-4 1.735280437450187e-4 1.777738575409567e-4 1.821238491324158e-4
      1.865805652689668e-4 1.911466142510136e-4 1.958246673854439e-4 2.006174604744278e-4
      2.055277953380668e-4 2.105585413716127e-4 2.157126371379878e-4 2.209930919963499e-4
      2.264029877674609e-4 2.319454804366303e-4 2.376238018950194e-4 2.434412617201054e-4
      2.494012489961199e-4 2.555072341752871e-4 2.617627709807083e-4 2.681714983517441e-4
      2.747371424327714e-4 2.814635186061958e-4 2.883545335706258e-4 2.954141874651203e-4
      3.026465760404448e-4 3.100558928782795e-4 3.176464316593437e-4 3.254225884814111e-4
      3.333888642282132e-4 3.415498669902339e-4 3.499103145384230e-4 3.584750368518685e-4
      3.672489787004802e-4 3.762372022837603e-4 3.854448899267438e-4 3.948773468342157e-4
      4.045400039043211e-4 4.144384206027053e-4 4.245782878983317e-4 4.349654312621466e-4
      4.456058137297727e-4 4.565055390294260e-4 4.676708547762749e-4 4.791081557344650e-4
      4.908239871480580e-4 5.028250481421418e-4 5.151181951953866e-4 5.277104456853390e-4
      5.406089815077538e-4 5.538211527712872e-4 5.673544815688802e-4 5.812166658271812e-4
      5.954155832353690e-4 6.099592952547471e-4 6.248560512104991e-4 6.401142924670036e-4
      6.557426566881204e-4 6.717499821838699e-4 6.881453123449427e-4 7.049379001664833e-4
      7.221372128626033e-4 7.397529365730895e-4 7.577949811637808e-4 7.762734851220960e-4
      7.951988205492032e-4 8.145815982503246e-4 8.344326729246836e-4 8.547631484565983e-4
      8.755843833092323e-4 8.969079960225226e-4 9.187458708167979e-4 9.411101633036045e-4
      9.640133063052625e-4 9.874680157846656e-4 1.011487296886841e-3 1.036084450093778e-3
      1.061273077494033e-3 1.087067089168609e-3 1.113480709694600e-3 1.140528484768079e-3
      1.168225287947707e-3 1.196586327520502e-3 1.225627153491229e-3 1.255363664696823e-3
      1.285812116047246e-3 1.316989125894174e-3 1.348911683528857e-3 1.381597156810507e-3
      1.415063299926494e-3 1.449328261285648e-3 1.484410591545889e-3 1.520329251777412e-3
      1.557103621762562e-3 1.594753508433562e-3 1.633299154449130e-3 1.672761246911052e-3
      1.713160926221673e-3 1.754519795083219e-3 1.796859927639840e-3 1.840203878763158e-3
      1.884574693482046e-3 1.929995916557339e-3 1.976491602202018e-3 2.024086323947420e-3
      2.072805184655869e-3 2.122673826680092e-3 2.173718442169635e-3 2.225965783524452e-3
      2.279443173995701e-3 2.334178518433664e-3 2.390200314182634e-3 2.447537662122450e-3
      2.506220277856253e-3 2.566278503043914e-3 2.627743316880413e-3 2.690646347718337e-3
      2.755019884833499e-3 2.820896890332506e-3 2.888311011200963e-3 2.957296591490810e-3
      3.027888684645104e-3 3.100123065958385e-3 3.174036245170544e-3 3.249665479191922e-3
      3.327048784957146e-3 3.406224952404988e-3 3.487233557581295e-3 3.570114975861785e-3
      3.654910395291292e-3 3.741661830035708e-3 3.830412133942688e-3 3.921205014206814e-3
      4.014085045134673e-3 4.109097682004990e-3 4.206289275018610e-3 4.305707083332866e-3
      4.407399289174397e-3 4.511415012024321e-3 4.617804322869093e-3 4.726618258510160e-3
      4.837908835925059e-3 4.951729066672200e-3 5.068132971331183e-3 5.187175593970056e-3
      5.308913016630477e-3 5.433402373821242e-3 5.560701867010255e-3 5.690870779104413e-3
      5.823969488906457e-3 5.960059485537292e-3 6.099203382811716e-3 6.241464933554967e-3
      6.386909043846942e-3 6.535601787180284e-3 6.687610418518033e-3 6.843003388235813e-3
      7.001850355932929e-3 7.164222204096129e-3 7.330191051599012e-3 7.499830267019457e-3
      7.673214481756713e-3 7.850419602929003e-3 8.031522826031829e-3 8.216602647336323e-3
      8.405738876006241e-3 8.599012645911376e-3 8.796506427114332e-3 8.998304037006744e-3
      9.204490651070202e-3 9.415152813236205e-3 9.630378445818584e-3 9.850256858990887e-3
      1.007487875978033e-2 1.030433626054887e-2 1.053872288693101e-2 1.077813358519701e-2
      1.102266472900900e-2 1.127241412553653e-2 1.152748102089718e-2 1.178796610488645e-2
      1.205397151496029e-2 1.232560083943255e-2 1.260295911984821e-2 1.288615285249251e-2
      1.317528998899452e-2 1.347047993598284e-2 1.377183355374967e-2 1.407946315387855e-2
      1.439348249578947e-2 1.471400678215431e-2 1.504115265313370e-2 1.537503817938585e-2
      1.571578285379594e-2 1.606350758187383e-2 1.641833467076648e-2 1.678038781682995e-2
      1.714979209170503e-2 1.752667392683857e-2 1.791116109639199e-2 1.830338269847667e-2
      1.870346913465483e-2 1.911155208764314e-2 1.952776449715504e-2 1.995224053381656e-2
      2.038511557108893e-2 2.082652615513036e-2 2.127660997252774e-2 2.173550581582824e-2
      2.220335354679912e-2 2.268029405734333e-2 2.316646922799699e-2 2.366202188393406e-2
      2.416709574840205e-2 2.468183539351206e-2 2.520638618830494e-2 2.574089424401493e-2
      2.628550635645082e-2 2.684036994541410e-2 2.740563299107275e-2 2.798144396720861e-2
      2.856795177125547e-2 2.916530565104488e-2 2.977365512817575e-2 3.039314991792377e-2
      3.102393984560612e-2 3.166617475931709e-2 3.232000443894982e-2 3.298557850141958e-2
      3.366304630200421e-2 3.435255683171740e-2 3.505425861063139e-2 3.576829957706553e-2
      3.649482697255859e-2 3.723398722254307e-2 3.798592581264109e-2 3.875078716050253e-2
      3.952871448310757e-2 4.031984965945729e-2 4.112433308857801e-2 4.194230354276672e-2
      4.277389801600755e-2 4.361925156749140e-2 4.447849716017386e-2 4.535176549430899e-2
      4.623918483590058e-2 4.714088084001484e-2 4.805697636890347e-2 4.898759130488894e-2
      4.993284235796901e-2 5.089284286810157e-2 5.186770260213612e-2 5.285752754536318e-2
      5.386241968765892e-2 5.488247680420745e-2 5.591779223079032e-2 5.696845463363865e-2
      5.803454777385032e-2 5.911615026638235e-2 6.021333533363559e-2 6.132617055365706e-2
      6.245471760299379e-2 6.359903199424012e-2 6.475916280833017e-2 6.593515242163566e-2
      6.712703622793981e-2 6.833484235536779e-2 6.955859137836428e-2 7.079829602482003e-2
      7.205396087846026e-2 7.332558207661856e-2 7.461314700353321e-2 7.591663397931281e-2
      7.723601194473337e-2 7.857124014203860e-2 7.992226779193146e-2 8.128903376695611e-2
      8.267146626148488e-2 8.406948245853798e-2 8.548298819367975e-2 8.691187761624843e-2
      8.835603284819417e-2 8.981532364081431e-2 9.128960702969241e-2 9.277872698816449e-2
      9.428251407965384e-2 9.580078510923375e-2 9.733334277479743e-2 9.887997531823359e-2
      1.004404561770271e-1 1.020145436367262e-1 1.036019804847379e-1 1.052024936659396e-1
      1.068157939406148e-1 1.084415755452457e-1 1.100795158567214e-1 1.117292750605399e-1
      1.133904958236083e-1 1.150628029722637e-1 1.167458031761565e-1 1.184390846386528e-1
      1.201422167944197e-1 1.218547500148615e-1 1.235762153220660e-1 1.253061241119023e-1
      1.270439678868798e-1 1.287892179993284e-1 1.305413254053902e-1 1.322997204302248e-1
      1.340638125447130e-1 1.358329901537944e-1 1.376066203964089e-1 1.393840489568151e-1
      1.411645998868207e-1 1.429475754382159e-1 1.447322559044334e-1 1.465178994701824e-1
      1.483037420675375e-1 1.500889972367146e-1 1.518728559895613e-1 1.536544866736480e-1
      1.554330348347887e-1 1.572076230758817e-1 1.589773509101494e-1 1.607412946072094e-1
      1.624985070309305e-1 1.642480174687354e-1 1.659888314529014e-1 1.677199305754857e-1
      1.694402722997341e-1 1.711487897722028e-1 1.728443916412915e-1 1.745259618893967e-1
      1.761923596873842e-1 1.778424192814630e-1 1.794749499237168e-1 1.810887358584006e-1
      1.826825363764965e-1 1.842550859508284e-1 1.858050944631311e-1 1.873312475327860e-1
      1.888322069544599e-1 1.903066112486871e-1 1.917530763256974e-1 1.931701962587764e-1
      1.945565441595073e-1 1.959106731437376e-1 1.972311173744133e-1 1.985163931657727e-1
      1.997650001329445e-1 2.009754223717440e-1 2.021461296552407e-1 2.032755786362397e-1
      2.043622140478208e-1 2.054044698972053e-1 2.064007706511409e-1 2.073495324135033e-1
      2.082491640977601e-1 2.090980685982625e-1 2.098946439650698e-1 2.106372845872022e-1
      2.113243823890000e-1 2.119543280437215e-1 2.125255122077664e-1 2.130363267780518e-1
      2.134851661741767e-1 2.138704286461401e-1 2.141905176075745e-1 2.144438429937441e-1
      2.146288226429450e-1 2.147438836994464e-1 2.147874640357157e-1 2.147580136913759e-1
      2.146539963261431e-1 2.144738906838702e-1 2.142161920647721e-1 2.138794138029161e-1
      2.134620887461193e-1 2.129627707354923e-1 2.123800360819923e-1 2.117124850375023e-1
      2.109587432581142e-1 2.101174632574722e-1 2.091873258482103e-1 2.081670415697036e-1
      2.070553521005309e-1 2.058510316542269e-1 2.045528883570759e-1 2.031597656068620e-1
      2.016705434116585e-1 2.000841397078868e-1 1.983995116570243e-1 1.966156569204789e-1
      1.947316149122764e-1 1.927464680293327e-1 1.906593428591918e-1 1.884694113652198e-1
      1.861758920493348e-1 1.837780510924444e-1 1.812752034728300e-1 1.786667140627844e-1
      1.759519987038588e-1 1.731305252611100e-1 1.702018146567657e-1 1.671654418837311e-1
      1.640210369993524e-1 1.607682860998287e-1 1.574069322756199e-1 1.539367765481382e-1
      1.503576787879271e-1 1.466695586144348e-1 1.428723962773629e-1 1.389662335194314e-1
      1.349511744202365e-1 1.308273862206911e-1 1.265951001273342e-1 1.222546120955640e-1
      1.178062835906081e-1 1.132505423247721e-1 1.085878829692286e-1 1.038188678383078e-1
      9.894412754393521e-2 9.396436161754096e-2 8.888033909643166e-2 8.369289907127820e-2
      7.840295119103984e-2 7.301147612131392e-2 6.751952595178372e-2 6.192822454813879e-2
      5.623876784357220e-2 5.045242406472507e-2 4.457053388676233e-2 3.859451051213620e-2
      3.252583966753724e-2 2.636607951356263e-2 2.011686046175848e-2 1.377988489393061e-2
      7.356926778995147e-3 8.498311831535974e-4 -5.739486330162604e-3 -1.240904041329677e-2
      -1.915677676204098e-2 -2.598057305853652e-2 -3.287824002863513e-2 -3.984752261149820e-2
      -4.688610123765358e-2 -5.399159321011701e-2 -6.116155418158921e-2 -6.839347971924260e-2
      -7.568480694732417e-2 -8.303291625684826e-2 -9.043513307118573e-2 -9.788872965653740e-2
      -1.053909269672872e-1 -1.129388965182483e-1 -1.205297622790206e-1 -1.281606025902314e-1
      -1.358284521074641e-1 -1.435303037862647e-1 -1.512631109307408e-1 -1.590237893388250e-1
      -1.668092195889499e-1 -1.746162495251807e-1 -1.824416970099123e-1 -1.902823530238042e-1
      -1.981349851998213e-1 -2.059963418794756e-1 -2.138631567710552e-1 -2.217321542671612e-1
      -2.296000554365087e-1 -2.374635846360820e-1 -2.453194765875997e-1 -2.531644836212924e-1
      -2.609953826083091e-1 -2.688089808858605e-1 -2.766021202432914e-1 -2.843716778157533e-1
      -2.921145625775909e-1 -2.998277061109603e-1 -3.075080465272471e-1 -3.151525049108598e-1
      -3.227579544692328e-1 -3.303211836686193e-1 -3.378388558725667e-1 -3.453074691395064e-1
      -3.527233205792028e-1 -3.600824797391835e-1 -3.673807747408943e-1 -3.746137933666705e-1
      -3.817768992916472e-1 -3.888652615938917e-1 -3.958738940176302e-1 -4.027976995412561e-1
      -4.096315157282794e-1 -4.163701570029391e-1 -4.230084511236635e-1 -4.295412684092677e-1
      -4.359635434358818e-1 -4.422702898016434e-1 -4.484566090958077e-1 -4.545176954381064e-1
      -4.604488369478866e-1 -4.662454153475982e-1 -4.719029046780332e-1 -4.774168698594518e-1
      -4.827829656080683e-1 -4.879969360284853e-1 -4.930546150545167e-1 -4.979519278012155e-1
      -5.026848928141096e-1 -5.072496251510302e-1 -5.116423402011208e-1 -5.158593581292835e-1
      -5.198971088282312e-1 -5.237521372612335e-1 -5.274211090842002e-1 -5.309008164442186e-1
      -5.341881838618008e-1 -5.372802741150604e-1 -5.401742940551788e-1 -5.428676002934147e-1
      -5.453577047102779e-1 -5.476422797471127e-1 -5.497191634491342e-1 -5.515863642368604e-1
      -5.532420653898779e-1 -5.546846292330040e-1 -5.559126010201902e-1 -5.569247125160231e-1
      -5.577198852784859e-1 -5.582972336497923e-1 -5.586560674646979e-1 -5.587958944877585e-1
      -5.587164225925988e-1 -5.584175616974480e-1 -5.578994254719865e-1 -5.571623328309766e-1
      -5.562068092302321e-1 -5.550335877802054e-1 -5.536436101918405e-1 -5.520380275683410e-1
      -5.502182010550833e-1 -5.481857023580844e-1 -5.459423141391103e-1 -5.434900302927057e-1
      -5.408310561070588e-1 -5.379678083066674e-1 -5.349029149702169e-1 -5.316392153119128e-1
      -5.281797593087437e-1 -5.245278071497989e-1 -5.206868284768063e-1 -5.166605013779437e-1
      -5.124527110895650e-1 -5.080675483528757e-1 -5.035093073654618e-1 -4.987824832610573e-1
      -4.938917690452994e-1 -4.888420519110711e-1 -4.836384088547218e-1 -4.782861015144561e-1
      -4.727905701549058e-1 -4.671574267277052e-1 -4.613924469470163e-1 -4.555015613315331e-1
      -4.494908451804653e-1 -4.433665074701342e-1 -4.371348786796537e-1 -4.308023975780895e-1
      -4.243755970306498e-1 -4.178610889069495e-1 -4.112655481849967e-1 -4.045956964674098e-1
      -3.978582848602012e-1 -3.910600766089798e-1 -3.842078295454021e-1 -3.773082785572850e-1
      -3.703681182701240e-1 -3.633939861241888e-1 -3.563924460228014e-1 -3.493699727143399e-1
      -3.423329370535979e-1 -3.352875922681450e-1 -3.282400613331569e-1 -3.211963255346930e-1
      -3.141622142774613e-1 -3.071433961695251e-1 -3.001453713938504e-1 -2.931734653556614e-1
      -2.862328235756837e-1 -2.793284077828351e-1 -2.724649931459368e-1 -2.656471665726445e-1
      -2.588793259949824e-1 -2.521656805545106e-1 -2.455102515960596e-1 -2.389168743769244e-1
      -2.323892003981488e-1 -2.259307002657982e-1 -2.195446669926380e-1 -2.132342196541609e-1
      -2.070023073171978e-1 -2.008517131642028e-1 -1.947850587415451e-1 -1.888048082656261e-1
      -1.829132729262694e-1 -1.771126151325131e-1 -1.714048526516490e-1 -1.657918625980553e-1
      -1.602753852340856e-1 -1.548570275510066e-1 -1.495382666037578e-1 -1.443204525791506e-1
      -1.392048115830613e-1 -1.341924481382011e-1 -1.292843473901481e-1 -1.244813770254909e-1
      -1.197842889120413e-1 -1.151937204771020e-1 -1.107101958456562e-1 -1.063341267657569e-1
      -1.020658133534094e-1 -9.790544469372325e-2 -9.385309933874176e-2 -8.990874574516839e-2
      -8.607224269708071e-2 -8.234333975956798e-2 -7.872167780900990e-2 -7.520678968444933e-2
      -7.179810100222717e-2 -6.849493117282794e-2 -6.529649465482628e-2 -6.220190247606262e-2
      -5.921016404685925e-2 -5.632018928437539e-2 -5.353079106125591e-2 -5.084068798571552e-2
      -4.824850751426823e-2 -4.575278939260078e-2 -4.335198941471558e-2 -4.104448348553302e-2
      -3.882857196772307e-2 -3.670248428968374e-2 -3.466438378833725e-2 -3.271237275778379e-2
      -3.084449767283873e-2 -2.905875455506214e-2 -2.735309444804127e-2 -2.572542896836771e-2
      -2.417363589891642e-2 -2.269556479163271e-2 -2.128904254801291e-2 -1.995187894677282e-2
      -1.868187208978006e-2 -1.747681373913392e-2 -1.633449452025951e-2 -1.525270896799794e-2
      -1.422926039488035e-2 -1.326196556303353e-2 -1.234865914344613e-2 -1.148719794859826e-2
      -1.067546492669873e-2 -9.911372907962139e-3 -9.192868095474507e-3 -8.517933295226443e-3
      -7.884590881825693e-3 -7.290905498226077e-3 -6.734986489521395e-3 -6.214990072444957e-3
      -5.729121243685514e-3 -5.275635431475980e-3 -4.852839896138995e-3 -4.459094886324269e-3
      -4.092814558878492e-3 -3.752467670427129e-3 -3.436578050822491e-3 -3.143724867982720e-3
      -2.872542694453782e-3 -2.621721386866324e-3 -2.390005789512775e-3 -2.176195273473429e-3
      -1.979143122890767e-3 -1.797755780043695e-3 -1.630991960848914e-3 -1.477861652299641e-3
      -1.337425003296613e-3 -1.208791119755591e-3 -1.091116773216222e-3 -9.836051593253083e-4
      -8.855031177762964e-4 -7.961088313910656e-4 -7.147366489946441e-4 -6.407901645303296e-4
      -5.737151282557064e-4 -5.129629304384000e-4 -4.580124724989352e-4 -4.083782520195200e-4
      -3.636085816123846e-4 -3.232838458001983e-4 -2.870147982704089e-4 -2.544409024055932e-4
      -2.252287176604178e-4 -1.990703340494926e-4 -1.756818566844064e-4 -1.548019420230099e-4
      -1.361903871648930e-4 -1.196267732410385e-4 -1.049091636712844e-4 -9.185285778334968e-5
      -8.028920002462224e-5 -7.006444474937411e-5 -6.103867632850087e-5 -5.308478410795909e-5
      -4.608749153650946e-5 -3.994243859373764e-5 -3.455531647602843e-5 -2.984105334147742e-5
      -2.572304977475886e-5 -2.213246250970382e-5 -1.900753484062612e-5 -1.629297206298215e-5
      -1.393936020936447e-5 -1.190262628760140e-5 -1.014353818326083e-5 -8.627242358443759e-6
      -7.322837461635925e-6 -6.202981958733568e-6 -5.243533902290380e-6 -4.423220973624899e-6
      -3.723338959730877e-6 -3.127476862980038e-6 -2.621266885422668e-6 -2.192157580106113e-6
      -1.829208518286188e-6 -1.522904882764900e-6 -1.264990462941171e-6 -1.048317595635971e-6
      -8.667126665160218e-7 -7.148558592015429e-7 -5.881739121604975e-7 -4.827447165689653e-7
      -3.952126608054802e-7 -3.227136985410408e-7 -2.628091869191939e-7 -2.134276085513392e-7
      -1.728133554854476e-7 -1.394818142645200e-7 -1.121800491954616e-7 -8.985242825357609e-8
      -7.161062037586817e-8 -5.670720489556286e-8 -4.451347422508914e-8 -3.449585669230538e-8
      -2.624700659498457e-8 -1.917186797120756e-8 0.000000000000000e0 0.000000000000000e0
      0.000000000000000e0 0.000000000000000e0 0.000000000000000e0 0.000000000000000e0
      0.000000000000000e0 0.000000000000000e0 0.000000000000000e0 0.000000000000000e0
      0.000000000000000e0 0.000000000000000e0 0.000000000000000e0 0.000000000000000e0
      0.000000000000000e0 0.000000000000000e0 0.000000000000000e0 0.000000000000000e0
      0.000000000000000e0 0.000000000000000e0 0.000000000000000e0 0.000000000000000e0
      0.000000000000000e0 0.000000000000000e0 0.000000000000000e0 0.000000000000000e0
      0.000000000000000e0 0.000000000000000e0 0.000000000000000e0 0.000000000000000e0
      0.000000000000000e0 0.000000000000000e0 0.000000000000000e0 0.000000000000000e0
      0.000000000000000e0 0.000000000000000e0 0.000000000000000e0 0.000000000000000e0
      0.000000000000000e0 0.000000000000000e0 0.000000000000000e0 0.000000000000000e0
      0.000000000000000e0 0.000000000000000e0 0.000000000000000e0 0.000000000000000e0
      0.000000000000000e0 0.000000000000000e0 0.000000000000000e0 0.000000000000000e0
      0.000000000000000e0 0.000000000000000e0 0.000000000000000e0 0.000000000000000e0
      0.000000000000000e0 0.000000000000000e0 0.000000000000000e0 0.000000000000000e0
      0.000000000000000e0 0.000000000000000e0 0.000000000000000e0 0.000000000000000e0
      0.000000000000000e0 0.000000000000000e0 0.000000000000000e0 0.000000000000000e0
      0.000000000000000e0 0.000000000000000e0 0.000000000000000e0
      </PP_AEWFC.3>
    <PP_AEWFC.4 index="4" label="3P" l="1">
      2.431151509458461e-7 2.482238564195966e-7 2.534399137861270e-7 2.587655788867539e-7
      2.642083197453737e-7 2.697815331126251e-7 2.754851960533300e-7 2.813227159755428e-7
      2.872970114445151e-7 2.934110707024504e-7 2.996679535303706e-7 3.060707928672687e-7
      3.126227961470351e-7 3.193272470527736e-7 3.261875083451815e-7 3.332070239041865e-7
      3.403893196789405e-7 3.477380035936470e-7 3.552567683010778e-7 3.629493959364515e-7
      3.708197586949984e-7 3.788718200600497e-7 3.871096371255828e-7 3.955373632342749e-7
      4.041592527485021e-7 4.129796613303874e-7 4.220030441189106e-7 4.312339605198395e-7
      4.406770799794776e-7 4.503371828300581e-7 4.602191623032587e-7 4.703280275212757e-7
      4.806689059944286e-7 4.912470474296004e-7 5.020678253260662e-7 5.131367381667713e-7
      5.244594161948878e-7 5.360416243759448e-7 5.478892610272812e-7 5.600083648172508e-7
      5.724051185677002e-7 5.850858504411991e-7 5.980570381722094e-7 6.113253135419327e-7
      6.248974667106718e-7 6.387804457348239e-7 6.529813633062234e-7 6.675075022512194e-7
      6.823663160667693e-7 6.975654358696415e-7 7.131126756660677e-7 7.290160326044523e-7
      7.452836920026589e-7 7.619240349828532e-7 7.789456413694207e-7 7.963572953915215e-7
      8.141679895100115e-7 8.323869266432704e-7 8.510235281194969e-7 8.700874409045070e-7
      8.895885439375665e-7 9.095369506308087e-7 9.299430122254218e-7 9.508173236414185e-7
      9.721707328060027e-7 9.940143511322807e-7 1.016359552036071e-6 1.039217977926387e-6
      1.062601550177611e-6 1.086522475386359e-6 1.110993250649679e-6 1.136026666794482e-6
      1.161635821718001e-6 1.187834128500560e-6 1.214635320566219e-6 1.242053459415300e-6
      1.270102936865847e-6 1.298798488376348e-6 1.328155205346485e-6 1.358188545494008e-6
      1.388914333335997e-6 1.420348765627796e-6 1.452508430068746e-6 1.485410317596648e-6
      1.519071825462707e-6 1.553510764012941e-6 1.588745375043402e-6 1.624794336949133e-6
      1.661676768946938e-6 1.699412253431676e-6 1.738020850303564e-6 1.777523097412695e-6
      1.817940018653166e-6 1.859293147490795e-6 1.901604540168947e-6 1.944896780261112e-6
      1.989192996436551e-6 2.034516874258774e-6 2.080892670105627e-6 2.128345225123867e-6
      2.176899979737152e-6 2.226582987287433e-6 2.277420925158642e-6 2.329441116786934e-6
      2.382671558001870e-6 2.437140910739870e-6 2.492878522580896e-6 2.549914467115548e-6
      2.608279544120362e-6 2.668005295907630e-6 2.729124028181257e-6 2.791668817695112e-6
      2.855673553524053e-6 2.921172950843480e-6 2.988202546674086e-6 3.056798748746692e-6
      3.126998855452263e-6 3.198841064510154e-6 3.272364503175305e-6 3.347609248570422e-6
      3.424616351561776e-6 3.503427860693668e-6 3.584086846795064e-6 3.666637428195941e-6
      3.751124796553879e-6 3.837595243331896e-6 3.926096186935657e-6 4.016676200522622e-6
      4.109385040504960e-6 4.204273675759953e-6 4.301394317563568e-6 4.400800450268804e-6
      4.502546862757931e-6 4.606689680676776e-6 4.713286399747362e-6 4.822395917897932e-6
      4.934078563661010e-6 5.048396141402684e-6 5.165411981251523e-6 5.285190949234408e-6
      5.407799503554402e-6 5.533305745976795e-6 5.661779427116022e-6 5.793291993354917e-6
      5.927916648189758e-6 6.065728374432792e-6 6.206803993824581e-6 6.351222225084827e-6
      6.499063705557596e-6 6.650411052211258e-6 6.805348906492402e-6 6.963963985210043e-6
      7.126345131879525e-6 7.292583369377708e-6 7.462771953920941e-6 7.637006430391125e-6
      7.815384689025637e-6 7.998007023521438e-6 8.184976190580420e-6 8.376397470934172e-6
      8.572378731884239e-6 8.773030491395383e-6 8.978465983780264e-6 9.188801227014848e-6
      9.404155091724910e-6 9.624649371884786e-6 9.850408857270835e-6 1.008156140771276e-5
      1.031823802918732e-5 1.056057295179981e-5 1.080870370969996e-5 1.106277122297988e-5
      1.132291988160299e-5 1.158929763141401e-5 1.186205606228127e-5 1.214135049842391e-5
      1.242734009097777e-5 1.272018791285503e-5 1.302006105595430e-5 1.332713073077871e-5
      1.364157236852137e-5 1.396356572567907e-5 1.429329499125600e-5 1.463094889662155e-5
      1.497672082808707e-5 1.533080894226870e-5 1.569341628430436e-5 1.606475090899570e-5
      1.644502600494421e-5 1.683446002174733e-5 1.723327680033455e-5 1.764170570702778e-5
      1.805998176786605e-5 1.848834579707807e-5 1.892704455104210e-5 1.937633091144212e-5
      1.983646402310385e-5 2.030770943095024e-5 2.079033919244732e-5 2.128463205662262e-5
      2.179087370041605e-5 2.230935685923848e-5 2.284038149018548e-5 2.338425496452383e-5
      2.394129224591673e-5 2.451181607927841e-5 2.509615718323546e-5 2.569465444740286e-5
      2.630765513450827e-5 2.693551508750148e-5 2.757859894175442e-5 2.823728034248231e-5
      2.891194216751103e-5 2.960297675552075e-5 3.031078613989902e-5 3.103578228833915e-5
      3.177838734832344e-5 3.253903389863388e-5 3.331816520703617e-5 3.411623549428691e-5
      3.493371020461662e-5 3.577106628284565e-5 3.662879245829282e-5 3.750738953564154e-5
      3.840737069293088e-5 3.932926178684392e-5 4.027360166546928e-5 4.124094248871598e-5
      4.223185005656592e-5 4.324690414535301e-5 4.428669885226171e-5 4.535184294824296e-5
      4.644296023954958e-5 4.756068993809829e-5 4.870568704087008e-5 4.987862271856586e-5
      5.108018471373914e-5 5.231107774863275e-5 5.357202394295182e-5 5.486376324181089e-5
      5.618705385409807e-5 5.754267270150519e-5 5.893141587847865e-5 6.035409912335085e-5
      6.181155830091955e-5 6.330464989674686e-5 6.483425152345718e-5 6.640126243931944e-5
      6.800660407940502e-5 6.965122059962038e-5 7.133607943391912e-5 7.306217186500636e-5
      7.483051360885456e-5 7.664214541335745e-5 7.849813367145611e-5 8.039957104907963e-5
      8.234757712824859e-5 8.434329906569980e-5 8.638791226739745e-5 8.848262107930392e-5
      9.062865949479313e-5 9.282729187909656e-5 9.507981371118166e-5 9.738755234347099e-5
      9.975186777981996e-5 1.021741534721794e-4 1.046558371363803e-4 1.071983815874859e-4
      1.098032855951680e-4 1.124720847595729e-4 1.152063524081536e-4 1.180077005139561e-4
      1.208777806358558e-4 1.238182848812537e-4 1.268309468917526e-4 1.299175428523432e-4
      1.330798925246435e-4 1.363198603047465e-4 1.396393563062416e-4 1.430403374689899e-4
      1.465248086942443e-4 1.500948240067178e-4 1.537524877442184e-4 1.574999557754810e-4
      1.613394367468386e-4 1.652731933583927e-4 1.693035436703526e-4 1.734328624402315e-4
      1.776635824915976e-4 1.819981961150983e-4 1.864392565024843e-4 1.909893792143832e-4
      1.956512436825804e-4 2.004275947475866e-4 2.053212442322848e-4 2.103350725524656e-4
      2.154720303650787e-4 2.207351402550434e-4 2.261274984614788e-4 2.316522766442316e-4
      2.373127236916008e-4 2.431121675701689e-4 2.490540172176770e-4 2.551417644798937e-4
      2.613789860924487e-4 2.677693457086211e-4 2.743165959740951e-4 2.810245806497084e-4
      2.878972367832485e-4 2.949385969313649e-4 3.021527914326898e-4 3.095440507332821e-4
      3.171167077655266e-4 3.248752003816475e-4 3.328240738430152e-4 3.409679833664445e-4
      3.493116967287135e-4 3.578600969305456e-4 3.666181849213284e-4 3.755910823858630e-4
      3.847840345944626e-4 3.942024133177418e-4 4.038517198074662e-4 4.137375878448529e-4
      4.238657868577414e-4 4.342422251080749e-4 4.448729529511649e-4 4.557641661682307e-4
      4.669222093737369e-4 4.783535794990760e-4 4.900649293541718e-4 5.020630712686031e-4
      5.143549808138809e-4 5.269478006085314e-4 5.398488442076721e-4 5.530656000787932e-4
      5.666057356654846e-4 5.804771015408767e-4 5.946877356525960e-4 6.092458676610573e-4
      6.241599233729536e-4 6.394385292718207e-4 6.550905171475985e-4 6.711249288271254e-4
      6.875510210075406e-4 7.043782701945950e-4 7.216163777479029e-4 7.392752750351931e-4
      7.573651286976526e-4 7.758963460284757e-4 7.948795804667754e-4 8.143257372090297e-4
      8.342459789402692e-4 8.546517316872489e-4 8.755546907958593e-4 8.969668270350814e-4
      9.189003928297975e-4 9.413679286248167e-4 9.643822693824884e-4 9.879565512163103e-4
      1.012104218162966e-3 1.036839029095249e-3 1.062175064778360e-3 1.088126735072090e-3
      1.114708786281421e-3 1.141936308658115e-3 1.169824744055865e-3 1.198389893741621e-3
      1.227647926365720e-3 1.257615386093475e-3 1.288309200900884e-3 1.319746691037167e-3
      1.351945577656818e-3 1.384923991623923e-3 1.418700482491461e-3 1.453294027658373e-3
      1.488724041707140e-3 1.525010385924675e-3 1.562173378009305e-3 1.600233801966663e-3
      1.639212918197269e-3 1.679132473778644e-3 1.720014712944746e-3 1.761882387765559e-3
      1.804758769029649e-3 1.848667657332490e-3 1.893633394373374e-3 1.939680874463695e-3
      1.986835556249397e-3 2.035123474650353e-3 2.084571253019435e-3 2.135206115524002e-3
      2.187055899752516e-3 2.240149069548985e-3 2.294514728077857e-3 2.350182631122015e-3
      2.407183200616435e-3 2.465547538420046e-3 2.525307440328296e-3 2.586495410328855e-3
      2.649144675102839e-3 2.713289198773890e-3 2.778963697907369e-3 2.846203656761836e-3
      2.915045342794955e-3 2.985525822425834e-3 3.057682977055751e-3 3.131555519349108e-3
      3.207183009776374e-3 3.284605873420642e-3 3.363865417049322e-3 3.445003846452404e-3
      3.528064284048519e-3 3.613090786759976e-3 3.700128364157748e-3 3.789222996877240e-3
      3.880421655305532e-3 3.973772318540582e-3 4.069323993622732e-3 4.167126735038633e-3
      4.267231664497517e-3 4.369690990979572e-3 4.474558031055869e-3 4.581887229479131e-3
      4.691734180044381e-3 4.804155646718203e-3 4.919209585035112e-3 5.036955163759282e-3
      5.157452786809493e-3 5.280764115444971e-3 5.406952090709338e-3 5.536080956129688e-3
      5.668216280667321e-3 5.803424981916439e-3 5.941775349546567e-3 6.083337068984212e-3
      6.228181245328757e-3 6.376380427497192e-3 6.528008632591826e-3 6.683141370484663e-3
      6.841855668611590e-3 7.004230096969124e-3 7.170344793305778e-3 7.340281488499709e-3
      7.514123532113654e-3 7.691955918117586e-3 7.873865310768915e-3 8.059940070639428e-3
      8.250270280777496e-3 8.444947772993350e-3 8.644066154254636e-3 8.847720833178565e-3
      9.056009046606379e-3 9.269029886244894e-3 9.486884325359281e-3 9.709675245500165e-3
      9.937507463247483e-3 1.017048775695246e-2 1.040872489345825e-2 1.065232965477884e-2
      1.090141486471468e-2 1.115609541538270e-2 1.141648829363714e-2 1.168271260735669e-2
      1.195488961157216e-2 1.223314273440793e-2 1.251759760280906e-2 1.280838206802492e-2
      1.310562623081881e-2 1.340946246637171e-2 1.372002544884728e-2 1.403745217558336e-2
      1.436188199087441e-2 1.469345660930733e-2 1.503232013861210e-2 1.537861910198691e-2
      1.573250245985586e-2 1.609412163101601e-2 1.646363051312857e-2 1.684118550250760e-2
      1.722694551315787e-2 1.762107199501157e-2 1.802372895131210e-2 1.843508295509108e-2
      1.885530316468286e-2 1.928456133821924e-2 1.972303184704460e-2 2.017089168799017e-2
      2.062832049444384e-2 2.109550054615000e-2 2.157261677767162e-2 2.205985678544487e-2
      2.255741083335410e-2 2.306547185675314e-2 2.358423546485627e-2 2.411389994142014e-2
      2.465466624363545e-2 2.520673799914499e-2 2.577032150110207e-2 2.634562570118104e-2
      2.693286220044913e-2 2.753224523800630e-2 2.814399167729732e-2 2.876832098999769e-2
      2.940545523737254e-2 3.005561904900496e-2 3.071903959878754e-2 3.139594657806861e-2
      3.208657216584141e-2 3.279115099586249e-2 3.350992012058227e-2 3.424311897176854e-2
      3.499098931770090e-2 3.575377521681091e-2 3.653172296764120e-2 3.732508105499273e-2
      3.813410009212793e-2 3.895903275889414e-2 3.980013373562922e-2 4.065765963270904e-2
      4.153186891559342e-2 4.242302182522495e-2 4.333138029363270e-2 4.425720785459005e-2
      4.520076954917389e-2 4.616233182607000e-2 4.714216243646708e-2 4.814053032338003e-2
      4.915770550524067e-2 5.019395895359270e-2 5.124956246472490e-2 5.232478852507620e-2
      5.341991017024301e-2 5.453520083741950e-2 5.567093421109838e-2 5.682738406186032e-2
      5.800482407807747e-2 5.920352769035738e-2 6.042376788855148e-2 6.166581703115293e-2
      6.292994664690800e-2 6.421642722846521e-2 6.552552801788676e-2 6.685751678384744e-2
      6.821265959034686e-2 6.959122055676215e-2 7.099346160906949e-2 7.241964222206460e-2
      7.387001915241491e-2 7.534484616237762e-2 7.684437373402169e-2 7.836884877379434e-2
      7.991851430727660e-2 8.149360916397644e-2 8.309436765201234e-2 8.472101922254572e-2
      8.637378812382488e-2 8.805289304471103e-2 8.975854674756118e-2 9.149095569035143e-2
      9.325031963793112e-2 9.503683126230612e-2 9.685067573185908e-2 9.869203028942291e-2
      1.005610638191343e-1 1.024579364020047e-1 1.043827988601565e-1 1.063357922896859e-1
      1.083170475821240e-1 1.103266849344833e-1 1.123648133478891e-1 1.144315301148106e-1
      1.165269202949216e-1 1.186510561796367e-1 1.208039967453865e-1 1.229857870957109e-1
      1.251964578922691e-1 1.274360247748845e-1 1.297044877707607e-1 1.320018306930249e-1
      1.343280205287791e-1 1.366830068168569e-1 1.390667210155100e-1 1.414790758602690e-1
      1.439199647122489e-1 1.463892608971935e-1 1.488868170355784e-1 1.514124643641180e-1
      1.539660120490516e-1 1.565472464916067e-1 1.591559306260718e-1 1.617918032109367e-1
      1.644545781135913e-1 1.671439435891040e-1 1.698595615536357e-1 1.726010668530772e-1
      1.753680665275367e-1 1.781601390723365e-1 1.809768336962211e-1 1.838176695775158e-1
      1.866821351190182e-1 1.895696872024478e-1 1.924797504433235e-1 1.954117164471867e-1
      1.983649430681336e-1 2.013387536706700e-1 2.043324363959511e-1 2.073452434335155e-1
      2.103763902996723e-1 2.134250551237411e-1 2.164903779433871e-1 2.195714600103245e-1
      2.226673631076852e-1 2.257771088803594e-1 2.288996781796107e-1 2.320340104232409e-1
      2.351790029725269e-1 2.383335105270728e-1 2.414963445385982e-1 2.446662726445315e-1
      2.478420181220703e-1 2.510222593631080e-1 2.542056293701344e-1 2.573907152728625e-1
      2.605760578649233e-1 2.637601511595246e-1 2.669414419625067e-1 2.701183294607405e-1
      2.732891648233446e-1 2.764522508127745e-1 2.796058414024924e-1 2.827481413976986e-1
      2.858773060555478e-1 2.889914407014235e-1 2.920886003382423e-1 2.951667892464553e-1
      2.982239605734247e-1 3.012580159121987e-1 3.042668048713977e-1 3.072481246399354e-1
      3.101997195526027e-1 3.131192806650851e-1 3.160044453497004e-1 3.188527969259157e-1
      3.216618643424332e-1 3.244291219301381e-1 3.271519892473223e-1 3.298278310400901e-1
      3.324539573415017e-1 3.350276237325696e-1 3.375460317864905e-1 3.400063297143431e-1
      3.424056132258899e-1 3.447409266132493e-1 3.470092640583693e-1 3.492075711579474e-1
      3.513327466523237e-1 3.533816443386244e-1 3.553510751436498e-1 3.572378093291961e-1
      3.590385788018826e-1 3.607500795011127e-1 3.623689738422332e-1 3.638918931967716e-1
      3.653154403972291e-1 3.666361922596644e-1 3.678507021226718e-1 3.689555024059384e-1
      3.699471071950964e-1 3.708220148619886e-1 3.715767107307728e-1 3.722076698006438e-1
      3.727113595355326e-1 3.730842427301697e-1 3.733227804605583e-1 3.734234351253783e-1
      3.733826735832660e-1 3.731969703893976e-1 3.728628111334169e-1 3.723766958795296e-1
      3.717351427085717e-1 3.709346913610437e-1 3.699719069794860e-1 3.688433839481424e-1
      3.675457498275959e-1 3.660756693819493e-1 3.644298486961378e-1 3.626050393810823e-1
      3.605980428646008e-1 3.584057147662738e-1 3.560249693547862e-1 3.534527840866384e-1
      3.506862042255048e-1 3.477223475419272e-1 3.445584090934366e-1 3.411916660856035e-1
      3.376194828149172e-1 3.338393156947746e-1 3.298487183662347e-1 3.256453468955360e-1
      3.212269650607077e-1 3.165914497299060e-1 3.117367963343842e-1 3.066611244392607e-1
      3.013626834154650e-1 2.958398582164382e-1 2.900911752633205e-1 2.841153084424817e-1
      2.779110852193372e-1 2.714774928724342e-1 2.648136848517973e-1 2.579189872654740e-1
      2.507929054981253e-1 2.434351309653571e-1 2.358455480072782e-1 2.280242409245027e-1
      2.199715011594797e-1 2.116878346256271e-1 2.031739691862730e-1 1.944308622848529e-1
      1.854597087271783e-1 1.762619486158789e-1 1.668392754363174e-1 1.571936442923890e-1
      1.473272802896377e-1 1.372426870620507e-1 1.269426554377333e-1 1.164302722374043e-1
      1.057089291983124e-1 9.478233201473031e-2 8.365450948465776e-2 7.232982275075475e-2
      6.081297462183088e-2 4.910901895945053e-2 3.722337011237933e-2 2.516181237970213e-2
      1.293050948150253e-2 5.360140140150930e-4 -1.201472313583644e-2 -2.471434344360655e-2
      -3.755507149728298e-2 -5.052870587506896e-2 -6.362661018393378e-2 -7.683970429369490e-2
      -9.015845580311257e-2 -1.035728717760705e-1 -1.170724907873511e-1 -1.306463753187638e-1
      -1.442831045474592e-1 -1.579707675691351e-1 -1.716969570994607e-1 -1.854487636975024e-1
      -1.992127705552158e-1 -2.129750488971781e-1 -2.267211540348051e-1 -2.404361221193808e-1
      -2.541044676384669e-1 -2.677101817008035e-1 -2.812367311558694e-1 -2.946670585960680e-1
      -3.079835832922986e-1 -3.211682031177776e-1 -3.342022975206605e-1 -3.470667316136318e-1
      -3.597418614584363e-1 -3.722075406355827e-1 -3.844431282043459e-1 -3.964274981757813e-1
      -4.081390506416979e-1 -4.195557247251340e-1 -4.306550135423467e-1 -4.414139813918410e-1
      -4.518092834113073e-1 -4.618171879667821e-1 -4.714136020575595e-1 -4.805741000321747e-1
      -4.892739559110727e-1 -4.974881795950798e-1 -5.051915571990548e-1 -5.123586956795001e-1
      -5.189640718151798e-1 -5.249820854430612e-1 -5.303871166426140e-1 -5.351535862997458e-1
      -5.392560191775804e-1 -5.426691083009850e-1 -5.453677791730930e-1 -5.473272521588239e-1
      -5.485231013908356e-1 -5.489313088890738e-1 -5.485283133360270e-1 -5.472910541641889e-1
      -5.451970132381517e-1 -5.422242582575665e-1 -5.383514937238226e-1 -5.335581264525905e-1
      -5.278243527333569e-1 -5.211312730560986e-1 -5.134610378723997e-1 -5.047970245296592e-1
      -4.951240420024366e-1 -4.844285571275780e-1 -4.726989343536387e-1 -4.599256808088244e-1
      -4.461016896308783e-1 -4.312224765251688e-1 -4.152864068339801e-1 -3.982949124862898e-1
      -3.802526997182234e-1 -3.611679492943356e-1 -3.410525111785173e-1 -3.199220953589622e-1
      -2.977964600080254e-1 -2.746995975150138e-1 -2.506599182822029e-1 -2.257104315883984e-1
      -1.998889223287099e-1 -1.732381220369749e-1 -1.458058722776667e-1 -1.176452782407428e-1
      -8.881485016899232e-2 -5.937863007853310e-2 -2.940630108787119e-2 1.026723458702306e-3
      3.183923400691252e-2 6.294418499301923e-2 9.424868438046007e-2 1.256540157836654e-1
      1.570556965222445e-1 1.883435750313017e-1 2.194019711237755e-1 2.501098626549280e-1
      2.803411221734382e-1 3.099648071534335e-1 3.388455073822358e-1 3.668437530242000e-1
      3.938164867859407e-1 4.196176034663380e-1 4.440985599794526e-1 4.671090586831151e-1
      4.884978065234453e-1 5.081133521087475e-1 5.258050023478092e-1 5.414238197203449e-1
      5.548237005839608e-1 5.658625341556434e-1 5.744034409298093e-1 5.803160883034158e-1
      5.834780800662953e-1 5.837764151775710e-1 5.811090098838008e-1 5.753862757401516e-1
      5.665327444730243e-1 5.544887288741524e-1 5.392120070479788e-1 5.206795153549382e-1
      4.988890333156480e-1 4.738608415814895e-1 4.456393318568109e-1 4.142945454031631e-1
      3.799236144982757e-1 3.426520789993458e-1 3.026350480153770e-1 2.600581746771806e-1
      2.151384101628041e-1 1.681245015538586e-1 1.192971968346375e-1 6.896911947668984e-2
      1.748427465801381e-2 -3.478285066549624e-2 -8.742863079842699e-2 -1.400221228515126e-1
      -1.921073997894769e-1 -2.432064246421817e-1 -2.928224911843192e-1 -3.404442509241630e-1
      -3.855503395881490e-1 -4.276146083741192e-1 -4.661119560126487e-1 -5.005247470788698e-1
      -5.303497900114981e-1 -5.551058349197783e-1 -5.743415365200672e-1 -5.876438115031970e-1
      -5.946465023952906e-1 -5.950392416929391e-1 -5.885763909371024e-1 -5.750859097146147e-1
      -5.544779896964754e-1 -5.267532691701883e-1 -4.920104246227054e-1 -4.504529184010042e-1
      -4.023946660346770e-1 -3.482643742629913e-1 -2.886082920739885e-1 -2.240911131250330e-1
      -1.554947698308445e-1 -8.371486828133019e-2 -9.754530110554098e-3 6.528456641536651e-2
      1.402141174482315e-1 2.137742205731573e-1 2.846515621877634e-1 3.515007578171993e-1
      4.129687535432502e-1 4.677221000044296e-1 5.144768021131084e-1 5.520303290599213e-1
      5.792952423319250e-1 5.953337671070267e-1 5.993924980667275e-1 5.909362988169296e-1
      5.696803300256455e-1 5.356190312398718e-1 4.890507920902830e-1 4.305969878674071e-1
      3.612140303868056e-1 2.821971060239667e-1 1.951743470701610e-1 1.020903179087080e-1
      5.177900701826207e-3 -9.308205850506051e-2 -1.900136301533123e-1 -2.828110666799854e-1
      -3.686158111698916e-1 -4.446040419906982e-1 -5.080829294938702e-1 -5.565931309383640e-1
      -5.880143909881007e-1 -6.006704777022103e-1 -5.934291038683970e-1 -5.657920019104744e-1
      -5.179699824897302e-1 -4.509376596750939e-1 -3.664626165655156e-1 -2.671041590391270e-1
      -1.561775000747020e-1 -3.768026070157979e-2 8.382042078125844e-2 2.033401182840933e-1
      3.156665458160491e-1 4.155816881180797e-1 4.981096034994632e-1 5.587802751838168e-1
      5.938973895250714e-1 6.007956996320486e-1 5.780718976380302e-1 5.257718884692737e-1
      4.455172536338320e-1 3.405547200461231e-1 2.157147740969366e-1 7.726929280561269e-2
      -6.731677508638388e-2 -2.097381407706266e-1 -3.412971507429294e-1 -4.534294396163770e-1
      -5.382810449211711e-1 -5.893025262857040e-1 -6.018185782308175e-1 -5.735266255339093e-1
      -5.048758273566511e-1 -3.992796152796048e-1 -2.631210163302417e-1 -1.055209610514650e-1
      6.214443800536741e-2 2.269715039032996e-1 3.754719054913626e-1 4.946761106571230e-1
      5.733180421171930e-1 6.030002767240531e-1 5.792241029376433e-1 5.021630603852680e-1
      3.770649341284009e-1 2.141875005321606e-1 2.820833530416106e-2 -1.629022377454301e-1
      -3.394963688663352e-1 -4.822379763295398e-1 -5.742878637090812e-1 -6.034521752617234e-1
      -5.640268214740665e-1 -4.580640506533866e-1 -2.958165635373351e-1 -9.518328938986665e-2
      1.199119832264878e-1 3.221398139480986e-1 4.841577067989222e-1 5.823997292397735e-1
      6.007629203905747e-1 5.336208237548689e-1 3.876032378526941e-1 1.816843398973871e-1
      -5.467790879726257e-2 -2.853232563333272e-1 -4.727272729748310e-1 -5.841944491864950e-1
      -5.979300542827594e-1 -5.078700341020975e-1 -3.261918328262237e-1 -8.269445489759274e-2
      1.792814032176761e-1 4.100757142981228e-1 5.630486534460352e-1 6.043934243974155e-1
      5.213853486593861e-1 3.269681671128110e-1 5.917612306772327e-2 -2.251045871356320e-1
      -4.615969875087612e-1 -5.931611200994739e-1 -5.842826680125962e-1 -4.318368237639439e-1
      -1.687997934379876e-1 1.410958536017737e-1 4.176133275614945e-1 5.844840096171918e-1
      5.911536822283080e-1 4.296287250057896e-1 1.406704524162101e-1 -1.941005193405610e-1
      -4.737453687950458e-1 -6.082353293266939e-1 -5.486617853399923e-1 -3.072282664532847e-1
      4.136728757010039e-2 3.803460464566680e-1 5.888132819094186e-1 5.857155448691495e-1
      3.639298662569407e-1 -2.409984444501597e-4 -3.695408218459522e-1 -5.956671442168110e-1
      -5.797037995112863e-1 -3.186728699382621e-1 8.430205142103381e-2 4.561428521908927e-1
      6.264024741212063e-1 5.073371306051556e-1 1.437773561379142e-1 -2.964361909680190e-1
      -5.954294165279659e-1 -5.931213135771007e-1 -2.775489042394509e-1 1.943612744131131e-1
      5.677334462273228e-1 6.255692749541122e-1 3.194003823380779e-1 -1.848646892442349e-1
      -5.873679684644358e-1 -6.296919309919624e-1 -2.661616835945556e-1 2.836822786585755e-1
      6.562586184324787e-1 5.819716779586884e-1 8.831390331613235e-2 -4.872126152059631e-1
      -7.159416768933859e-1 -3.985910236302101e-1 2.494797231461412e-1 7.229293479088118e-1
      6.121788804881325e-1 -3.298673798282580e-2 -6.860419824677352e-1 -7.541712969541098e-1
      -1.194968620071205e-1 6.778465209809307e-1 8.675242936480508e-1 1.881512328024057e-1
      -7.557615997718441e-1 -9.837562153006104e-1 -1.427718159040135e-1 9.717361099901863e-1
      1.098009773894380e0 -9.192406795390259e-2 -1.372740119468061e0 -1.125199691349661e0
      6.692676571741200e-1 1.956582376489667e0 8.084587213218526e-1 -1.821783733519899e0
      -2.510372510498883e0 4.276902719235116e-1 3.703789804772445e0 2.207103089528431e0
      -3.548778200839753e0 -5.722827160523138e0 1.097722319319214e0 9.276519065127069e0
      4.705805803594497e0 -1.119390591596899e1 -1.489205250281877e1 8.306392955269528e0
      2.991749434299640e1 5.152287495183170e0 -4.809435429924939e1 -3.912592117399775e1
      6.165700550700815e1 1.093087095332010e2 -4.765628361231371e1 -2.363346723661583e2
      -5.175271136744271e1 4.343466552747262e2 3.686259733792963e2 -6.642025448665335e2
      -1.177479074687909e3 6.836924961071616e2 2.978411238843954e3 3.737968491448737e2
      -6.456206927203391e3 -5.061069699263872e3 1.169473457527405e4 1.993363101748255e4
      -1.445202316526181e4 -5.930379527597819e4 -7.104217385059751e3 1.457765990673790e5
      1.314973069045748e5 -2.791278873224356e5 -5.848514087897747e5 2.576993882626769e5
      1.854960715999487e6 1.004420178689614e6 -4.346843456581699e6 -7.353675766180974e6
      5.065524454304543e6 2.780747165193874e7 1.700118436766384e7 -6.557848675139027e7
      -1.382310472925885e8 2.246575966940071e7 4.810381143900984e8 6.498507681095281e8
      -5.734439864491714e8 0.000000000000000e0 0.000000000000000e0
      </PP_AEWFC.4>
    <PP_PSWFC.1 index="1" label="3S" l="0">
      2.008725124607968e-5 2.033991776348261e-5 2.059576243446959e-5 2.085482523529294e-5
      2.111714664504445e-5 2.138276765198018e-5 2.165172975992509e-5 2.192407499475805e-5
      2.219984591097845e-5 2.247908559835551e-5 2.276183768866106e-5 2.304814636248714e-5
      2.333805635614928e-5 2.363161296867668e-5 2.392886206889031e-5 2.422985010256991e-5
      2.453462409971130e-5 2.484323168187499e-5 2.515572106962694e-5 2.547214109007343e-5
      2.579254118449010e-5 2.611697141604744e-5 2.644548247763323e-5 2.677812569977334e-5
      2.711495305865240e-5 2.745601718423496e-5 2.780137136848925e-5 2.815106957371402e-5
      2.850516644097032e-5 2.886371729861934e-5 2.922677817096750e-5 2.959440578702037e-5
      2.996665758934676e-5 3.034359174305420e-5 3.072526714487744e-5 3.111174343238105e-5
      3.150308099327806e-5 3.189934097486558e-5 3.230058529357926e-5 3.270687664466790e-5
      3.311827851198956e-5 3.353485517793124e-5 3.395667173345302e-5 3.438379408825873e-5
      3.481628898109451e-5 3.525422399017680e-5 3.569766754375163e-5 3.614668893078674e-5
      3.660135831179798e-5 3.706174672981234e-5 3.752792612146826e-5 3.799996932825608e-5
      3.847795010789959e-5 3.896194314588093e-5 3.945202406711041e-5 3.994826944774283e-5
      4.045075682714298e-5 4.095956472000115e-5 4.147477262860123e-5 4.199646105524334e-5
      4.252471151482220e-5 4.305960654756421e-5 4.360122973192455e-5 4.414966569764638e-5
      4.470500013898465e-5 4.526731982809577e-5 4.583671262859617e-5 4.641326750929115e-5
      4.699707455807634e-5 4.758822499601437e-5 4.818681119158819e-5 4.879292667513396e-5
      4.940666615345535e-5 5.002812552462172e-5 5.065740189295253e-5 5.129459358418993e-5
      5.193980016086250e-5 5.259312243784216e-5 5.325466249809673e-5 5.392452370864071e-5
      5.460281073668646e-5 5.528962956599882e-5 5.598508751345543e-5 5.668929324581502e-5
      5.740235679669727e-5 5.812438958377540e-5 5.885550442618570e-5 5.959581556215579e-5
      6.034543866685462e-5 6.110449087046709e-5 6.187309077649584e-5 6.265135848029335e-5
      6.343941558782729e-5 6.423738523468159e-5 6.504539210529709e-5 6.586356245245323e-5
      6.669202411699592e-5 6.753090654781268e-5 6.838034082205954e-5 6.924045966564238e-5
      7.011139747395535e-5 7.099329033288067e-5 7.188627604005269e-5 7.279049412638861e-5
      7.370608587789143e-5 7.463319435772540e-5 7.557196442857053e-5 7.652254277525783e-5
      7.748507792768909e-5 7.845972028404528e-5 7.944662213428656e-5 8.044593768394810e-5
      8.145782307823518e-5 8.248243642642134e-5 8.351993782655374e-5 8.457048939046835e-5
      8.563425526912107e-5 8.671140167823644e-5 8.780209692427942e-5 8.890651143075438e-5
      9.002481776483336e-5 9.115719066432121e-5 9.230380706495811e-5 9.346484612806714e-5
      9.464048926854852e-5 9.583092018322620e-5 9.703632487955119e-5 9.825689170466600e-5
      9.949281137483448e-5 1.007442770052422e-4 1.020114841401707e-4 1.032946307835529e-4
      1.045939174299110e-4 1.059095470956853e-4 1.072417253509561e-4 1.085906603515648e-4
      1.099565628716384e-4 1.113396463365252e-4 1.127401268561418e-4 1.141582232587425e-4
      1.155941571251112e-4 1.170481528231847e-4 1.185204375431111e-4 1.200112413327491e-4
      1.215207971336145e-4 1.230493408172773e-4 1.245971112222187e-4 1.261643501911502e-4
      1.277513026088026e-4 1.293582164401909e-4 1.309853427693592e-4 1.326329358386143e-4
      1.343012530882520e-4 1.359905551967839e-4 1.377011061216693e-4 1.394331731405598e-4
      1.411870268930633e-4 1.429629414230321e-4 1.447611942213844e-4 1.465820662694639e-4
      1.484258420829436e-4 1.502928097562838e-4 1.521832610077486e-4 1.540974912249877e-4
      1.560357995111938e-4 1.579984887318374e-4 1.599858655619934e-4 1.619982405342595e-4
      1.640359280872788e-4 1.660992466148744e-4 1.681885185157984e-4 1.703040702441106e-4
      1.724462323601876e-4 1.746153395823764e-4 1.768117308392963e-4 1.790357493227969e-4
      1.812877425415875e-4 1.835680623755355e-4 1.858770651306508e-4 1.882151115947623e-4
      1.905825670938915e-4 1.929798015493405e-4 1.954071895354926e-4 1.978651103383440e-4
      2.003539480147704e-4 2.028740914525377e-4 2.054259344310712e-4 2.080098756829854e-4
      2.106263189563899e-4 2.132756730779801e-4 2.159583520169171e-4 2.186747749495181e-4
      2.214253663247537e-4 2.242105559305738e-4 2.270307789610661e-4 2.298864760844586e-4
      2.327780935119806e-4 2.357060830675861e-4 2.386709022585569e-4 2.416730143469940e-4
      2.447128884222055e-4 2.477909994740099e-4 2.509078284669567e-4 2.540638624154838e-4
      2.572595944600202e-4 2.604955239440435e-4 2.637721564921109e-4 2.670900040888684e-4
      2.704495851590549e-4 2.738514246485153e-4 2.772960541062274e-4 2.807840117673671e-4
      2.843158426374138e-4 2.878920985773155e-4 2.915133383897277e-4 2.951801279063309e-4
      2.988930400762556e-4 3.026526550556116e-4 3.064595602981475e-4 3.103143506470528e-4
      3.142176284279079e-4 3.181700035428137e-4 3.221720935656955e-4 3.262245238388120e-4
      3.303279275704783e-4 3.344829459340135e-4 3.386902281679407e-4 3.429504316774417e-4
      3.472642221370895e-4 3.516322735948767e-4 3.560552685775467e-4 3.605338981972573e-4
      3.650688622595801e-4 3.696608693728620e-4 3.743106370589639e-4 3.790188918653875e-4
      3.837863694788207e-4 3.886138148401037e-4 3.935019822606475e-4 3.984516355403155e-4
      4.034635480867859e-4 4.085385030364215e-4 4.136772933766543e-4 4.188807220699148e-4
      4.241496021791184e-4 4.294847569947315e-4 4.348870201634369e-4 4.403572358184171e-4
      4.458962587112788e-4 4.515049543456367e-4 4.571841991123772e-4 4.629348804266273e-4
      4.687578968664438e-4 4.746541583132499e-4 4.806245860940393e-4 4.866701131253690e-4
      4.927916840591644e-4 4.989902554303597e-4 5.052667958063971e-4 5.116222859386063e-4
      5.180577189154896e-4 5.245741003179378e-4 5.311724483763967e-4 5.378537941300143e-4
      5.446191815877913e-4 5.514696678917571e-4 5.584063234822036e-4 5.654302322649957e-4
      5.725424917809889e-4 5.797442133775816e-4 5.870365223824225e-4 5.944205582793087e-4
      6.018974748862968e-4 6.094684405360540e-4 6.171346382584848e-4 6.248972659656515e-4
      6.327575366390260e-4 6.407166785190971e-4 6.487759352973668e-4 6.569365663107634e-4
      6.651998467385014e-4 6.735670678014223e-4 6.820395369638415e-4 6.906185781379416e-4
      6.993055318907366e-4 7.081017556536407e-4 7.170086239346833e-4 7.260275285333853e-4
      7.351598787583516e-4 7.444071016475995e-4 7.537706421916615e-4 7.632519635594987e-4
      7.728525473272625e-4 7.825738937099312e-4 7.924175217958719e-4 8.023849697843511e-4
      8.124777952260395e-4 8.226975752665485e-4 8.330459068930292e-4 8.435244071838866e-4
      8.541347135616295e-4 8.648784840489171e-4 8.757573975278211e-4 8.867731540023636e-4
      8.979274748643585e-4 9.092221031626025e-4 9.206588038754624e-4 9.322393641868933e-4
      9.439655937659374e-4 9.558393250497485e-4 9.678624135301767e-4 9.800367380439747e-4
      9.923642010666534e-4 1.004846729010050e-3 1.017486272523644e-3 1.030284806799668e-3
      1.043244331882076e-3 1.056366872979396e-3 1.069654480781538e-3 1.083109231780591e-3
      1.096733228595666e-3 1.110528600301843e-3 1.124497502763255e-3 1.138642118970389e-3
      1.152964659381624e-3 1.167467362269103e-3 1.182152494068938e-3 1.197022349735864e-3
      1.212079253102346e-3 1.227325557242230e-3 1.242763644838986e-3 1.258395928558584e-3
      1.274224851427096e-3 1.290252887213053e-3 1.306482540814634e-3 1.322916348651744e-3
      1.339556879063042e-3 1.356406732707982e-3 1.373468542973942e-3 1.390744976388477e-3
      1.408238733036807e-3 1.425952546984550e-3 1.443889186705821e-3 1.462051455516730e-3
      1.480442192014358e-3 1.499064270521299e-3 1.517920601535789e-3 1.537014132187563e-3
      1.556347846699454e-3 1.575924766854835e-3 1.595747952470985e-3 1.615820501878420e-3
      1.636145552406316e-3 1.656726280874057e-3 1.677565904089008e-3 1.698667679350601e-3
      1.720034904960781e-3 1.741670920740938e-3 1.763579108555371e-3 1.785762892841390e-3
      1.808225741146140e-3 1.830971164670205e-3 1.854002718818131e-3 1.877324003755909e-3
      1.900938664975528e-3 1.924850393866702e-3 1.949062928295823e-3 1.973580053192288e-3
      1.998405601142240e-3 2.023543452989870e-3 2.048997538446335e-3 2.074771836706409e-3
      2.100870377072981e-3 2.127297239589468e-3 2.154056555680279e-3 2.181152508799417e-3
      2.208589335087316e-3 2.236371324036051e-3 2.264502819162989e-3 2.292988218693030e-3
      2.321831976249532e-3 2.351038601554006e-3 2.380612661134759e-3 2.410558779044544e-3
      2.440881637587356e-3 2.471585978054501e-3 2.502676601470055e-3 2.534158369345811e-3
      2.566036204445892e-3 2.598315091561094e-3 2.631000078293141e-3 2.664096275848955e-3
      2.697608859845062e-3 2.731543071122298e-3 2.765904216570934e-3 2.800697669966354e-3
      2.835928872815440e-3 2.871603335213784e-3 2.907726636713888e-3 2.944304427204503e-3
      2.981342427801233e-3 3.018846431748574e-3 3.056822305333527e-3 3.095275988810947e-3
      3.134213497340787e-3 3.173640921937382e-3 3.213564430430972e-3 3.253990268441557e-3
      3.294924760365326e-3 3.336374310373799e-3 3.378345403425826e-3 3.420844606292678e-3
      3.463878568596330e-3 3.507454023861195e-3 3.551577790579434e-3 3.596256773290036e-3
      3.641497963671905e-3 3.687308441651049e-3 3.733695376522173e-3 3.780666028084788e-3
      3.828227747794084e-3 3.876387979926760e-3 3.925154262761987e-3 3.974534229777765e-3
      4.024535610862846e-3 4.075166233544463e-3 4.126434024232078e-3 4.178347009477345e-3
      4.230913317250566e-3 4.284141178233841e-3 4.338038927131139e-3 4.392615003995567e-3
      4.447877955573994e-3 4.503836436669403e-3 4.560499211521107e-3 4.617875155203155e-3
      4.675973255041145e-3 4.734802612047735e-3 4.794372442377099e-3 4.854692078798627e-3
      4.915770972190112e-3 4.977618693050758e-3 5.040244933034209e-3 5.103659506502001e-3
      5.167872352097646e-3 5.232893534341699e-3 5.298733245248094e-3 5.365401805962077e-3
      5.432909668420031e-3 5.501267417031571e-3 5.570485770384166e-3 5.640575582970709e-3
      5.711547846940283e-3 5.783413693872568e-3 5.856184396576190e-3 5.929871370911376e-3
      6.004486177637335e-3 6.080040524284653e-3 6.156546267053185e-3 6.234015412735786e-3
      6.312460120668244e-3 6.391892704705953e-3 6.472325635227558e-3 6.553771541166153e-3
      6.636243212068410e-3 6.719753600182027e-3 6.804315822572073e-3 6.889943163266533e-3
      6.976649075431647e-3 7.064447183577485e-3 7.153351285794205e-3 7.243375356019578e-3
      7.334533546338184e-3 7.426840189312902e-3 7.520309800349159e-3 7.614957080092512e-3
      7.710796916860135e-3 7.807844389106691e-3 7.906114767925290e-3 8.005623519584066e-3
      8.106386308098955e-3 8.208418997843335e-3 8.311737656195156e-3 8.416358556222184e-3
      8.522298179406068e-3 8.629573218405838e-3 8.738200579861644e-3 8.848197387239267e-3
      8.959580983716309e-3 9.072368935110758e-3 9.186579032852558e-3 9.302229296999226e-3
      9.419337979295983e-3 9.537923566281552e-3 9.658004782440205e-3 9.779600593401076e-3
      9.902730209185560e-3 1.002741308750364e-2 1.015366893710019e-2 1.028151772115220e-2
      1.041097966071764e-2 1.054207523823745e-2 1.067482520109109e-2 1.080925056520720e-2
      1.094537261873017e-2 1.108321292574378e-2 1.122279333005312e-2 1.136413595902582e-2
      1.150726322749390e-2 1.165219784171742e-2 1.179896280341119e-2 1.194758141383582e-2
      1.209807727795444e-2 1.225047430865647e-2 1.240479673104992e-2 1.256106908682335e-2
      1.271931623867951e-2 1.287956337484155e-2 1.304183601363385e-2 1.320616000813887e-2
      1.337256155093169e-2 1.354106717889394e-2 1.371170377810886e-2 1.388449858883936e-2
      1.405947921059078e-2 1.423667360726043e-2 1.441611011237570e-2 1.459781743442286e-2
      1.478182466226857e-2 1.496816127067626e-2 1.515685712591956e-2 1.534794249149505e-2
      1.554144803393658e-2 1.573740482873374e-2 1.593584436635667e-2 1.613679855839006e-2
      1.634029974377872e-2 1.654638069518748e-2 1.675507462547822e-2 1.696641519430695e-2
      1.718043651484368e-2 1.739717316061848e-2 1.761666017249633e-2 1.783893306578454e-2
      1.806402783747574e-2 1.829198097362983e-2 1.852282945689879e-2 1.875661077419744e-2
      1.899336292452437e-2 1.923312442693681e-2 1.947593432868313e-2 1.972183221349763e-2
      1.997085821006127e-2 2.022305300063326e-2 2.047845782985761e-2 2.073711451374956e-2
      2.099906544886662e-2 2.126435362166911e-2 2.153302261807538e-2 2.180511663321711e-2
      2.208068048139976e-2 2.235975960627442e-2 2.264240009122600e-2 2.292864866998463e-2
      2.321855273746585e-2 2.351216036084609e-2 2.380952029088028e-2 2.411068197346786e-2
      2.441569556147469e-2 2.472461192681788e-2 2.503748267282083e-2 2.535436014684661e-2
      2.567529745321695e-2 2.600034846642582e-2 2.632956784465533e-2 2.666301104360320e-2
      2.700073433063067e-2 2.734279479923967e-2 2.768925038388963e-2 2.804015987516334e-2
      2.839558293529191e-2 2.875558011405003e-2 2.912021286503146e-2 2.948954356231681e-2
      2.986363551754472e-2 3.024255299739844e-2 3.062636124152023e-2 3.101512648086606e-2
      3.140891595651397e-2 3.180779793893935e-2 3.221184174777135e-2 3.262111777204438e-2
      3.303569749095991e-2 3.345565349517355e-2 3.388105950862345e-2 3.431199041091574e-2
      3.474852226028458e-2 3.519073231714287e-2 3.563869906824268e-2 3.609250225146261e-2
      3.655222288124174e-2 3.701794327467912e-2 3.748974707831876e-2 3.796771929564122e-2
      3.845194631528254e-2 3.894251594000241e-2 3.943951741642443e-2 3.994304146557092e-2
      4.045318031421677e-2 4.097002772708630e-2 4.149367903991864e-2 4.202423119342739e-2
      4.256178276818085e-2 4.310643402043092e-2 4.365828691891785e-2 4.421744518268056e-2
      4.478401431990158e-2 4.535810166781699e-2 4.593981643372320e-2 4.652926973711192e-2
      4.712657465296639e-2 4.773184625625287e-2 4.834520166764123e-2 4.896676010049056e-2
      4.959664290913571e-2 5.023497363851186e-2 5.088187807515514e-2 5.153748429961755e-2
      5.220192274033648e-2 5.287532622899871e-2 5.355783005744035e-2 5.424957203612502e-2
      5.495069255424266e-2 5.566133464147326e-2 5.638164403145983e-2 5.711176922703585e-2
      5.785186156725317e-2 5.860207529625714e-2 5.936256763405671e-2 6.013349884923715e-2
      6.091503233366393e-2 6.170733467922815e-2 6.251057575668071e-2 6.332492879660904e-2
      6.415057047260319e-2 6.498768098666428e-2 6.583644415690619e-2 6.669704750760015e-2
      6.756968236161558e-2 6.845454393530591e-2 6.935183143589121e-2 7.026174816138900e-2
      7.118450160314054e-2 7.212030355098492e-2 7.306937020112672e-2 7.403192226674537e-2
      7.500818509139373e-2 7.599838876522746e-2 7.700276824411130e-2 7.802156347164059e-2
      7.905501950411740e-2 8.010338663851913e-2 8.116692054348855e-2 8.224588239338020e-2
      8.334053900538546e-2 8.445116297975927e-2 8.557803284316917e-2 8.672143319517389e-2
      8.788165485784470e-2 8.905899502852622e-2 9.025375743573282e-2 9.146625249817014e-2
      9.269679748685666e-2 9.394571669032171e-2 9.521334158283684e-2 9.650001099563422e-2
      9.780607129105372e-2 9.913187653954282e-2 1.004777886994310e-1 1.018441777993743e-1
      1.032314221233599e-1 1.046399083981416e-1 1.060700319829549e-1 1.075221970613517e-1
      1.089968168349630e-1 1.104943137189832e-1 1.120151195391479e-1 1.135596757299431e-1
      1.151284335337690e-1 1.167218542007418e-1 1.183404091887940e-1 1.199845803636991e-1
      1.216548601986076e-1 1.233517519726519e-1 1.250757699681299e-1 1.268274396657400e-1
      1.286072979372958e-1 1.304158932352946e-1 1.322537857786734e-1 1.341215477340219e-1
      1.360197633914697e-1 1.379490293344093e-1 1.399099546021384e-1 1.419031608444540e-1
      1.439292824671450e-1 1.459889667672605e-1 1.480828740569540e-1 1.502116777746070e-1
      1.523760645818622e-1 1.545767344450879e-1 1.568144006997038e-1 1.590897900956958e-1
      1.614036428225282e-1 1.637567125115598e-1 1.661497662139372e-1 1.685835843518186e-1
      1.710589606406530e-1 1.735767019800853e-1 1.761376283109359e-1 1.787425724355286e-1
      1.813923797984990e-1 1.840879082250492e-1 1.868300276134326e-1 1.896196195782930e-1
      1.924575770412805e-1 1.953448037651887e-1 1.982822138276580e-1 2.012707310302779e-1
      2.043112882387280e-1 2.074048266493639e-1 2.105522949774448e-1 2.137546485619748e-1
      2.170128483818828e-1 2.203278599780532e-1 2.237006522754609e-1 2.271321962994272e-1
      2.306234637797813e-1 2.341754256364399e-1 2.377890503397027e-1 2.414653021382882e-1
      2.452051391479100e-1 2.490095112929544e-1 2.528793580935703e-1 2.568156062902860e-1
      2.608191672980232e-1 2.648909344811949e-1 2.690317802413827e-1 2.732425529089103e-1
      2.775240734294944e-1 2.818771318370166e-1 2.863024835033713e-1 2.908008451562889e-1
      2.953728906559810e-1 3.000192465215083e-1 3.047404871977966e-1 3.095371300543706e-1
      3.144096301070429e-1 3.193583744540218e-1 3.243836764182520e-1 3.294857693881553e-1
      3.346648003494550e-1 3.399208231013466e-1 3.452537911509401e-1 3.506635502807526e-1
      3.561498307849131e-1 3.617122393708454e-1 3.673502507244162e-1 3.730631987378798e-1
      3.788502674015634e-1 3.847104813619162e-1 3.906426961505385e-1 3.966455880909174e-1
      4.027176438919973e-1 4.088571499403368e-1 4.150621813054426e-1 4.213305904760637e-1
      4.276599958485997e-1 4.340477699925295e-1 4.404910277217896e-1 4.469866140053474e-1
      4.535310917549450e-1 4.601207295329462e-1 4.667514892286325e-1 4.734190137570030e-1
      4.801186148401865e-1 4.868452609380648e-1 4.935935654014457e-1 5.003577749283114e-1
      5.071317584111462e-1 5.139089962711328e-1 5.206825703831608e-1 5.274451547039388e-1
      5.341890067241454e-1 5.409059598743863e-1 5.475874170236467e-1 5.542243452180237e-1
      5.608072718165217e-1 5.673262821896802e-1 5.737710191556121e-1 5.801306843364632e-1
      5.863940416264491e-1 5.925494229700574e-1 5.985847366558275e-1 6.044874783369556e-1
      6.102447449947106e-1 6.158432520640909e-1 6.212693539429429e-1 6.265090681057861e-1
      6.315481030414496e-1 6.363718902290324e-1 6.409656203593959e-1 6.453142839989149e-1
      6.494027168782943e-1 6.532156499714522e-1 6.567377645073562e-1 6.599537520309636e-1
      6.628483795974873e-1 6.654086963030307e-1 6.676305524571942e-1 6.695122943589724e-1
      6.710526409962022e-1 6.722506849152195e-1 6.731058936262214e-1 6.736181113572670e-1
      6.737875609683615e-1 6.736148458453137e-1 6.731009516073762e-1 6.722472474805134e-1
      6.710554872076978e-1 6.695278093876249e-1 6.676667371528281e-1 6.654751771167832e-1
      6.629564175368396e-1 6.601141256555280e-1 6.569523441968435e-1 6.534754870064869e-1
      6.496883338358336e-1 6.455960242786314e-1 6.412040508772768e-1 6.365182514220537e-1
      6.315448004721213e-1 6.262902001314002e-1 6.207612701159797e-1 6.149651371523373e-1
      6.089092237476499e-1 6.026012363748538e-1 5.960491531159442e-1 5.892612108073669e-1
      5.822458917312751e-1 5.750119098959381e-1 5.675681969477270e-1 5.599238877558667e-1
      5.520883057095437e-1 5.440709477650110e-1 5.358814692780176e-1 5.275296686542250e-1
      5.190254718472596e-1 5.103789167307044e-1 5.016001373666756e-1 4.926993481897041e-1
      4.836868281185584e-1 4.745729046162824e-1 4.653679376842792e-1 4.560823038132856e-1
      4.467263798784148e-1 4.373105269753160e-1 4.278450741895814e-1 4.183403022898871e-1
      4.088064273349044e-1 3.992535841850558e-1 3.896918099129048e-1 3.801310271105561e-1
      3.705810270990133e-1 3.610514530529994e-1 3.515517830652421e-1 3.420913131863998e-1
      3.326791404903636e-1 3.233241462291054e-1 3.140349791559782e-1 3.048200391107843e-1
      2.956874609730533e-1 2.866450991015479e-1 2.777005123869953e-1 2.688609500501779e-1
      2.601333383199570e-1 2.515242681242829e-1 2.430399839209360e-1 2.346863737849356e-1
      2.264689608562975e-1 2.183928962353048e-1 2.104629533934605e-1 2.026835241475497e-1
      1.950586162225390e-1 1.875918524071367e-1 1.802864712844915e-1 1.731453295003672e-1
      1.661709055127460e-1 1.593653047506250e-1 1.527302660960685e-1 1.462671695925268e-1
      1.399770452740990e-1 1.338605830047151e-1 1.279181432130287e-1 1.221497684079072e-1
      1.165551953605337e-1 1.111338678420054e-1 1.058849498096121e-1 1.008073389404173e-1
      9.589968041705163e-2 9.116038087749551e-2 8.658762244784118e-2 8.217937678438014e-2
      7.793341905868553e-2 7.384734182651469e-2 6.991856872823869e-2 6.614436797503709e-2
      6.252186558122546e-2 5.904805830878441e-2 5.571982629541889e-2 5.253394534230011e-2
      4.948709884204108e-2 4.657588933145033e-2 4.379684965721514e-2 4.114645374590959e-2
      3.862112697261987e-2 3.621725612504550e-2 3.393119896218212e-2 3.175929336862993e-2
      2.969786610719435e-2 2.774324117377247e-2 2.589174775955953e-2 2.413972782632623e-2
      2.248354330097212e-2 2.091958289576289e-2 1.944426856059847e-2 1.805406157338966e-2
      1.674546827418403e-2 1.551504544810930e-2 1.435940536154516e-2 1.327522045524268e-2
      1.225922769743460e-2 1.130823259936738e-2 1.041911289518080e-2 9.588821887700782e-3
      8.814391461525082e-3 8.092934764789700e-3 7.421648561217729e-3 6.797815254472389e-3
      6.218804587454597e-3 5.682075019986897e-3 5.185174789286574e-3 4.725742658723754e-3
      4.301508361552759e-3 3.910292747563374e-3 3.550007641887754e-3 3.218655426484622e-3
      2.914328356072749e-3 2.635207621471058e-3 2.379562174396796e-3 2.145747328754215e-3
      1.932203154295982e-3 1.737452679244611e-3 1.560099919012186e-3 1.398827748548243e-3
      1.252395636076151e-3 1.119637256049746e-3 9.994579990787495e-4 8.908323963412103e-4
      7.928014756330692e-4 7.044700657101415e-4 6.250040649685928e-4 5.536276897996975e-4
      4.896207171570049e-4 4.323157350031345e-4 3.810954133731967e-4 3.353898078161023e-4
      2.946737059670342e-4 2.584640269767679e-4 2.263172824882486e-4 1.978271068189071e-4
      1.726218629886970e-4 1.503623302378902e-4 1.307394777135010e-4 1.134723280744791e-4
      9.830591388720290e-5 8.500932883103705e-5 7.337387498208959e-5 6.321130668724696e-5
      5.435217087901735e-5 4.664424308216680e-5 3.995105780748997e-5 3.415053153810088e-5
      2.913367608397946e-5 2.480339970769546e-5 2.107339310720544e-5 1.786709707816255e-5
      1.511674846424488e-5 1.276250085235688e-5 1.075161624139672e-5 9.037725194989921e-6
      7.580139225235341e-6 6.343298441772351e-6 5.295973143716942e-6 4.411278472849224e-6
      3.665882361351822e-6 3.039354729837365e-6 2.513971497814631e-6 2.074447833357062e-6
      1.707634222965527e-6 1.402245759148263e-6 1.148621647311056e-6 9.385121282878590e-7
      7.648901989495238e-7 6.217856964213721e-7 5.041394900461079e-7 4.076756985233629e-7
      3.287900164646432e-7 2.644523945052702e-7 2.121224694571952e-7 1.696762853026348e-7
      1.353429819010302e-7 1.076502559331590e-7 8.537751777418851e-8 6.751577871449572e-8
      5.323340535703402e-8 4.184697230916589e-8 3.279653071248952e-8 2.562468902376281e-8
      1.995897412093129e-8 1.549700563807120e-8 1.199407483058511e-8 9.252771649004279e-9
      7.114350473850672e-9 5.451566549717882e-9 4.162751970297569e-9 3.166932463508636e-9
      2.399814779682629e-9 1.810498561459373e-9 1.358791598337634e-9 1.013008129518558e-9
      7.482235916865687e-10 5.446750532149409e-10 3.877770852166924e-10 2.604393876389282e-10
      0.000000000000000e0 0.000000000000000e0 0.000000000000000e0 0.000000000000000e0
      0.000000000000000e0 0.000000000000000e0 0.000000000000000e0 0.000000000000000e0
      0.000000000000000e0 0.000000000000000e0 0.000000000000000e0 0.000000000000000e0
      0.000000000000000e0 0.000000000000000e0 0.000000000000000e0 0.000000000000000e0
      0.000000000000000e0 0.000000000000000e0 0.000000000000000e0 0.000000000000000e0
      0.000000000000000e0 0.000000000000000e0 0.000000000000000e0 0.000000000000000e0
      0.000000000000000e0 0.000000000000000e0 0.000000000000000e0 0.000000000000000e0
      0.000000000000000e0 0.000000000000000e0 0.000000000000000e0 0.000000000000000e0
      0.000000000000000e0 0.000000000000000e0 0.000000000000000e0 0.000000000000000e0
      0.000000000000000e0 0.000000000000000e0 0.000000000000000e0 0.000000000000000e0
      0.000000000000000e0 0.000000000000000e0 0.000000000000000e0 0.000000000000000e0
      0.000000000000000e0 0.000000000000000e0 0.000000000000000e0 0.000000000000000e0
      0.000000000000000e0 0.000000000000000e0 0.000000000000000e0 0.000000000000000e0
      0.000000000000000e0 0.000000000000000e0 0.000000000000000e0 0.000000000000000e0
      0.000000000000000e0 0.000000000000000e0 0.000000000000000e0 0.000000000000000e0
      0.000000000000000e0 0.000000000000000e0 0.000000000000000e0 0.000000000000000e0
      0.000000000000000e0 0.000000000000000e0 0.000000000000000e0 0.000000000000000e0
      0.000000000000000e0 0.000000000000000e0 0.000000000000000e0 0.000000000000000e0
      0.000000000000000e0 0.000000000000000e0 0.000000000000000e0 0.000000000000000e0
      0.000000000000000e0 0.000000000000000e0 0.000000000000000e0 0.000000000000000e0
      0.000000000000000e0 0.000000000000000e0 0.000000000000000e0 0.000000000000000e0
      0.000000000000000e0 0.000000000000000e0 0.000000000000000e0 0.000000000000000e0
      0.000000000000000e0 0.000000000000000e0 0.000000000000000e0
      </PP_PSWFC.1>
    <PP_PSWFC.2 index="2" label="3S" l="0">
      1.458515295482627e-5 1.476861160512946e-5 1.495437788158208e-5 1.514248081056337e-5
      1.533294978356012e-5 1.552581456175899e-5 1.572110528069712e-5 1.591885245497051e-5
      1.611908698300236e-5 1.632184015187084e-5 1.652714364219788e-5 1.673502953309938e-5
      1.694553030719758e-5 1.715867885569665e-5 1.737450848352211e-5 1.759305291452473e-5
      1.781434629675003e-5 1.803842320777399e-5 1.826531866010603e-5 1.849506810665979e-5
      1.872770744629264e-5 1.896327302941516e-5 1.920180166367103e-5 1.944333061968824e-5
      1.968789763690284e-5 1.993554092945585e-5 2.018629919216441e-5 2.044021160656785e-5
      2.069731784705019e-5 2.095765808703915e-5 2.122127300528365e-5 2.148820379220985e-5
      2.175849215635739e-5 2.203218033089656e-5 2.230931108022734e-5 2.258992770666153e-5
      2.287407405718896e-5 2.316179453032869e-5 2.345313408306661e-5 2.374813823788001e-5
      2.404685308985083e-5 2.434932531386804e-5 2.465560217192100e-5 2.496573152048419e-5
      2.527976181799521e-5 2.559774213242643e-5 2.591972214895228e-5 2.624575217771263e-5
      2.657588316167419e-5 2.691016668459052e-5 2.724865497906225e-5 2.759140093469860e-5
      2.793845810638196e-5 2.828988072263571e-5 2.864572369409824e-5 2.900604262210258e-5
      2.937089380736462e-5 2.974033425878037e-5 3.011442170233416e-5 3.049321459011836e-5
      3.087677210946693e-5 3.126515419220409e-5 3.165842152400862e-5 3.205663555389670e-5
      3.245985850382367e-5 3.286815337840649e-5 3.328158397476874e-5 3.370021489250934e-5
      3.412411154379662e-5 3.455334016358962e-5 3.498796781998761e-5 3.542806242471002e-5
      3.587369274370817e-5 3.632492840791030e-5 3.678183992410247e-5 3.724449868594515e-5
      3.771297698512940e-5 3.818734802267315e-5 3.866768592035905e-5 3.915406573231703e-5
      3.964656345675221e-5 4.014525604781976e-5 4.065022142765034e-5 4.116153849852561e-5
      4.167928715520790e-5 4.220354829742416e-5 4.273440384250761e-5 4.327193673819791e-5
      4.381623097560277e-5 4.436737160232255e-5 4.492544473573939e-5 4.549053757647435e-5
      4.606273842201349e-5 4.664213668050515e-5 4.722882288473099e-5 4.782288870625322e-5
      4.842442696973878e-5 4.903353166746470e-5 4.965029797400549e-5 5.027482226110540e-5
      5.090720211273776e-5 5.154753634035365e-5 5.219592499832276e-5 5.285246939956795e-5
      5.351727213139733e-5 5.419043707153451e-5 5.487206940435136e-5 5.556227563730443e-5
      5.626116361757839e-5 5.696884254893954e-5 5.768542300879926e-5 5.841101696549517e-5
      5.914573779578665e-5 5.988970030257308e-5 6.064302073283313e-5 6.140581679579039e-5
      6.217820768130808e-5 6.296031407851426e-5 6.375225819466252e-5 6.455416377422822e-5
      6.536615611824704e-5 6.618836210389523e-5 6.702091020431713e-5 6.786393050870192e-5
      6.871755474261267e-5 6.958191628857168e-5 7.045715020690455e-5 7.134339325684611e-5
      7.224078391791333e-5 7.314946241154509e-5 7.406957072301633e-5 7.500125262362557e-5
      7.594465369316497e-5 7.689992134266879e-5 7.786720483745274e-5 7.884665532043917e-5
      7.983842583577852e-5 8.084267135276647e-5 8.185954879006330e-5 8.288921704021664e-5
      8.393183699449382e-5 8.498757156802633e-5 8.605658572527085e-5 8.713904650579041e-5
      8.823512305036042e-5 8.934498662740298e-5 9.046881065975365e-5 9.160677075176531e-5
      9.275904471675339e-5 9.392581260478606e-5 9.510725673082423e-5 9.630356170321605e-5
      9.751491445254954e-5 9.874150426086860e-5 9.998352279125733e-5 1.012411641177953e-4
      1.025146247558912e-4 1.038041036929975e-4 1.051098024197121e-4 1.064319249612714e-4
      1.077706779094397e-4 1.091262704548001e-4 1.104989144194511e-4 1.118888242901164e-4
      1.132962172516707e-4 1.147213132210860e-4 1.161643348818089e-4 1.176255077185659e-4
      1.191050600526113e-4 1.206032230774168e-4 1.221202308948087e-4 1.236563205515649e-4
      1.252117320764678e-4 1.267867085178254e-4 1.283814959814671e-4 1.299963436692134e-4
      1.316315039178344e-4 1.332872322384962e-4 1.349637873567047e-4 1.366614312527529e-4
      1.383804292026765e-4 1.401210498197274e-4 1.418835650963659e-4 1.436682504467856e-4
      1.454753847499716e-4 1.473052503933015e-4 1.491581333166954e-4 1.510343230573235e-4
      1.529341127948739e-4 1.548577993973942e-4 1.568056834677067e-4 1.587780693904122e-4
      1.607752653794835e-4 1.627975835264582e-4 1.648453398492414e-4 1.669188543415199e-4
      1.690184510228022e-4 1.711444579890855e-4 1.732972074641645e-4 1.754770358515876e-4
      1.776842837872599e-4 1.799192961927214e-4 1.821824223290860e-4 1.844740158516672e-4
      1.867944348652887e-4 1.891440419802928e-4 1.915232043692574e-4 1.939322938244241e-4
      1.963716868158536e-4 1.988417645503134e-4 2.013429130309053e-4 2.038755231174510e-4
      2.064399905876322e-4 2.090367161989072e-4 2.116661057512051e-4 2.143285701504119e-4
      2.170245254726589e-4 2.197543930294201e-4 2.225185994334302e-4 2.253175766654378e-4
      2.281517621417963e-4 2.310215987829131e-4 2.339275350825584e-4 2.368700251780480e-4
      2.398495289213179e-4 2.428665119508888e-4 2.459214457647455e-4 2.490148077941312e-4
      2.521470814782771e-4 2.553187563400754e-4 2.585303280627040e-4 2.617822985672264e-4
      2.650751760911643e-4 2.684094752680669e-4 2.717857172080879e-4 2.752044295795714e-4
      2.786661466916813e-4 2.821714095780636e-4 2.857207660815768e-4 2.893147709400843e-4
      2.929539858733349e-4 2.966389796709452e-4 3.003703282814911e-4 3.041486149027255e-4
      3.079744300729414e-4 3.118483717634859e-4 3.157710454724493e-4 3.197430643195381e-4
      3.237650491421480e-4 3.278376285926550e-4 3.319614392369368e-4 3.361371256541435e-4
      3.403653405377321e-4 3.446467447977776e-4 3.489820076645866e-4 3.533718067936168e-4
      3.578168283717347e-4 3.623177672248115e-4 3.668753269266904e-4 3.714902199095337e-4
      3.761631675755686e-4 3.808949004102521e-4 3.856861580968717e-4 3.905376896326032e-4
      3.954502534460357e-4 4.004246175161991e-4 4.054615594930945e-4 4.105618668197594e-4
      4.157263368558875e-4 4.209557770030157e-4 4.262510048313052e-4 4.316128482079322e-4
      4.370421454271195e-4 4.425397453418133e-4 4.481065074970467e-4 4.537433022649900e-4
      4.594510109817321e-4 4.652305260857994e-4 4.710827512584403e-4 4.770086015657010e-4
      4.830090036023097e-4 4.890848956374017e-4 4.952372277621012e-4 5.014669620389872e-4
      5.077750726534722e-4 5.141625460671113e-4 5.206303811728730e-4 5.271795894523966e-4
      5.338111951352590e-4 5.405262353602856e-4 5.473257603389181e-4 5.542108335206855e-4
      5.611825317607834e-4 5.682419454898181e-4 5.753901788857103e-4 5.826283500478249e-4
      5.899575911733155e-4 5.973790487357532e-4 6.048938836660418e-4 6.125032715356625e-4
      6.202084027422737e-4 6.280104826977104e-4 6.359107320183890e-4 6.439103867181845e-4
      6.520106984037860e-4 6.602129344725699e-4 6.685183783130427e-4 6.769283295078578e-4
      6.854441040394706e-4 6.940670344984497e-4 7.027984702944813e-4 7.116397778701224e-4
      7.205923409173069e-4 7.296575605966783e-4 7.388368557597613e-4 7.481316631740270e-4
      7.575434377508823e-4 7.670736527766302e-4 7.767238001464369e-4 7.864953906013552e-4
      7.963899539684379e-4 8.064090394039889e-4 8.165542156399990e-4 8.268270712338005e-4
      8.372292148210001e-4 8.477622753717322e-4 8.584279024502568e-4 8.692277664779963e-4
      8.801635590000188e-4 8.912369929550243e-4 9.024498029489115e-4 9.138037455319290e-4
      9.253005994795183e-4 9.369421660768500e-4 9.487302694071408e-4 9.606667566437926e-4
      9.727534983464082e-4 9.849923887607506e-4 9.973853461226922e-4 1.009934312966210e-3
      1.022641256435514e-3 1.035508168601326e-3 1.048537066781405e-3 1.061729993865374e-3
      1.075089018643903e-3 1.088616236142330e-3 1.102313767958757e-3 1.116183762606735e-3
      1.130228395862564e-3 1.144449871117298e-3 1.158850419733536e-3 1.173432301407036e-3
      1.188197804533290e-3 1.203149246579060e-3 1.218288974459006e-3 1.233619364917487e-3
      1.249142824915560e-3 1.264861792023344e-3 1.280778734817742e-3 1.296896153285696e-3
      1.313216579232982e-3 1.329742576698692e-3 1.346476742375470e-3 1.363421706035593e-3
      1.380580130963007e-3 1.397954714391399e-3 1.415548187948414e-3 1.433363318106113e-3
      1.451402906637789e-3 1.469669791081211e-3 1.488166845208473e-3 1.506896979502462e-3
      1.525863141640159e-3 1.545068316982803e-3 1.564515529073098e-3 1.584207840139558e-3
      1.604148351608093e-3 1.624340204621014e-3 1.644786580563541e-3 1.665490701597964e-3
      1.686455831205593e-3 1.707685274736628e-3 1.729182379968115e-3 1.750950537670085e-3
      1.772993182180094e-3 1.795313791986229e-3 1.817915890318840e-3 1.840803045751063e-3
      1.863978872808328e-3 1.887447032587103e-3 1.911211233382872e-3 1.935275231327711e-3
      1.959642831037503e-3 1.984317886269068e-3 2.009304300587331e-3 2.034606028042787e-3
      2.060227073859406e-3 2.086171495133234e-3 2.112443401541847e-3 2.139046956064934e-3
      2.165986375716185e-3 2.193265932286746e-3 2.220889953100443e-3 2.248862821781033e-3
      2.277188979031759e-3 2.305872923427380e-3 2.334919212219070e-3 2.364332462152282e-3
      2.394117350298036e-3 2.424278614897765e-3 2.454821056222101e-3 2.485749537443882e-3
      2.517068985525638e-3 2.548784392121972e-3 2.580900814497049e-3 2.613423376457634e-3
      2.646357269301967e-3 2.679707752784786e-3 2.713480156099027e-3 2.747679878874356e-3
      2.782312392193123e-3 2.817383239624011e-3 2.852898038273837e-3 2.888862479857923e-3
      2.925282331789489e-3 2.962163438288505e-3 2.999511721510446e-3 3.037333182695454e-3
      3.075633903338424e-3 3.114420046380453e-3 3.153697857422245e-3 3.193473665959956e-3
      3.233753886644096e-3 3.274545020561976e-3 3.315853656544418e-3 3.357686472497186e-3
      3.400050236757938e-3 3.442951809479143e-3 3.486398144037872e-3 3.530396288472943e-3
      3.574953386950291e-3 3.620076681257189e-3 3.665773512326131e-3 3.712051321789195e-3
      3.758917653563651e-3 3.806380155469608e-3 3.854446580880722e-3 3.903124790408674e-3
      3.952422753622469e-3 4.002348550803449e-3 4.052910374737031e-3 4.104116532542189e-3
      4.155975447539696e-3 4.208495661160286e-3 4.261685834893735e-3 4.315554752280220e-3
      4.370111320944916e-3 4.425364574677262e-3 4.481323675556107e-3 4.537997916122003e-3
      4.595396721598165e-3 4.653529652161356e-3 4.712406405264258e-3 4.772036818010815e-3
      4.832430869586114e-3 4.893598683742430e-3 4.955550531343142e-3 5.018296832966125e-3
      5.081848161568640e-3 5.146215245215351e-3 5.211408969871496e-3 5.277440382263256e-3
      5.344320692807177e-3 5.412061278611012e-3 5.480673686548042e-3 5.550169636407160e-3
      5.620561024121100e-3 5.691859925075256e-3 5.764078597499598e-3 5.837229485946286e-3
      5.911325224855747e-3 5.986378642213918e-3 6.062402763303600e-3 6.139410814552958e-3
      6.217416227484219e-3 6.296432642765737e-3 6.376473914370937e-3 6.457554113847308e-3
      6.539687534699247e-3 6.622888696888349e-3 6.707172351454891e-3 6.792553485264685e-3
      6.879047325885068e-3 6.966669346594678e-3 7.055435271530963e-3 7.145361080980381e-3
      7.236463016815735e-3 7.328757588085610e-3 7.422261576760915e-3 7.516992043643878e-3
      7.612966334444815e-3 7.710202086032250e-3 7.808717232862250e-3 7.908530013592996e-3
      8.009658977890826e-3 8.112122993434092e-3 8.215941253121697e-3 8.321133282493072e-3
      8.427718947366756e-3 8.535718461705109e-3 8.645152395712772e-3 8.756041684176909e-3
      8.868407635057107e-3 8.982271938334181e-3 9.097656675125915e-3 9.214584327079361e-3
      9.333077786049298e-3 9.453160364071969e-3 9.574855803645109e-3 9.698188288324200e-3
      9.823182453645995e-3 9.949863398390713e-3 1.007825669619431e-2 1.020838840752319e-2
      1.034028509202376e-2 1.047397382125968e-2 1.060948219185031e-2 1.074683833902431e-2
      1.088607095060260e-2 1.102720928142566e-2 1.117028316824057e-2 1.131532304506363e-2
      1.146235995903520e-2 1.161142558678367e-2 1.176255225131639e-2 1.191577293945564e-2
      1.207112131983883e-2 1.222863176150216e-2 1.238833935306839e-2 1.255027992255928e-2
      1.271449005785459e-2 1.288100712782020e-2 1.304986930412817e-2 1.322111558379301e-2
      1.339478581244898e-2 1.357092070839388e-2 1.374956188742610e-2 1.393075188850221e-2
      1.411453420024329e-2 1.430095328832010e-2 1.449005462374606e-2 1.468188471211085e-2
      1.487649112378586e-2 1.507392252513553e-2 1.527422871076899e-2 1.547746063686780e-2
      1.568367045562673e-2 1.589291155084512e-2 1.610523857470926e-2 1.632070748580542e-2
      1.653937558840590e-2 1.676130157307162e-2 1.698654555861560e-2 1.721516913547347e-2
      1.744723541052896e-2 1.768280905344330e-2 1.792195634453897e-2 1.816474522429022e-2
      1.841124534447461e-2 1.866152812104028e-2 1.891566678874700e-2 1.917373645763935e-2
      1.943581417141323e-2 1.970197896773809e-2 1.997231194059927e-2 2.024689630472699e-2
      2.052581746218007e-2 2.080916307115474e-2 2.109702311709086e-2 2.138948998614983e-2
      2.168665854114038e-2 2.198862619997138e-2 2.229549301671166e-2 2.260736176533974e-2
      2.292433802626949e-2 2.324653027573760e-2 2.357404997814350e-2 2.390701168143305e-2
      2.424553311562033e-2 2.458973529454385e-2 2.493974262095583e-2 2.529568299504630e-2
      2.565768792650408e-2 2.602589265022182e-2 2.640043624575218e-2 2.678146176062573e-2
      2.716911633764323e-2 2.756355134625678e-2 2.796492251815719e-2 2.837339008718662e-2
      2.878911893369722e-2 2.921227873347995e-2 2.964304411138725e-2 3.008159479977829e-2
      3.052811580191390e-2 3.098279756043240e-2 3.144583613103764e-2 3.191743336153248e-2
      3.239779707633153e-2 3.288714126658903e-2 3.338568628607629e-2 3.389365905294623e-2
      3.441129325752084e-2 3.493882957623784e-2 3.547651589189304e-2 3.602460752031273e-2
      3.658336744359103e-2 3.715306655002394e-2 3.773398388087126e-2 3.832640688407325e-2
      3.893063167504805e-2 3.954696330469077e-2 4.017571603469031e-2 4.081721362027693e-2
      4.147178960050690e-2 4.213978759618262e-2 4.282156161550285e-2 4.351747636752434e-2
      4.422790758351256e-2 4.495324234624309e-2 4.569387942730932e-2 4.645022963247400e-2
      4.722271615509199e-2 4.801177493761418e-2 4.881785504116648e-2 4.964141902317651e-2
      5.048294332300535e-2 5.134291865551186e-2 5.222185041246132e-2 5.312025907165538e-2
      5.403868061363772e-2 5.497766694579607e-2 5.593778633364552e-2 5.691962383904716e-2
      5.792378176506928e-2 5.895088010716134e-2 6.000155701026422e-2 6.107646923142545e-2
      6.217629260744497e-2 6.330172252700869e-2 6.445347440671265e-2 6.563228417031608e-2
      6.683890873048202e-2 6.807412647220073e-2 6.933873773700072e-2 7.063356530696920e-2
      7.195945488751521e-2 7.331727558770179e-2 7.470792039687801e-2 7.613230665622237e-2
      7.759137652369283e-2 7.908609743075521e-2 8.061746252911826e-2 8.218649112557216e-2
      8.379422910286303e-2 8.544174932438377e-2 8.713015202028863e-2 8.886056515245233e-2
      9.063414475551081e-2 9.245207525101240e-2 9.431556973149485e-2 9.622587021108043e-2
      9.818424783893484e-2 1.001920030716959e-1 1.022504658006980e-1 1.043609954295483e-1
      1.065249808973202e-1 1.087438406423036e-1 1.110190225009507e-1 1.133520035362935e-1
      1.157442897897682e-1 1.181974159500034e-1 1.207129449317322e-1 1.232924673575936e-1
      1.259376009351512e-1 1.286499897210158e-1 1.314313032635075e-1 1.342832356147922e-1
      1.372075042029531e-1 1.402058485539181e-1 1.432800288526461e-1 1.464318243324172e-1
      1.496630314804923e-1 1.529754620478414e-1 1.563709408500118e-1 1.598513033456074e-1
      1.634183929782133e-1 1.670740582669441e-1 1.708201496301553e-1 1.746585159261729e-1
      1.785910006942344e-1 1.826194380781580e-1 1.867456484145584e-1 1.909714334667791e-1
      1.952985712850058e-1 1.997288106723819e-1 2.042638652362974e-1 2.089054070033671e-1
      2.136550595760482e-1 2.185143908082323e-1 2.234849049766347e-1 2.285680344243201e-1
      2.337651306522407e-1 2.390774548343375e-1 2.445061677314229e-1 2.500523189788828e-1
      2.557168357231378e-1 2.615005105817759e-1 2.674039889024667e-1 2.734277552959900e-1
      2.795721194192005e-1 2.858372009843768e-1 2.922229139721993e-1 2.987289500267125e-1
      3.053547610118770e-1 3.120995407109312e-1 3.189622056516511e-1 3.259413750427809e-1
      3.330353498095123e-1 3.402420907188100e-1 3.475591955887760e-1 3.549838755801106e-1
      3.625129305720192e-1 3.701427236298586e-1 3.778691545772152e-1 3.856876326912307e-1
      3.935930485467293e-1 4.015797450421326e-1 4.096414876484119e-1 4.177714339312949e-1
      4.259621024068514e-1 4.342053408013518e-1 4.424922937979741e-1 4.508133703657040e-1
      4.591582107794652e-1 4.675156534553790e-1 4.758737017410138e-1 4.842194908175417e-1
      4.925392548890917e-1 5.008182948540291e-1 5.090409466736752e-1 5.171905506759710e-1
      5.252494220547733e-1 5.331988228499901e-1 5.410189357193583e-1 5.486888398395329e-1
      5.561864893020703e-1 5.634886943987956e-1 5.705711062209686e-1 5.774082050272372e-1
      5.839732928666913e-1 5.902384909750347e-1 5.961747424937781e-1 6.017518210942829e-1
      6.069383461199286e-1 6.117018048904923e-1 6.160085828424879e-1 6.198240022072426e-1
      6.231123699545037e-1 6.258370357525851e-1 6.279604607160439e-1 6.294442977277215e-1
      6.302494841330367e-1 6.303363476097323e-1 6.296647260149344e-1 6.281941020023753e-1
      6.258837531848254e-1 6.226929185890193e-1 6.185809821113788e-1 6.135076736313022e-1
      6.074332883733014e-1 6.003189250283983e-1 5.921267430473925e-1 5.828202394023636e-1
      5.723645449765687e-1 5.607267405850418e-1 5.478761924473803e-1 5.337849067287165e-1
      5.184279025334835e-1 5.017836024780755e-1 4.838342396815341e-1 4.645662796975402e-1
      4.439708555652397e-1 4.220442137808302e-1 3.987881685866313e-1 3.742105615398707e-1
      3.483257228615130e-1 3.211549305774909e-1 2.927268629537603e-1 2.630780391963683e-1
      2.322532428422272e-1 2.003059217120823e-1 1.672985577401999e-1 1.333029994444143e-1
      9.840074926486137e-2 6.268319749059925e-2 2.625179402399600e-2 -1.078185118337234e-2
      -4.829594853580417e-2 -8.615859981063831e-2 -1.242279697106853e-1 -1.623525678986262e-1
      -2.003716513334290e-1 -2.381157564274712e-1 -2.754073700420592e-1 -3.120617476133636e-1
      -3.478878857234752e-1 -3.826907268317683e-1 -4.162752107610056e-1 -4.484434152503312e-1
      -4.789943325900035e-1 -5.077249102141317e-1 -5.344312026220872e-1 -5.589096369080563e-1
      -5.809583932132769e-1 -6.003789003183523e-1 -6.169774453559906e-1 -6.305668952397447e-1
      -6.409685258644523e-1 -6.480139534326355e-1 -6.515471603931212e-1 -6.514266064405412e-1
      -6.475274128166078e-1 -6.397436057786026e-1 -6.279904025634520e-1 -6.122065204873703e-1
      -5.923564869964883e-1 -5.684329255437476e-1 -5.404587891384265e-1 -5.084895103305350e-1
      -4.726150332940350e-1 -4.329616906095607e-1 -3.896938843768452e-1 -3.430155284764583e-1
      -2.931712062263423e-1 -2.404469954275715e-1 -1.851709109622903e-1 -1.277129138013908e-1
      -6.848443461614744e-2 -7.937360291596764e-3 5.343756735749810e-2 1.151129893258810e-1
      1.765278490472936e-1 2.370910348006026e-1 2.961857797613589e-1 3.531748469437840e-1
      4.074065169211723e-1 4.582213850113451e-1 5.049599614790898e-1 5.469710531797597e-1
      5.836208879248915e-1 6.143029237150231e-1 6.384482639350751e-1 6.555365767868421e-1
      6.651073928584291e-1 6.667716291030093e-1 6.602231610143253e-1 6.452502379400926e-1
      6.217465098717003e-1 5.897214084079803e-1 5.493096007464473e-1 5.007792144563923e-1
      4.445385134936080e-1 3.811406935857988e-1 3.112864589958968e-1 2.358240440671485e-1
      1.557463532153999e-1 7.218491350870988e-2 -1.359963403081206e-2 -1.002307335392189e-1
      -1.862329744497891e-1 -2.700531101161663e-1 -3.500850440535715e-1 -4.246986892944960e-1
      -4.922724877405510e-1 -5.512292437225423e-1 -6.000747808643681e-1 -6.374387761790414e-1
      -6.621169633901175e-1 -6.731137330147305e-1 -6.696839950364128e-1 -6.513730173642945e-1
      -6.180528170877270e-1 -5.699535701356471e-1 -5.076884275256627e-1 -4.322700927617183e-1
      -3.451175352722907e-1 -2.480512991787934e-1 -1.432760246990853e-1 -3.334903952292636e-2
      7.886579391055916e-2 1.902593682481360e-1 2.975536372671498e-1 3.973922144364807e-1
      4.864438579051886e-1 5.615166891909618e-1 6.196802041001758e-1 6.583913329650050e-1
      6.756200299400260e-1 6.699691618386678e-1 6.407828761960634e-1 5.882372113465992e-1
      5.134065267009636e-1 4.182994376410033e-1 3.058583915905789e-1 1.799178670854713e-1
      4.511745037478254e-2 -9.323223988502480e-2 -2.293306582799864e-1 -3.571127992929826e-1
      -4.705134841409240e-1 -5.637618435299601e-1 -6.316942290247587e-1 -6.700707754284462e-1
      -6.758781873485439e-1 -6.475992913660493e-1 -5.854287528879758e-1 -4.914143741045213e-1
      -3.695048130351859e-1 -2.254875900595082e-1 -6.680599500679812e-2 9.775001754946341e-2
      2.584757862408144e-1 4.052942240388549e-1 5.283856971259895e-1 6.188724188650250e-1
      6.695145924430986e-1 6.753675008115209e-1 6.343434157049863e-1 5.476206407046877e-1
      4.198451760549720e-1 2.590791278999098e-1 7.646445133776690e-2 -1.144092141780387e-1
      -2.984187348704135e-1 -4.600611877062461e-1 -5.847746163110146e-1 -6.603249496243109e-1
      -6.781346839363386e-1 -6.344139820877357e-1 -5.309520134251152e-1 -3.754386327781442e-1
      -1.812157718078238e-1 3.359554542804975e-2 2.475846971218718e-1 4.380765221248364e-1
      5.835335975718414e-1 6.661047506402622e-1 6.740316089239080e-1 6.035943770214354e-1
      4.602841433386638e-1 2.589391760295372e-1 2.267942598216656e-2 -2.193870666240306e-1
      -4.355414595800827e-1 -5.955880744784439e-1 -6.752495922150812e-1 -6.602040450805361e-1
      -5.490949757180995e-1 -3.548967459458389e-1 -1.041810765890059e-1 1.658948865112896e-1
      4.126988835304138e-1 5.947535822622919e-1 6.789365195183662e-1 6.470337031411529e-1
      5.003448840138180e-1 2.611913238337497e-1 -2.940931650816519e-2 -3.179895459408841e-1
      -5.480951013399249e-1 -6.714602970485890e-1 -6.587647185578021e-1 -5.075689686057459e-1
      -2.452553685562785e-1 7.441450662795011e-2 3.812366667681919e-1 6.035490383971079e-1
      6.853140936695606e-1 6.013119073701333e-1 3.662655018003349e-1 3.462347963354524e-2
      -3.102845450921419e-1 -5.762528945772047e-1 -6.870245442471884e-1 -6.054379641337192e-1
      -3.477872342856695e-1 1.623365781683163e-2 3.800625736337397e-1 6.303835115595325e-1
      6.829521266318989e-1 5.129782011547857e-1 1.688735392607428e-1 -2.378653361383048e-1
      -5.664623459926192e-1 -6.953237266577467e-1 -5.690019423502144e-1 -2.253628136486402e-1
      2.106765340339259e-1 5.691842582458507e-1 7.007914635207887e-1 5.413739199362069e-1
      1.475397263336554e-1 -3.171875933387364e-1 -6.464189216022676e-1 -6.825906594481763e-1
      -3.963964976218977e-1 8.688942235865634e-2 5.353364065093677e-1 7.188663854628099e-1
      5.300531484477339e-1 5.363325586661870e-2 -4.615799051794393e-1 -7.271931665636071e-1
      -5.782726413748001e-1 -8.345683165855442e-2 4.734132822027386e-1 7.485653110660559e-1
      5.520346938530194e-1 -1.179103810555585e-2 -5.834327698200054e-1 -7.690763360347455e-1
      -4.155085412307279e-1 2.520894577980147e-1 7.552124812766850e-1 6.985166846760742e-1
      8.959560448885650e-2 -6.185351825964490e-1 -8.464796434912289e-1 -3.636927451179863e-1
      4.649335949249227e-1 9.244712028308053e-1 5.573022118153562e-1 -3.675399440639588e-1
      -1.004658144332081e0 -6.829831759848362e-1 3.782247479717861e-1 1.145240612918290e0
      7.395335386597673e-1 -5.548753056823390e-1 -1.380210916830069e0 -6.720742648824189e-1
      9.856137274795540e-1 1.689901602254873e0 3.172921799651542e-1 -1.784887800687535e0
      -1.907606077156427e0 6.681764912771289e-1 2.991125644207138e0 1.500561439920330e0
      -2.821364704527211e0 -4.186545404121015e0 7.907321788093751e-1 6.501266201565027e0
      3.521031556450592e0 -7.102140453388989e0 -1.021148155443496e1 3.958602301086432e0
      1.866053736621223e1 5.978989413501981e0 -2.659096325759106e1 -2.705376604948095e1
      2.806223635865136e1 6.460781712244170e1 -9.475123441538742e0 -1.226126389111774e2
      -5.782927315517159e1 1.951676776892828e2 2.297854091297623e2 -2.416628763629797e2
      -6.050136912191158e2 1.216405806602401e2 1.326965980175263e3 5.619572940063978e2
      -2.502355208615651e3 -2.803908074459528e3 3.794966927515716e3 8.823001654491792e3
      -2.973254757425952e3 -2.277612911125155e4 -8.489976012071102e3 4.963501263131713e4
      5.689199671115628e4 -8.330626195973556e4 -2.101335750337295e5 5.207410762582017e4
      6.023901776661226e5 3.698969310473665e5 -1.334372225770910e6 -2.260705927950095e6
      1.641790670633639e6 8.189005469645673e6 3.709558699278866e6 -2.045554375047146e7
      -3.469810241254015e7 2.148089183123409e7 1.358958121400472e8 1.119687124509747e8
      -2.823255492144533e8 -7.816966478699005e8 -2.753012392037199e8 0.000000000000000e0
      0.000000000000000e0 0.000000000000000e0 0.000000000000000e0 0.000000000000000e0
      0.000000000000000e0 0.000000000000000e0 0.000000000000000e0 0.000000000000000e0
      0.000000000000000e0 0.000000000000000e0 0.000000000000000e0 0.000000000000000e0
      0.000000000000000e0 0.000000000000000e0 0.000000000000000e0 0.000000000000000e0
      0.000000000000000e0 0.000000000000000e0 0.000000000000000e0 0.000000000000000e0
      0.000000000000000e0 0.000000000000000e0 0.000000000000000e0
      </PP_PSWFC.2>
    <PP_PSWFC.3 index="3" label="3P" l="1">
      -1.085554770207992e-9 -1.113035720036200e-9 -1.141212353420643e-9 -1.170102281674349e-9
      -1.199723561942865e-9 -1.230094708490544e-9 -1.261234704272574e-9 -1.293163012799938e-9
      -1.325899590304739e-9 -1.359464898213508e-9 -1.393879915936244e-9 -1.429166153979237e-9
      -1.465345667389833e-9 -1.502441069541556e-9 -1.540475546268209e-9 -1.579472870355761e-9
      -1.619457416401123e-9 -1.660454176047057e-9 -1.702488773602769e-9 -1.745587482059948e-9
      -1.789777239514216e-9 -1.835085666002333e-9 -1.881541080765610e-9 -1.929172519950362e-9
      -1.978009754756449e-9 -2.028083310045224e-9 -2.079424483418587e-9 -2.132065364780995e-9
      -2.186038856396688e-9 -2.241378693454700e-9 -2.298119465154419e-9 -2.356296636324985e-9
      -2.415946569591946e-9 -2.477106548105094e-9 -2.539814798841646e-9 -2.604110516499341e-9
      -2.670033887994401e-9 -2.737626117579668e-9 -2.806929452598597e-9 -2.877987209891234e-9
      -2.950843802868625e-9 -3.025544769272661e-9 -3.102136799638644e-9 -3.180667766478382e-9
      -3.261186754202096e-9 -3.343744089797729e-9 -3.428391374286980e-9 -3.515181514977614e-9
      -3.604168758532242e-9 -3.695408724874282e-9 -3.788958441952167e-9 -3.884876381383711e-9
      -3.983222495002754e-9 -4.084058252331003e-9 -4.187446678998511e-9 -4.293452396136710e-9
      -4.402141660768737e-9 -4.513582407222217e-9 -4.627844289590449e-9 -4.744998725268474e-9
      -4.865118939591236e-9 -4.988280011601837e-9 -5.114558920978373e-9 -5.244034596148705e-9
      -5.376787963623350e-9 -5.512901998577123e-9 -5.652461776711354e-9 -5.795554527428956e-9
      -5.942269688355623e-9 -6.092698961241297e-9 -6.246936369276704e-9 -6.405078315860911e-9
      -6.567223644856592e-9 -6.733473702370635e-9 -6.903932400098808e-9 -7.078706280273885e-9
      -7.257904582258026e-9 -7.441639310820923e-9 -7.630025306146438e-9 -7.823180315611458e-9
      -8.021225067381781e-9 -8.224283345871195e-9 -8.432482069110737e-9 -8.645951368076556e-9
      -8.864824668026111e-9 -9.089238771893125e-9 -9.319333945794009e-9 -9.555254006698656e-9
      -9.797146412320741e-9 -1.004516235328363e-8 -1.029945684761936e-8 -1.056018883765995e-8
      -1.082752128938157e-8 -1.110162129426351e-8 -1.138266017372588e-8 -1.167081358621089e-8
      -1.196626163697526e-8 -1.226918899066172e-8 -1.257978498672047e-8 -1.289824375775251e-8
      -1.322476435084875e-8 -1.355955085200091e-8 -1.390281251366194e-8 -1.425476388553550e-8
      -1.461562494867666e-8 -1.498562125298701e-8 -1.536498405819075e-8 -1.575395047837949e-8
      -1.615276363021629e-8 -1.656167278489148e-8 -1.698093352392514e-8 -1.741080789891393e-8
      -1.785156459532177e-8 -1.830347910041699e-8 -1.876683387546090e-8 -1.924191853225505e-8
      -1.972903001415811e-8 -2.022847278168510e-8 -2.074055900280498e-8 -2.126560874805592e-8
      -2.180395019059959e-8 -2.235591981134005e-8 -2.292186260923529e-8 -2.350213231693263e-8
      -2.409709162186330e-8 -2.470711239293349e-8 -2.533257591295478e-8 -2.597387311695802e-8
      -2.663140483654046e-8 -2.730558205039857e-8 -2.799682614120279e-8 -2.870556915897552e-8
      -2.943225409113625e-8 -3.017733513938305e-8 -3.094127800358351e-8 -3.172456017285181e-8
      -3.252767122399516e-8 -3.335111312751510e-8 -3.419540056135504e-8 -3.506106123259106e-8
      -3.594863620726535e-8 -3.685868024857031e-8 -3.779176216359334e-8 -3.874846515883956e-8
      -3.972938720475497e-8 -4.073514140947684e-8 -4.176635640204646e-8 -4.282367672532233e-8
      -4.390776323884026e-8 -4.501929353187212e-8 -4.615896234694060e-8 -4.732748201405585e-8
      -4.852558289594469e-8 -4.975401384455081e-8 -5.101354266909144e-8 -5.230495661596260e-8
      -5.362906286079352e-8 -5.498668901295744e-8 -5.637868363285396e-8 -5.780591676228686e-8
      -5.926928046826769e-8 -6.076968940058664e-8 -6.230808136349796e-8 -6.388541790187761e-8
      -6.550268490222015e-8 -6.716089320884835e-8 -6.886107925572478e-8 -7.060430571425474e-8
      -7.239166215749096e-8 -7.422426574115169e-8 -7.610326190187755e-8 -7.802982507316787e-8
      -8.000515941943775e-8 -8.203049958865988e-8 -8.410711148405944e-8 -8.623629305534251e-8
      -8.841937510995823e-8 -9.065772214489412e-8 -9.295273319953083e-8 -9.530584273008719e-8
      -9.771852150619896e-8 -1.001922775301991e-7 -1.027286569796655e-7 -1.053292451738318e-7
      -1.079956675644627e-7 -1.107295907518112e-7 -1.135327235262994e-7 -1.164068179365645e-7
      -1.193536703845449e-7 -1.223751227482907e-7 -1.254730635331916e-7 -1.286494290523570e-7
      -1.319062046368694e-7 -1.352454258766809e-7 -1.386691798929215e-7 -1.421796066424132e-7
      -1.457789002552137e-7 -1.494693104060142e-7 -1.532531437202577e-7 -1.571327652158540e-7
      -1.611105997813864e-7 -1.651891336917474e-7 -1.693709161621354e-7 -1.736585609413952e-7
      -1.780547479456940e-7 -1.825622249335487e-7 -1.871838092232664e-7 -1.919223894538516e-7
      -1.967809273904974e-7 -2.017624597757821e-7 -2.068701002277237e-7 -2.121070411858931e-7
      -2.174765559067837e-7 -2.229820005096995e-7 -2.286268160744349e-7 -2.344145307920517e-7
      -2.403487621701127e-7 -2.464332192937310e-7 -2.526717051438640e-7 -2.590681189742946e-7
      -2.656264587487802e-7 -2.723508236399077e-7 -2.792454165911982e-7 -2.863145469440744e-7
      -2.935626331313350e-7 -3.009942054388018e-7 -3.086139088368939e-7 -3.164265058838699e-7
      -3.244368797025708e-7 -3.326500370325243e-7 -3.410711113592988e-7 -3.497053661230967e-7
      -3.585581980085537e-7 -3.676351403178318e-7 -3.769418664291015e-7 -3.864841933425636e-7
      -3.962680853162582e-7 -4.062996575938935e-7 -4.165851802270579e-7 -4.271310819941908e-7
      -4.379439544187491e-7 -4.490305558891126e-7 -4.603978158827688e-7 -4.720528392974394e-7
      -4.840029108918502e-7 -4.962554998389136e-7 -5.088182643941823e-7 -5.216990566824730e-7
      -5.349059276056762e-7 -5.484471318747985e-7 -5.623311331693902e-7 -5.765666094275907e-7
      -5.911624582700808e-7 -6.061278025613492e-7 -6.214719961117392e-7 -6.372046295238418e-7
      -6.533355361868907e-7 -6.698747984229016e-7 -6.868327537884039e-7 -7.042200015356999e-7
      -7.220474092376820e-7 -7.403261195803710e-7 -7.590675573273870e-7 -7.782834364607432e-7
      -7.979857675023977e-7 -8.181868650211465e-7 -8.388993553295615e-7 -8.601361843757658e-7
      -8.819106258349921e-7 -9.042362894059790e-7 -9.271271293173790e-7 -9.505974530495202e-7
      -9.746619302769405e-7 -9.993356020373080e-7 -1.024633890132455e-6 -1.050572606767382e-6
      -1.077167964433287e-6 -1.104436586040769e-6 -1.132395515309550e-6 -1.161062227421222e-6
      -1.190454639941648e-6 -1.220591124019876e-6 -1.251490515870533e-6 -1.283172128546903e-6
      -1.315655764012038e-6 -1.348961725515426e-6 -1.383110830283002e-6 -1.418124422528359e-6
      -1.454024386793372e-6 -1.490833161626512e-6 -1.528573753607418e-6 -1.567269751726510e-6
      -1.606945342128599e-6 -1.647625323229734e-6 -1.689335121216721e-6 -1.732100805938999e-6
      -1.775949107202821e-6 -1.820907431477898e-6 -1.867003879026975e-6 -1.914267261469028e-6
      -1.962727119787053e-6 -2.012413742791727e-6 -2.063358186052448e-6 -2.115592291307606e-6
      -2.169148706366228e-6 -2.224060905513383e-6 -2.280363210432174e-6 -2.338090811655321e-6
      -2.397279790559792e-6 -2.457967141918218e-6 -2.520190797021136e-6 -2.583989647384616e-6
      -2.649403569057966e-6 -2.716473447546788e-6 -2.785241203366959e-6 -2.855749818245439e-6
      -2.928043361984368e-6 -3.002167020005174e-6 -3.078167121589943e-6 -3.156091168837694e-6
      -3.235987866353626e-6 -3.317907151689944e-6 -3.401900226557225e-6 -3.488019588825897e-6
      -3.576319065337763e-6 -3.666853845548149e-6 -3.759680516019590e-6 -3.854857095788748e-6
      -3.952443072628547e-6 -4.052499440228257e-6 -4.155088736314737e-6 -4.260275081738614e-6
      -4.368124220549946e-6 -4.478703561088265e-6 -4.592082218112779e-6 -4.708331055999059e-6
      -4.827522733029086e-6 -4.949731746802508e-6 -5.075034480797370e-6 -5.203509252109418e-6
      -5.335236360399907e-6 -5.470298138082285e-6 -5.608779001779405e-6 -5.750765505083177e-6
      -5.896346392649727e-6 -6.045612655663916e-6 -6.198657588707700e-6 -6.355576848068111e-6
      -6.516468511521065e-6 -6.681433139628505e-6 -6.850573838587142e-6 -7.023996324667952e-6
      -7.201808990286908e-6 -7.384122971748049e-6 -7.571052218701261e-6 -7.762713565358261e-6
      -7.959226803511093e-6 -8.160714757398948e-6 -8.367303360469981e-6 -8.579121734086101e-6
      -8.796302268219975e-6 -9.018980704194451e-6 -9.247296219516437e-6 -9.481391514857929e-6
      -9.721412903238667e-6 -9.967510401466193e-6 -1.021983782389021e-5 -1.047855287853013e-5
      -1.074381726563561e-5 -1.101579677874175e-5 -1.129466140828218e-5 -1.158058544782440e-5
      -1.187374760299434e-5 -1.217433110315760e-5 -1.248252381592742e-5 -1.279851836457101e-5
      -1.312251224838722e-5 -1.345470796613113e-5 -1.379531314256240e-5 -1.414454065819661e-5
      -1.450260878234048e-5 -1.486974130949409e-5 -1.524616769920541e-5 -1.563212321946441e-5
      -1.602784909372634e-5 -1.643359265165587e-5 -1.684960748368663e-5 -1.727615359949201e-5
      -1.771349759046700e-5 -1.816191279632183e-5 -1.862167947589191e-5 -1.909308498227069e-5
      -1.957642394237429e-5 -2.007199844105100e-5 -2.058011820984960e-5 -2.110110082056513e-5
      -2.163527188368266e-5 -2.218296525184273e-5 -2.274452322845607e-5 -2.332029678159743e-5
      -2.391064576331210e-5 -2.451593913447240e-5 -2.513655519532388e-5 -2.577288182186578e-5
      -2.642531670821312e-5 -2.709426761509147e-5 -2.778015262462008e-5 -2.848340040154161e-5
      -2.920445046106235e-5 -2.994375344346971e-5 -3.070177139569820e-5 -3.147897806002028e-5
      -3.227585917004139e-5 -3.309291275418470e-5 -3.393064944685449e-5 -3.478959280747254e-5
      -3.567027964758676e-5 -3.657326036625550e-5 -3.749909929391781e-5 -3.844837504496356e-5
      -3.942168087922335e-5 -4.041962507260452e-5 -4.144283129710320e-5 -4.249193901043052e-5
      -4.356760385549600e-5 -4.467049806999648e-5 -4.580131090636729e-5 -4.696074906235598e-5
      -4.814953712248904e-5 -4.936841801070547e-5 -5.061815345444010e-5 -5.189952446044620e-5
      -5.321333180265315e-5 -5.456039652236497e-5 -5.594156044110974e-5 -5.735768668646124e-5
      -5.880966023115909e-5 -6.029838844586612e-5 -6.182480166590265e-5 -6.338985377231642e-5
      -6.499452278764619e-5 -6.663981148675477e-5 -6.832674802310392e-5 -7.005638657087214e-5
      -7.182980798330671e-5 -7.364812046772346e-5 -7.551246027757736e-5 -7.742399242202747e-5
      -7.938391139344761e-5 -8.139344191332876e-5 -8.345383969703965e-5 -8.556639223792406e-5
      -8.773241961121986e-5 -8.995327529830124e-5 -9.223034703175720e-5 -9.456505766183456e-5
      -9.695886604478067e-5 -9.941326795363976e-5 -1.019297970120731e-4 -1.045100256517799e-4
      -1.071555660941140e-4 -1.098680713565141e-4 -1.126492362843600e-4 -1.155007986089122e-4
      -1.184245400319807e-4 -1.214222873380014e-4 -1.244959135342160e-4 -1.276473390196522e-4
      -1.308785327836428e-4 -1.341915136346231e-4 -1.375883514599687e-4 -1.410711685176580e-4
      -1.446421407605616e-4 -1.483034991941783e-4 -1.520575312686682e-4 -1.559065823060338e-4
      -1.598530569633492e-4 -1.638994207329328e-4 -1.680482014804045e-4 -1.723019910215732e-4
      -1.766634467391377e-4 -1.811352932401999e-4 -1.857203240556222e-4 -1.904214033822731e-4
      -1.952414678692557e-4 -2.001835284492067e-4 -2.052506722158180e-4 -2.104460643487301e-4
      -2.157729500869952e-4 -2.212346567523303e-4 -2.268345958234121e-4 -2.325762650624974e-4
      -2.384632506956778e-4 -2.444992296481282e-4 -2.506879718357208e-4 -2.570333425144231e-4
      -2.635393046889353e-4 -2.702099215820461e-4 -2.770493591662374e-4 -2.840618887591013e-4
      -2.912518896841645e-4 -2.986238519987652e-4 -3.061823792906641e-4 -3.139321915451095e-4
      -3.218781280841282e-4 -3.300251505798467e-4 -3.383783461437031e-4 -3.469429304934424e-4
      -3.557242511998529e-4 -3.647277910152327e-4 -3.739591712856356e-4 -3.834241554489919e-4
      -3.931286526212460e-4 -4.030787212727253e-4 -4.132805729970213e-4 -4.237405763744126e-4
      -4.344652609330224e-4 -4.454613212090488e-4 -4.567356209088368e-4 -4.682951971764997e-4
      -4.801472649678271e-4 -4.922992215347505e-4 -5.047586510217622e-4 -5.175333291786287e-4
      -5.306312281905048e-4 -5.440605216304558e-4 -5.578295895347778e-4 -5.719470236071147e-4
      -5.864216325521692e-4 -6.012624475437573e-4 -6.164787278295220e-4 -6.320799664766136e-4
      -6.480758962611382e-4 -6.644764957045162e-4 -6.812919952630835e-4 -6.985328836696385e-4
      -7.162099144367502e-4 -7.343341125209726e-4 -7.529167811544739e-4 -7.719695088471555e-4
      -7.915041765647458e-4 -8.115329650850576e-4 -8.320683625390657e-4 -8.531231721404545e-4
      -8.747105201068656e-4 -8.968438637807605e-4 -9.195369999515044e-4 -9.428040733855095e-4
      -9.666595855698214e-4 -9.911184036718696e-4 -1.016195769724709e-3 -1.041907310039011e-3
      -1.068269044850902e-3 -1.095297398208771e-3 -1.123009208107014e-3 -1.151421736870568e-3
      -1.180552681798825e-3 -1.210420186072619e-3 -1.241042849933256e-3 -1.272439742137846e-3
      -1.304630411699426e-3 -1.337634899917904e-3 -1.371473752709099e-3 -1.406168033238801e-3
      -1.441739334870035e-3 -1.478209794429504e-3 -1.515602105803574e-3 -1.553939533868183e-3
      -1.593245928764188e-3 -1.633545740523857e-3 -1.674864034058002e-3 -1.717226504513385e-3
      -1.760659493006592e-3 -1.805190002745897e-3 -1.850845715549361e-3 -1.897655008768128e-3
      -1.945646972625612e-3 -1.994851427981525e-3 -2.045298944530671e-3 -2.097020859448394e-3
      -2.150049296490905e-3 -2.204417185562677e-3 -2.260158282761501e-3 -2.317307190912502e-3
      -2.375899380602329e-3 -2.435971211724918e-3 -2.497559955551292e-3 -2.560703817335559e-3
      -2.625441959469304e-3 -2.691814525196027e-3 -2.759862662900697e-3 -2.829628550985883e-3
      -2.901155423348030e-3 -2.974487595469084e-3 -3.049670491134644e-3 -3.126750669796125e-3
      -3.205775854589158e-3 -3.286794961023515e-3 -3.369858126360315e-3 -3.455016739691306e-3
      -3.542323472735722e-3 -3.631832311371458e-3 -3.723598587915253e-3 -3.817679014170343e-3
      -3.914131715257114e-3 -4.013016264243546e-3 -4.114393717593940e-3 -4.218326651453409e-3
      -4.324879198784728e-3 -4.434117087377559e-3 -4.546107678747578e-3 -4.660920007944634e-3
      -4.778624824289545e-3 -4.899294633056973e-3 -5.023003738127153e-3 -5.149828285623625e-3
      -5.279846308558921e-3 -5.413137772507948e-3 -5.549784622329748e-3 -5.689870829959216e-3
      -5.833482443289538e-3 -5.980707636167073e-3 -6.131636759520345e-3 -6.286362393644668e-3
      -6.444979401665730e-3 -6.607584984202829e-3 -6.774278735255818e-3 -6.945162699337359e-3
      -7.120341429874023e-3 -7.299922048898077e-3 -7.484014308055431e-3 -7.672730650949511e-3
      -7.866186276847467e-3 -8.064499205769460e-3 -8.267790344986292e-3 -8.476183556947387e-3
      -8.689805728662568e-3 -8.908786842560872e-3 -9.133260048849623e-3 -9.363361739396053e-3
      -9.599231623154589e-3 -9.841012803161878e-3 -1.008885185512154e-2 -1.034289890760107e-2
      -1.060330772386115e-2 -1.087023578533919e-2 -1.114384437680641e-2 -1.142429867321986e-2
      -1.171176782828627e-2 -1.200642506475757e-2 -1.230844776647509e-2 -1.261801757217942e-2
      -1.293532047110012e-2 -1.326054690034149e-2 -1.359389184407658e-2 -1.393555493456135e-2
      -1.428574055497973e-2 -1.464465794412845e-2 -1.501252130294792e-2 -1.538954990290658e-2
      -1.577596819623887e-2 -1.617200592804113e-2 -1.657789825022126e-2 -1.699388583730147e-2
      -1.742021500406491e-2 -1.785713782503762e-2 -1.830491225579502e-2 -1.876380225607420e-2
      -1.923407791467458e-2 -1.971601557612311e-2 -2.020989796907589e-2 -2.071601433642551e-2
      -2.123466056707639e-2 -2.176613932934704e-2 -2.231076020595282e-2 -2.286883983051439e-2
      -2.344070202553597e-2 -2.402667794178547e-2 -2.462710619900624e-2 -2.524233302787847e-2
      -2.587271241314556e-2 -2.651860623780748e-2 -2.718038442827674e-2 -2.785842510038482e-2
      -2.855311470611200e-2 -2.926484818090839e-2 -2.999402909145926e-2 -3.074106978373657e-2
      -3.150639153116827e-2 -3.229042468273806e-2 -3.309360881082094e-2 -3.391639285854084e-2
      -3.475923528641995e-2 -3.562260421807614e-2 -3.650697758470429e-2 -3.741284326805880e-2
      -3.834069924163699e-2 -3.929105370973859e-2 -4.026442524405768e-2 -4.126134291743834e-2
      -4.228234643439938e-2 -4.332798625801323e-2 -4.439882373268572e-2 -4.549543120236910e-2
      -4.661839212369582e-2 -4.776830117349735e-2 -4.894576435013864e-2 -5.015139906805493e-2
      -5.138583424485068e-2 -5.264971038027461e-2 -5.394367962634188e-2 -5.526840584783924e-2
      -5.662456467239084e-2 -5.801284352922693e-2 -5.943394167573678e-2 -6.088857021083891e-2
      -6.237745207414841e-2 -6.390132202985381e-2 -6.546092663416735e-2 -6.705702418513497e-2
      -6.869038465353501e-2 -7.036178959352236e-2 -7.207203203159390e-2 -7.382191633238713e-2
      -7.561225803973053e-2 -7.744388369128821e-2 -7.931763060505358e-2 -8.123434663584847e-2
      -8.319488989990049e-2 -8.520012846545972e-2 -8.725094000732142e-2 -8.934821142301427e-2
      -9.149283840829320e-2 -9.368572498947385e-2 -9.592778301001374e-2 -9.821993156862696e-2
      -1.005630964060952e-1 -1.029582092377910e-1 -1.054062070288120e-1 -1.079080312084657e-1
      -1.104646268207087e-1 -1.130769416069987e-1 -1.157459250178505e-1 -1.184725271492486e-1
      -1.212576975998932e-1 -1.241023842451016e-1 -1.270075319230236e-1 -1.299740810286486e-1
      -1.330029660109278e-1 -1.360951137681478e-1 -1.392514419365279e-1 -1.424728570668421e-1
      -1.457602526836790e-1 -1.491145072218051e-1 -1.525364818339013e-1 -1.560270180637964e-1
      -1.595869353791544e-1 -1.632170285574037e-1 -1.669180649185736e-1 -1.706907813985334e-1
      -1.745358814560212e-1 -1.784540318067293e-1 -1.824458589775945e-1 -1.865119456743803e-1
      -1.906528269555462e-1 -1.948689862053696e-1 -1.991608508992654e-1 -2.035287881542362e-1
      -2.079731000574549e-1 -2.124940187660167e-1 -2.170917013710470e-1 -2.217662245194667e-1
      -2.265175787869417e-1 -2.313456627957891e-1 -2.362502770719004e-1 -2.412311176351384e-1
      -2.462877693180702e-1 -2.514196988084154e-1 -2.566262474111806e-1 -2.619066235270824e-1
      -2.672598948446624e-1 -2.726849802443006e-1 -2.781806414133123e-1 -2.837454741723749e-1
      -2.893778995146743e-1 -2.950761543604992e-1 -3.008382820313887e-1 -3.066621224495218e-1
      -3.125453020697311e-1 -3.184852235533300e-1 -3.244790551949758e-1 -3.305237201158898e-1
      -3.366158852390784e-1 -3.427519500646590e-1 -3.489280352659898e-1 -3.551399711301284e-1
      -3.613832858690500e-1 -3.676531938311834e-1 -3.739445836461037e-1 -3.802520063385859e-1
      -3.865696634518507e-1 -3.928913952234648e-1 -3.992106688612132e-1 -4.055205669701855e-1
      -4.118137761862930e-1 -4.180825760755815e-1 -4.243188283627733e-1 -4.305139665566696e-1
      -4.366589860441842e-1 -4.427444347288610e-1 -4.487604042938129e-1 -4.546965221728950e-1
      -4.605419443177351e-1 -4.662853488518356e-1 -4.719149307062832e-1 -4.774183973347343e-1
      -4.827829656080683e-1 -4.879969360284853e-1 -4.930546150545167e-1 -4.979519278012155e-1
      -5.026848928141096e-1 -5.072496251510302e-1 -5.116423402011208e-1 -5.158593581292835e-1
      -5.198971088282312e-1 -5.237521372612335e-1 -5.274211090842002e-1 -5.309008164442186e-1
      -5.341881838618008e-1 -5.372802741150604e-1 -5.401742940551788e-1 -5.428676002934147e-1
      -5.453577047102779e-1 -5.476422797471127e-1 -5.497191634491342e-1 -5.515863642368604e-1
      -5.532420653898779e-1 -5.546846292330040e-1 -5.559126010201902e-1 -5.569247125160231e-1
      -5.577198852784859e-1 -5.582972336497923e-1 -5.586560674646979e-1 -5.587958944877585e-1
      -5.587164225925988e-1 -5.584175616974480e-1 -5.578994254719865e-1 -5.571623328309766e-1
      -5.562068092302321e-1 -5.550335877802054e-1 -5.536436101918405e-1 -5.520380275683410e-1
      -5.502182010550833e-1 -5.481857023580844e-1 -5.459423141391103e-1 -5.434900302927057e-1
      -5.408310561070588e-1 -5.379678083066674e-1 -5.349029149702169e-1 -5.316392153119128e-1
      -5.281797593087437e-1 -5.245278071497989e-1 -5.206868284768063e-1 -5.166605013779437e-1
      -5.124527110895650e-1 -5.080675483528757e-1 -5.035093073654618e-1 -4.987824832610573e-1
      -4.938917690452994e-1 -4.888420519110711e-1 -4.836384088547218e-1 -4.782861015144561e-1
      -4.727905701549058e-1 -4.671574267277052e-1 -4.613924469470163e-1 -4.555015613315331e-1
      -4.494908451804653e-1 -4.433665074701342e-1 -4.371348786796537e-1 -4.308023975780895e-1
      -4.243755970306498e-1 -4.178610889069495e-1 -4.112655481849967e-1 -4.045956964674098e-1
      -3.978582848602012e-1 -3.910600766089798e-1 -3.842078295454021e-1 -3.773082785572850e-1
      -3.703681182701240e-1 -3.633939861241888e-1 -3.563924460228014e-1 -3.493699727143399e-1
      -3.423329370535979e-1 -3.352875922681450e-1 -3.282400613331569e-1 -3.211963255346930e-1
      -3.141622142774613e-1 -3.071433961695251e-1 -3.001453713938504e-1 -2.931734653556614e-1
      -2.862328235756837e-1 -2.793284077828351e-1 -2.724649931459368e-1 -2.656471665726445e-1
      -2.588793259949824e-1 -2.521656805545106e-1 -2.455102515960596e-1 -2.389168743769244e-1
      -2.323892003981488e-1 -2.259307002657982e-1 -2.195446669926380e-1 -2.132342196541609e-1
      -2.070023073171978e-1 -2.008517131642028e-1 -1.947850587415451e-1 -1.888048082656261e-1
      -1.829132729262694e-1 -1.771126151325131e-1 -1.714048526516490e-1 -1.657918625980553e-1
      -1.602753852340856e-1 -1.548570275510066e-1 -1.495382666037578e-1 -1.443204525791506e-1
      -1.392048115830613e-1 -1.341924481382011e-1 -1.292843473901481e-1 -1.244813770254909e-1
      -1.197842889120413e-1 -1.151937204771020e-1 -1.107101958456562e-1 -1.063341267657569e-1
      -1.020658133534094e-1 -9.790544469372325e-2 -9.385309933874176e-2 -8.990874574516839e-2
      -8.607224269708071e-2 -8.234333975956798e-2 -7.872167780900990e-2 -7.520678968444933e-2
      -7.179810100222717e-2 -6.849493117282794e-2 -6.529649465482628e-2 -6.220190247606262e-2
      -5.921016404685925e-2 -5.632018928437539e-2 -5.353079106125591e-2 -5.084068798571552e-2
      -4.824850751426823e-2 -4.575278939260078e-2 -4.335198941471558e-2 -4.104448348553302e-2
      -3.882857196772307e-2 -3.670248428968374e-2 -3.466438378833725e-2 -3.271237275778379e-2
      -3.084449767283873e-2 -2.905875455506214e-2 -2.735309444804127e-2 -2.572542896836771e-2
      -2.417363589891642e-2 -2.269556479163271e-2 -2.128904254801291e-2 -1.995187894677282e-2
      -1.868187208978006e-2 -1.747681373913392e-2 -1.633449452025951e-2 -1.525270896799794e-2
      -1.422926039488035e-2 -1.326196556303353e-2 -1.234865914344613e-2 -1.148719794859826e-2
      -1.067546492669873e-2 -9.911372907962139e-3 -9.192868095474507e-3 -8.517933295226443e-3
      -7.884590881825693e-3 -7.290905498226077e-3 -6.734986489521395e-3 -6.214990072444957e-3
      -5.729121243685514e-3 -5.275635431475980e-3 -4.852839896138995e-3 -4.459094886324269e-3
      -4.092814558878492e-3 -3.752467670427129e-3 -3.436578050822491e-3 -3.143724867982720e-3
      -2.872542694453782e-3 -2.621721386866324e-3 -2.390005789512775e-3 -2.176195273473429e-3
      -1.979143122890767e-3 -1.797755780043695e-3 -1.630991960848914e-3 -1.477861652299641e-3
      -1.337425003296613e-3 -1.208791119755591e-3 -1.091116773216222e-3 -9.836051593253083e-4
      -8.855031177762964e-4 -7.961088313910656e-4 -7.147366489946441e-4 -6.407901645303296e-4
      -5.737151282557064e-4 -5.129629304384000e-4 -4.580124724989352e-4 -4.083782520195200e-4
      -3.636085816123846e-4 -3.232838458001983e-4 -2.870147982704089e-4 -2.544409024055932e-4
      -2.252287176604178e-4 -1.990703340494926e-4 -1.756818566844064e-4 -1.548019420230099e-4
      -1.361903871648930e-4 -1.196267732410385e-4 -1.049091636712844e-4 -9.185285778334968e-5
      -8.028920002462224e-5 -7.006444474937411e-5 -6.103867632850087e-5 -5.308478410795909e-5
      -4.608749153650946e-5 -3.994243859373764e-5 -3.455531647602843e-5 -2.984105334147742e-5
      -2.572304977475886e-5 -2.213246250970382e-5 -1.900753484062612e-5 -1.629297206298215e-5
      -1.393936020936447e-5 -1.190262628760140e-5 -1.014353818326083e-5 -8.627242358443759e-6
      -7.322837461635925e-6 -6.202981958733568e-6 -5.243533902290380e-6 -4.423220973624899e-6
      -3.723338959730877e-6 -3.127476862980038e-6 -2.621266885422668e-6 -2.192157580106113e-6
      -1.829208518286188e-6 -1.522904882764900e-6 -1.264990462941171e-6 -1.048317595635971e-6
      -8.667126665160218e-7 -7.148558592015429e-7 -5.881739121604975e-7 -4.827447165689653e-7
      -3.952126608054802e-7 -3.227136985410408e-7 -2.628091869191939e-7 -2.134276085513392e-7
      -1.728133554854476e-7 -1.394818142645200e-7 -1.121800491954616e-7 -8.985242825357609e-8
      -7.161062037586817e-8 -5.670720489556286e-8 -4.451347422508914e-8 -3.449585669230538e-8
      -2.624700659498457e-8 -1.917186797120756e-8 0.000000000000000e0 0.000000000000000e0
      0.000000000000000e0 0.000000000000000e0 0.000000000000000e0 0.000000000000000e0
      0.000000000000000e0 0.000000000000000e0 0.000000000000000e0 0.000000000000000e0
      0.000000000000000e0 0.000000000000000e0 0.000000000000000e0 0.000000000000000e0
      0.000000000000000e0 0.000000000000000e0 0.000000000000000e0 0.000000000000000e0
      0.000000000000000e0 0.000000000000000e0 0.000000000000000e0 0.000000000000000e0
      0.000000000000000e0 0.000000000000000e0 0.000000000000000e0 0.000000000000000e0
      0.000000000000000e0 0.000000000000000e0 0.000000000000000e0 0.000000000000000e0
      0.000000000000000e0 0.000000000000000e0 0.000000000000000e0 0.000000000000000e0
      0.000000000000000e0 0.000000000000000e0 0.000000000000000e0 0.000000000000000e0
      0.000000000000000e0 0.000000000000000e0 0.000000000000000e0 0.000000000000000e0
      0.000000000000000e0 0.000000000000000e0 0.000000000000000e0 0.000000000000000e0
      0.000000000000000e0 0.000000000000000e0 0.000000000000000e0 0.000000000000000e0
      0.000000000000000e0 0.000000000000000e0 0.000000000000000e0 0.000000000000000e0
      0.000000000000000e0 0.000000000000000e0 0.000000000000000e0 0.000000000000000e0
      0.000000000000000e0 0.000000000000000e0 0.000000000000000e0 0.000000000000000e0
      0.000000000000000e0 0.000000000000000e0 0.000000000000000e0 0.000000000000000e0
      0.000000000000000e0 0.000000000000000e0 0.000000000000000e0
      </PP_PSWFC.3>
    <PP_PSWFC.4 index="4" label="3P" l="1">
      -3.933786592328610e-9 -4.033370873824679e-9 -4.135476143398594e-9 -4.240166220166836e-9
      -4.347506538834505e-9 -4.457564190594098e-9 -4.570407965059713e-9 -4.686108393262791e-9
      -4.804737791736280e-9 -4.926370307714881e-9 -5.051081965479407e-9 -5.178950713874471e-9
      -5.310056475029036e-9 -5.444481194310350e-9 -5.582308891542490e-9 -5.723625713521421e-9
      -5.868519987859598e-9 -6.017082278193577e-9 -6.169405440789212e-9 -6.325584682579908e-9
      -6.485717620673958e-9 -6.649904343368462e-9 -6.818247472707762e-9 -6.990852228625538e-9
      -7.167826494710726e-9 -7.349280885638212e-9 -7.535328816306625e-9 -7.726086572726344e-9
      -7.921673384702011e-9 -8.122211500355080e-9 -8.327826262532795e-9 -8.538646187151590e-9
      -8.754803043523703e-9 -8.976431936717246e-9 -9.203671392001361e-9 -9.436663441428871e-9
      -9.675553712611027e-9 -9.920491519739457e-9 -1.017162995691238e-8 -1.042912599382348e-8
      -1.069314057387288e-8 -1.096383871476216e-8 -1.124138961163571e-8 -1.152596674283317e-8
      -1.181774797831912e-8 -1.211691569085743e-8 -1.242365687000029e-8 -1.273816323896271e-8
      -1.306063137445568e-8 -1.339126282955316e-8 -1.373026425966911e-8 -1.407784755172394e-8
      -1.443422995658068e-8 -1.479963422483377e-8 -1.517428874603559e-8 -1.555842769144708e-8
      -1.595229116040256e-8 -1.635612533037949e-8 -1.677018261086747e-8 -1.719472180113236e-8
      -1.763000825197410e-8 -1.807631403157963e-8 -1.853391809557437e-8 -1.900310646137844e-8
      -1.948417238697695e-8 -1.997741655421558e-8 -2.048314725673658e-8 -2.100168059267226e-8
      -2.153334066221654e-8 -2.207845977019818e-8 -2.263737863378190e-8 -2.321044659542773e-8
      -2.379802184124138e-8 -2.440047162485202e-8 -2.501817249695799e-8 -2.565151054068277e-8
      -2.630088161288971e-8 -2.696669159160531e-8 -2.764935662970605e-8 -2.834930341502753e-8
      -2.906696943705807e-8 -2.980280326038376e-8 -3.055726480505593e-8 -3.133082563405591e-8
      -3.212396924803740e-8 -3.293719138752969e-8 -3.377100034279163e-8 -3.462591727150954e-8
      -3.550247652453742e-8 -3.640122597988381e-8 -3.732272738515282e-8 -3.826755670865478e-8
      -3.923630449940492e-8 -4.022957625623558e-8 -4.124799280625270e-8 -4.229219069287233e-8
      -4.336282257368124e-8 -4.446055762836869e-8 -4.558608197698526e-8 -4.674009910879043e-8
      -4.792333032195540e-8 -4.913651517439801e-8 -5.038041194603027e-8 -5.165579811270745e-8
      -5.296347083217600e-8 -5.430424744232227e-8 -5.567896597203513e-8 -5.708848566500095e-8
      -5.853368751675864e-8 -6.001547482535016e-8 -6.153477375591050e-8 -6.309253391955093e-8
      -6.468972896689627e-8 -6.632735719664772e-8 -6.800644217955183e-8 -6.972803339816469e-8
      -7.149320690281222e-8 -7.330306598415616e-8 -7.515874186278602e-8 -7.706139439626833e-8
      -7.901221280409426e-8 -8.101241641098031e-8 -8.306325540898474e-8 -8.516601163891789e-8
      -8.732199939153379e-8 -8.953256622900319e-8 -9.179909382718321e-8 -9.412299883920896e-8
      -9.650573378094649e-8 -9.894878793886225e-8 -1.014536883008732e-7 -1.040220005107641e-7
      -1.066553298467638e-7 -1.093553222248953e-7 -1.121236652277262e-7 -1.149620891591603e-7
      -1.178723681259329e-7 -1.208563211464838e-7 -1.239158132879008e-7 -1.270527568316471e-7
      -1.302691124687957e-7 -1.335668905255244e-7 -1.369481522196334e-7 -1.404150109488702e-7
      -1.439696336118715e-7 -1.476142419625413e-7 -1.513511139987181e-7 -1.551825853859948e-7
      -1.591110509175829e-7 -1.631389660111342e-7 -1.672688482434525e-7 -1.715032789240589e-7
      -1.758449047085905e-7 -1.802964392530429e-7 -1.848606649098911e-7 -1.895404344671443e-7
      -1.943386729314289e-7 -1.992583793562086e-7 -2.043026287162846e-7 -2.094745738297532e-7
      -2.147774473286109e-7 -2.202145636792530e-7 -2.257893212541155e-7 -2.315052044557629e-7
      -2.373657858947498e-7 -2.433747286226077e-7 -2.495357884213700e-7 -2.558528161510473e-7
      -2.623297601565346e-7 -2.689706687354491e-7 -2.757796926684346e-7 -2.827610878135336e-7
      -2.899192177662222e-7 -2.972585565867921e-7 -3.047836915967761e-7 -3.124993262461565e-7
      -3.204102830531730e-7 -3.285215066185338e-7 -3.368380667159439e-7 -3.453651614608674e-7
      -3.541081205594993e-7 -3.630724086399999e-7 -3.722636286680442e-7 -3.816875254488440e-7
      -3.913499892178252e-7 -4.012570593221916e-7 -4.114149279957059e-7 -4.218299442290109e-7
      -4.325086177379363e-7 -4.434576230322680e-7 -4.546838035875017e-7 -4.661941761222267e-7
      -4.779959349837690e-7 -4.900964566448724e-7 -5.025033043142085e-7 -5.152242326635927e-7
      -5.282671926748874e-7 -5.416403366095844e-7 -5.553520231042052e-7 -5.694108223946882e-7
      -5.838255216730208e-7 -5.986051305794946e-7 -6.137588868339728e-7 -6.292962620097295e-7
      -6.452269674534493e-7 -6.615609603550775e-7 -6.783084499713553e-7 -6.954799040068725e-7
      -7.130860551566752e-7 -7.311379078144982e-7 -7.496467449507936e-7 -7.686241351649121e-7
      -7.880819399157732e-7 -8.080323209355983e-7 -8.284877478313234e-7 -8.494610058784160e-7
      -8.709652040120277e-7 -8.930137830204067e-7 -9.156205239457426e-7 -9.387995566976791e-7
      -9.625653688848548e-7 -9.869328148700445e-7 -1.011917125054497e-6 -1.037533915397322e-6
      -1.063799197175859e-6 -1.090729386993102e-6 -1.118341317038505e-6 -1.146652245608485e-6
      -1.175679867893281e-6 -1.205442327036879e-6 -1.235958225476882e-6 -1.267246636571497e-6
      -1.299327116520804e-6 -1.332219716589834e-6 -1.365944995641079e-6 -1.400524032984210e-6
      -1.435978441551153e-6 -1.472330381404613e-6 -1.509602573588602e-6 -1.547818314329592e-6
      -1.587001489597113e-6 -1.627176590033022e-6 -1.668368726258622e-6 -1.710603644569324e-6
      -1.753907743026593e-6 -1.798308087957240e-6 -1.843832430870416e-6 -1.890509225802808e-6
      -1.938367647102951e-6 -1.987437607665730e-6 -2.037749777628458e-6 -2.089335603540261e-6
      -2.142227328016700e-6 -2.196458009891940e-6 -2.252061544881070e-6 -2.309072686765449e-6
      -2.367527069114367e-6 -2.427461227556549e-6 -2.488912622615464e-6 -2.551919663122677e-6
      -2.616521730223887e-6 -2.682759201992673e-6 -2.750673478667280e-6 -2.820307008526291e-6
      -2.891703314419292e-6 -2.964907020969121e-6 -3.039963882462749e-6 -3.116920811448152e-6
      -3.195825908055099e-6 -3.276728490058173e-6 -3.359679123700752e-6 -3.444729655299349e-6
      -3.531933243647869e-6 -3.621344393242226e-6 -3.713018988345961e-6 -3.807014327918168e-6
      -3.903389161425617e-6 -4.002203725561357e-6 -4.103519781892832e-6 -4.207400655463005e-6
      -4.313911274368565e-6 -4.423118210340054e-6 -4.535089720349166e-6 -4.649895789269268e-6
      -4.767608173615843e-6 -4.888300446394076e-6 -5.012048043081743e-6 -5.138928308775999e-6
      -5.269020546533655e-6 -5.402406066935084e-6 -5.539168238902679e-6 -5.679392541805771e-6
      -5.823166618884374e-6 -5.970580332025287e-6 -6.121725817924752e-6 -6.276697545672643e-6
      -6.435592375794386e-6 -6.598509620787274e-6 -6.765551107189163e-6 -6.936821239218277e-6
      -7.112427064023846e-6 -7.292478338588437e-6 -7.477087598323674e-6 -7.666370227402308e-6
      -7.860444530870538e-6 -8.059431808585588e-6 -8.263456431024823e-6 -8.472645917013731e-6
      -8.687131013421308e-6 -8.907045776872730e-6 -9.132527657530156e-6 -9.363717584994360e-6
      -9.600760056380448e-6 -9.843803226622965e-6 -1.009299900106681e-5 -1.034850313040155e-5
      -1.061047530799880e-5 -1.087907926971317e-5 -1.115448289620926e-5 -1.143685831787872e-5
      -1.172638202241269e-5 -1.202323496509704e-5 -1.232760268189913e-5 -1.263967540541689e-5
      -1.295964818376254e-5 -1.328772100245531e-5 -1.362409890939909e-5 -1.396899214302341e-5
      -1.432261626366746e-5 -1.468519228828942e-5 -1.505694682858528e-5 -1.543811223260304e-5
      -1.582892672994134e-5 -1.622963458062267e-5 -1.664048622773440e-5 -1.706173845393312e-5
      -1.749365454190943e-5 -1.793650443891415e-5 -1.839056492544822e-5 -1.885611978822169e-5
      -1.933345999749015e-5 -1.982288388887859e-5 -2.032469734980726e-5 -2.083921401063497e-5
      -2.136675544063991e-5 -2.190765134895996e-5 -2.246223979061792e-5 -2.303086737776065e-5
      -2.361388949624375e-5 -2.421167052769698e-5 -2.482458407720935e-5 -2.545301320677540e-5
      -2.609735067464924e-5 -2.675799918075525e-5 -2.743537161830854e-5 -2.812989133180293e-5
      -2.884199238152631e-5 -2.957211981476981e-5 -3.032072994389917e-5 -3.108829063146209e-5
      -3.187528158250996e-5 -3.268219464431525e-5 -3.350953411367313e-5 -3.435781705197793e-5
      -3.522757360827148e-5 -3.611934735046525e-5 -3.703369560494191e-5 -3.797118980474973e-5
      -3.893241584660556e-5 -3.991797445693029e-5 -4.092848156714476e-5 -4.196456869845938e-5
      -4.302688335639921e-5 -4.411608943530930e-5 -4.523286763309276e-5 -4.637791587644107e-5
      -4.755194975682045e-5 -4.875570297748753e-5 -4.998992781181243e-5 -5.125539557319499e-5
      -5.255289709686767e-5 -5.388324323388476e-5 -5.524726535760652e-5 -5.664581588299410e-5
      -5.807976879903797e-5 -5.955002021465327e-5 -6.105748891838124e-5 -6.260311695224513e-5
      -6.418787020012023e-5 -6.581273899098240e-5 -6.747873871741234e-5 -6.918691046974126e-5
      -7.093832168623075e-5 -7.273406681969541e-5 -7.457526802098069e-5 -7.646307583972256e-5
      -7.839866994282623e-5 -8.038325985110975e-5 -8.241808569457245e-5 -8.450441898675862e-5
      -8.664356341869713e-5 -8.883685567291320e-5 -9.108566625801686e-5 -9.339140036438948e-5
      -9.575549874149957e-5 -9.817943859739440e-5 -1.006647345209277e-4 -1.032129394272944e-4
      -1.058256455274647e-4 -1.085044853221173e-4 -1.112511326206907e-4 -1.140673035861878e-4
      -1.169547578063796e-4 -1.199152993920786e-4 -1.229507781031614e-4 -1.260630905030403e-4
      -1.292541811423046e-4 -1.325260437722609e-4 -1.358807225891330e-4 -1.393203135096892e-4
      -1.428469654790915e-4 -1.464628818117786e-4 -1.501703215662137e-4 -1.539716009543522e-4
      -1.578690947867030e-4 -1.618652379538773e-4 -1.659625269455561e-4 -1.701635214077954e-4
      -1.744708457396547e-4 -1.788871907301429e-4 -1.834153152364657e-4 -1.880580479046545e-4
      -1.928182889336050e-4 -1.976990118836521e-4 -2.027032655307698e-4 -2.078341757675824e-4
      -2.130949475523123e-4 -2.184888669069216e-4 -2.240193029656477e-4 -2.296897100752248e-4
      -2.355036299480691e-4 -2.414646938697763e-4 -2.475766249622788e-4 -2.538432405040760e-4
      -2.602684543089629e-4 -2.668562791647370e-4 -2.736108293333564e-4 -2.805363231141440e-4
      -2.876370854715627e-4 -2.949175507292311e-4 -3.023822653317997e-4 -3.100358906764356e-4
      -3.178832060155947e-4 -3.259291114329466e-4 -3.341786308942106e-4 -3.426369153748403e-4
      -3.513092460664503e-4 -3.602010376639276e-4 -3.693178417353384e-4 -3.786653501765855e-4
      -3.882493987530356e-4 -3.980759707302308e-4 -4.081512005959231e-4 -4.184813778757347e-4
      -4.290729510447687e-4 -4.399325315375311e-4 -4.510668978588880e-4 -4.624829997976303e-4
      -4.741879627470322e-4 -4.861890921329515e-4 -4.984938779538510e-4 -5.111099994342075e-4
      -5.240453297955038e-4 -5.373079411460321e-4 -5.509061094949451e-4 -5.648483198898337e-4
      -5.791432716859410e-4 -5.937998839447099e-4 -6.088273009704440e-4 -6.242348979834217e-4
      -6.400322869366088e-4 -6.562293224776683e-4 -6.728361080604616e-4 -6.898630022092833e-4
      -7.073206249402579e-4 -7.252198643434392e-4 -7.435718833291071e-4 -7.623881265437391e-4
      -7.816803274579733e-4 -8.014605156325992e-4 -8.217410241652821e-4 -8.425344973237978e-4
      -8.638538983703597e-4 -8.857125175802601e-4 -9.081239804613336e-4 -9.311022561779046e-4
      -9.546616661859961e-4 -9.788168930819735e-4 -1.003582989673625e-3 -1.028975388275180e-3
      -1.055009910235607e-3 -1.081702775703071e-3 -1.109070613632104e-3 -1.137130472039984e-3
      -1.165899828518226e-3 -1.195396601004430e-3 -1.225639158822540e-3 -1.256646333995888e-3
      -1.288437432842489e-3 -1.321032247855471e-3 -1.354451069880203e-3 -1.388714700591676e-3
      -1.423844465280583e-3 -1.459862225956192e-3 -1.496790394773051e-3 -1.534651947788723e-3
      -1.573470439061832e-3 -1.613270015097874e-3 -1.654075429650567e-3 -1.695912058888459e-3
      -1.738805916935024e-3 -1.782783671790221e-3 -1.827872661644220e-3 -1.874100911591755e-3
      -1.921497150756210e-3 -1.970090829834515e-3 -2.019912139070754e-3 -2.070992026671004e-3
      -2.123362217667868e-3 -2.177055233246290e-3 -2.232104410540880e-3 -2.288543922916957e-3
      -2.346408800744548e-3 -2.405734952679054e-3 -2.466559187459180e-3 -2.528919236234061e-3
      -2.592853775432622e-3 -2.658402450186487e-3 -2.725605898320569e-3 -2.794505774923546e-3
      -2.865144777511713e-3 -2.937566671799493e-3 -3.011816318090617e-3 -3.087939698304784e-3
      -3.165983943653158e-3 -3.245997362977157e-3 -3.328029471766634e-3 -3.412131021872340e-3
      -3.498354031926314e-3 -3.586751818489955e-3 -3.677379027940702e-3 -3.770291669118704e-3
      -3.865547146745984e-3 -3.963204295638185e-3 -4.063323415723825e-3 -4.165966307890131e-3
      -4.271196310672605e-3 -4.379078337806128e-3 -4.489678916656675e-3 -4.603066227552310e-3
      -4.719310144031534e-3 -4.838482274029699e-3 -4.960656002021143e-3 -5.085906532139569e-3
      -5.214310932293653e-3 -5.345948179300640e-3 -5.480899205058184e-3 -5.619246943773589e-3
      -5.761076380274778e-3 -5.906474599421271e-3 -6.055530836639075e-3 -6.208336529600070e-3
      -6.364985371068963e-3 -6.525573362939062e-3 -6.690198871481734e-3 -6.858962683827853e-3
      -7.031968065709809e-3 -7.209320820482221e-3 -7.391129349448065e-3 -7.577504713510387e-3
      -7.768560696176790e-3 -7.964413867935876e-3 -8.165183652033226e-3 -8.370992391667508e-3
      -8.581965418632084e-3 -8.798231123424443e-3 -9.019921026848063e-3 -9.247169853129034e-3
      -9.480115604571100e-3 -9.718899637773015e-3 -9.963666741428632e-3 -1.021456521573583e-2
      -1.047174695343268e-2 -1.073536752248602e-2 -1.100558625045188e-2 -1.128256631052924e-2
      -1.156647480932788e-2 -1.185748287636993e-2 -1.215576575534347e-2 -1.246150289712841e-2
      -1.277487805460964e-2 -1.309607937929657e-2 -1.342529951976208e-2 -1.376273572191723e-2
      -1.410858993113453e-2 -1.446306889623057e-2 -1.482638427531917e-2 -1.519875274354389e-2
      -1.558039610269734e-2 -1.597154139273098e-2 -1.637242100516012e-2 -1.678327279836489e-2
      -1.720434021478554e-2 -1.763587240000786e-2 -1.807812432373402e-2 -1.853135690262703e-2
      -1.899583712501899e-2 -1.947183817746445e-2 -1.995963957312327e-2 -2.045952728194532e-2
      -2.097179386263552e-2 -2.149673859636170e-2 -2.203466762217463e-2 -2.258589407409598e-2
      -2.315073821982904e-2 -2.372952760104094e-2 -2.432259717515857e-2 -2.493028945861345e-2
      -2.555295467146660e-2 -2.619095088333422e-2 -2.684464416052980e-2 -2.751440871433004e-2
      -2.820062705026105e-2 -2.890369011829689e-2 -2.962399746384766e-2 -3.036195737940922e-2
      -3.111798705673239e-2 -3.189251273935934e-2 -3.268596987536437e-2 -3.349880327012151e-2
      -3.433146723890828e-2 -3.518442575914365e-2 -3.605815262203794e-2 -3.695313158342385e-2
      -3.786985651351354e-2 -3.880883154531520e-2 -3.977057122142184e-2 -4.075560063886300e-2
      -4.176445559169618e-2 -4.279768271098505e-2 -4.385583960179370e-2 -4.493949497680419e-2
      -4.604922878613023e-2 -4.718563234288552e-2 -4.834930844402734e-2 -4.954087148596854e-2
      -5.076094757442848e-2 -5.201017462794510e-2 -5.328920247445259e-2 -5.459869294028092e-2
      -5.593931993090155e-2 -5.731176950270475e-2 -5.871673992504553e-2 -6.015494173176194e-2
      -6.162709776131308e-2 -6.313394318464152e-2 -6.467622551981775e-2 -6.625470463246025e-2
      -6.787015272088316e-2 -6.952335428485375e-2 -7.121510607678793e-2 -7.294621703414807e-2
      -7.471750819173546e-2 -7.652981257250935e-2 -7.838397505548091e-2 -8.028085221916321e-2
      -8.222131215897704e-2 -8.420623427692318e-2 -8.623650904175570e-2 -8.831303771779218e-2
      -9.043673206040324e-2 -9.260851397613544e-2 -9.482931514530225e-2 -9.710007660479009e-2
      -9.942174828869984e-2 -1.017952885243400e-1 -1.042216634809649e-1 -1.067018465685214e-1
      -1.092368177835515e-1 -1.118275629992481e-1 -1.144750731965378e-1 -1.171803436329133e-1
      -1.199443729455858e-1 -1.227681621853890e-1 -1.256527137776872e-1 -1.285990304063946e-1
      -1.316081138170369e-1 -1.346809635346059e-1 -1.378185754917984e-1 -1.410219405630221e-1
      -1.442920429993844e-1 -1.476298587596822e-1 -1.510363537321991e-1 -1.545124818419435e-1
      -1.580591830377285e-1 -1.616773811533021e-1 -1.653679816365288e-1 -1.691318691403901e-1
      -1.729699049693831e-1 -1.768829243746556e-1 -1.808717336910116e-1 -1.849371073087105e-1
      -1.890797844727414e-1 -1.933004659020794e-1 -1.975998102211829e-1 -2.019784301958098e-1
      -2.064368887650318e-1 -2.109756948611125e-1 -2.155952990087724e-1 -2.202960886951536e-1
      -2.250783835016731e-1 -2.299424299888077e-1 -2.348883963247187e-1 -2.399163666485577e-1
      -2.450263351591937e-1 -2.502181999200793e-1 -2.554917563709677e-1 -2.608466905371920e-1
      -2.662825719273367e-1 -2.717988461102006e-1 -2.773948269621510e-1 -2.830696885761945e-1
      -2.888224568243650e-1 -2.946520005654252e-1 -3.005570224902914e-1 -3.065360495981432e-1
      -3.125874232968164e-1 -3.187092891217753e-1 -3.248995860688613e-1 -3.311560355369445e-1
      -3.374761298777438e-1 -3.438571205513539e-1 -3.502960058874039e-1 -3.567895184534314e-1
      -3.633341120338009e-1 -3.699259482245268e-1 -3.765608826515874e-1 -3.832344508227527e-1
      -3.899418536257195e-1 -3.966779424883033e-1 -4.034372042197598e-1 -4.102137455559374e-1
      -4.170012774348711e-1 -4.237930990338051e-1 -4.305820816032757e-1 -4.373606521390208e-1
      -4.441207769380227e-1 -4.508539450909349e-1 -4.575511519696725e-1 -4.642028827758363e-1
      -4.707990962231768e-1 -4.773292084353169e-1 -4.837820771485188e-1 -4.901459863185028e-1
      -4.964086312400561e-1 -5.025571042985853e-1 -5.085778814837941e-1 -5.144568098072799e-1
      -5.201790957781940e-1 -5.257292951039759e-1 -5.310913037967836e-1 -5.362483508803667e-1
      -5.411829929069112e-1 -5.458771105087021e-1 -5.503119072252487e-1 -5.544679108628380e-1
      -5.583249776601150e-1 -5.618622995502841e-1 -5.650584148276857e-1 -5.678912225437466e-1
      -5.703380009744991e-1 -5.723754305188081e-1 -5.739796214029963e-1 -5.751261465834554e-1
      -5.757900802538595e-1 -5.759460423774660e-1 -5.755682496773874e-1 -5.746305735283021e-1
      -5.731066052014557e-1 -5.709697289205722e-1 -5.681932031889486e-1 -5.647502508471073e-1
      -5.606141583152833e-1 -5.557583844652191e-1 -5.501566795505496e-1 -5.437832146037850e-1
      -5.366127216798794e-1 -5.286206452907840e-1 -5.197833053314510e-1 -5.100780717447297e-1
      -4.994835511094555e-1 -4.879797852621797e-1 -4.755484619773003e-1 -4.621731376321438e-1
      -4.478394716720231e-1 -4.325354725644344e-1 -4.162517547910141e-1 -3.989818062696424e-1
      -3.807222654268596e-1 -3.614732069521955e-1 -3.412384350606112e-1 -3.200257828674457e-1
      -2.978474162418514e-1 -2.747201402504778e-1 -2.506657060340258e-1 -2.257111156760959e-1
      -1.998889223287099e-1 -1.732381220369749e-1 -1.458058722776667e-1 -1.176452782407428e-1
      -8.881485016899232e-2 -5.937863007853310e-2 -2.940630108787119e-2 1.026723458702306e-3
      3.183923400691252e-2 6.294418499301923e-2 9.424868438046007e-2 1.256540157836654e-1
      1.570556965222445e-1 1.883435750313017e-1 2.194019711237755e-1 2.501098626549280e-1
      2.803411221734382e-1 3.099648071534335e-1 3.388455073822358e-1 3.668437530242000e-1
      3.938164867859407e-1 4.196176034663380e-1 4.440985599794526e-1 4.671090586831151e-1
      4.884978065234453e-1 5.081133521087475e-1 5.258050023478092e-1 5.414238197203449e-1
      5.548237005839608e-1 5.658625341556434e-1 5.744034409298093e-1 5.803160883034158e-1
      5.834780800662953e-1 5.837764151775710e-1 5.811090098838008e-1 5.753862757401516e-1
      5.665327444730243e-1 5.544887288741524e-1 5.392120070479788e-1 5.206795153549382e-1
      4.988890333156480e-1 4.738608415814895e-1 4.456393318568109e-1 4.142945454031631e-1
      3.799236144982757e-1 3.426520789993458e-1 3.026350480153770e-1 2.600581746771806e-1
      2.151384101628041e-1 1.681245015538586e-1 1.192971968346375e-1 6.896911947668984e-2
      1.748427465801381e-2 -3.478285066549624e-2 -8.742863079842699e-2 -1.400221228515126e-1
      -1.921073997894769e-1 -2.432064246421817e-1 -2.928224911843192e-1 -3.404442509241630e-1
      -3.855503395881490e-1 -4.276146083741192e-1 -4.661119560126487e-1 -5.005247470788698e-1
      -5.303497900114981e-1 -5.551058349197783e-1 -5.743415365200672e-1 -5.876438115031970e-1
      -5.946465023952906e-1 -5.950392416929391e-1 -5.885763909371024e-1 -5.750859097146147e-1
      -5.544779896964754e-1 -5.267532691701883e-1 -4.920104246227054e-1 -4.504529184010042e-1
      -4.023946660346770e-1 -3.482643742629913e-1 -2.886082920739885e-1 -2.240911131250330e-1
      -1.554947698308445e-1 -8.371486828133019e-2 -9.754530110554098e-3 6.528456641536651e-2
      1.402141174482315e-1 2.137742205731573e-1 2.846515621877634e-1 3.515007578171993e-1
      4.129687535432502e-1 4.677221000044296e-1 5.144768021131084e-1 5.520303290599213e-1
      5.792952423319250e-1 5.953337671070267e-1 5.993924980667275e-1 5.909362988169296e-1
      5.696803300256455e-1 5.356190312398718e-1 4.890507920902830e-1 4.305969878674071e-1
      3.612140303868056e-1 2.821971060239667e-1 1.951743470701610e-1 1.020903179087080e-1
      5.177900701826207e-3 -9.308205850506051e-2 -1.900136301533123e-1 -2.828110666799854e-1
      -3.686158111698916e-1 -4.446040419906982e-1 -5.080829294938702e-1 -5.565931309383640e-1
      -5.880143909881007e-1 -6.006704777022103e-1 -5.934291038683970e-1 -5.657920019104744e-1
      -5.179699824897302e-1 -4.509376596750939e-1 -3.664626165655156e-1 -2.671041590391270e-1
      -1.561775000747020e-1 -3.768026070157979e-2 8.382042078125844e-2 2.033401182840933e-1
      3.156665458160491e-1 4.155816881180797e-1 4.981096034994632e-1 5.587802751838168e-1
      5.938973895250714e-1 6.007956996320486e-1 5.780718976380302e-1 5.257718884692737e-1
      4.455172536338320e-1 3.405547200461231e-1 2.157147740969366e-1 7.726929280561269e-2
      -6.731677508638388e-2 -2.097381407706266e-1 -3.412971507429294e-1 -4.534294396163770e-1
      -5.382810449211711e-1 -5.893025262857040e-1 -6.018185782308175e-1 -5.735266255339093e-1
      -5.048758273566511e-1 -3.992796152796048e-1 -2.631210163302417e-1 -1.055209610514650e-1
      6.214443800536741e-2 2.269715039032996e-1 3.754719054913626e-1 4.946761106571230e-1
      5.733180421171930e-1 6.030002767240531e-1 5.792241029376433e-1 5.021630603852680e-1
      3.770649341284009e-1 2.141875005321606e-1 2.820833530416106e-2 -1.629022377454301e-1
      -3.394963688663352e-1 -4.822379763295398e-1 -5.742878637090812e-1 -6.034521752617234e-1
      -5.640268214740665e-1 -4.580640506533866e-1 -2.958165635373351e-1 -9.518328938986665e-2
      1.199119832264878e-1 3.221398139480986e-1 4.841577067989222e-1 5.823997292397735e-1
      6.007629203905747e-1 5.336208237548689e-1 3.876032378526941e-1 1.816843398973871e-1
      -5.467790879726257e-2 -2.853232563333272e-1 -4.727272729748310e-1 -5.841944491864950e-1
      -5.979300542827594e-1 -5.078700341020975e-1 -3.261918328262237e-1 -8.269445489759274e-2
      1.792814032176761e-1 4.100757142981228e-1 5.630486534460352e-1 6.043934243974155e-1
      5.213853486593861e-1 3.269681671128110e-1 5.917612306772327e-2 -2.251045871356320e-1
      -4.615969875087612e-1 -5.931611200994739e-1 -5.842826680125962e-1 -4.318368237639439e-1
      -1.687997934379876e-1 1.410958536017737e-1 4.176133275614945e-1 5.844840096171918e-1
      5.911536822283080e-1 4.296287250057896e-1 1.406704524162101e-1 -1.941005193405610e-1
      -4.737453687950458e-1 -6.082353293266939e-1 -5.486617853399923e-1 -3.072282664532847e-1
      4.136728757010039e-2 3.803460464566680e-1 5.888132819094186e-1 5.857155448691495e-1
      3.639298662569407e-1 -2.409984444501597e-4 -3.695408218459522e-1 -5.956671442168110e-1
      -5.797037995112863e-1 -3.186728699382621e-1 8.430205142103381e-2 4.561428521908927e-1
      6.264024741212063e-1 5.073371306051556e-1 1.437773561379142e-1 -2.964361909680190e-1
      -5.954294165279659e-1 -5.931213135771007e-1 -2.775489042394509e-1 1.943612744131131e-1
      5.677334462273228e-1 6.255692749541122e-1 3.194003823380779e-1 -1.848646892442349e-1
      -5.873679684644358e-1 -6.296919309919624e-1 -2.661616835945556e-1 2.836822786585755e-1
      6.562586184324787e-1 5.819716779586884e-1 8.831390331613235e-2 -4.872126152059631e-1
      -7.159416768933859e-1 -3.985910236302101e-1 2.494797231461412e-1 7.229293479088118e-1
      6.121788804881325e-1 -3.298673798282580e-2 -6.860419824677352e-1 -7.541712969541098e-1
      -1.194968620071205e-1 6.778465209809307e-1 8.675242936480508e-1 1.881512328024057e-1
      -7.557615997718441e-1 -9.837562153006104e-1 -1.427718159040135e-1 9.717361099901863e-1
      1.098009773894380e0 -9.192406795390259e-2 -1.372740119468061e0 -1.125199691349661e0
      6.692676571741200e-1 1.956582376489667e0 8.084587213218526e-1 -1.821783733519899e0
      -2.510372510498883e0 4.276902719235116e-1 3.703789804772445e0 2.207103089528431e0
      -3.548778200839753e0 -5.722827160523138e0 1.097722319319214e0 9.276519065127069e0
      4.705805803594497e0 -1.119390591596899e1 -1.489205250281877e1 8.306392955269528e0
      2.991749434299640e1 5.152287495183170e0 -4.809435429924939e1 -3.912592117399775e1
      6.165700550700815e1 1.093087095332010e2 -4.765628361231371e1 -2.363346723661583e2
      -5.175271136744271e1 4.343466552747262e2 3.686259733792963e2 -6.642025448665335e2
      -1.177479074687909e3 6.836924961071616e2 2.978411238843954e3 3.737968491448737e2
      -6.456206927203391e3 -5.061069699263872e3 1.169473457527405e4 1.993363101748255e4
      -1.445202316526181e4 -5.930379527597819e4 -7.104217385059751e3 1.457765990673790e5
      1.314973069045748e5 -2.791278873224356e5 -5.848514087897747e5 2.576993882626769e5
      1.854960715999487e6 1.004420178689614e6 -4.346843456581699e6 -7.353675766180974e6
      5.065524454304543e6 2.780747165193874e7 1.700118436766384e7 -6.557848675139027e7
      -1.382310472925885e8 2.246575966940071e7 4.810381143900984e8 6.498507681095281e8
      -5.734439864491714e8 0.000000000000000e0 0.000000000000000e0
      </PP_PSWFC.4>
  </PP_FULL_WFC>
  <PP_RHOATOM>
    6.423832699209107e-9 6.586452795369778e-9 6.753189638718405e-9 6.924147445198719e-9
    7.099433068993275e-9 7.279156069310702e-9 7.463428778863792e-9 7.652366374081057e-9
    7.846086947095675e-9 8.044711579556980e-9 8.248364418310285e-9 8.457172752992724e-9
    8.671267095593361e-9 8.890781262027366e-9 9.115852455775372e-9 9.346621353639916e-9
    9.583232193673085e-9 9.825832865329897e-9 1.007457500190395e-8 1.032961407530319e-8
    1.059110949322475e-8 1.085922469878994e-8 1.113412727270144e-8 1.141598903798661e-8
    1.170498616739246e-8 1.200129929349918e-8 1.230511362162137e-8 1.261661904556725e-8
    1.293601026632842e-8 1.326348691377425e-8 1.359925367142684e-8 1.394352040439489e-8
    1.429650229054602e-8 1.465841995499988e-8 1.502949960802593e-8 1.540997318643204e-8
    1.580007849853238e-8 1.620005937278532e-8 1.661016581019385e-8 1.703065414056440e-8
    1.746178718272094e-8 1.790383440877519e-8 1.835707211255533e-8 1.882178358229836e-8
    1.929825927771437e-8 1.978679701153299e-8 2.028770213564587e-8 2.080128773196128e-8
    2.132787480809027e-8 2.186779249798670e-8 2.242137826766620e-8 2.298897812613327e-8
    2.357094684164784e-8 2.416764816346660e-8 2.477945504919796e-8 2.540674989791208e-8
    2.604992478915259e-8 2.670938172799855e-8 2.738553289633028e-8 2.807880091045623e-8
    2.878961908526121e-8 2.951843170504190e-8 3.026569430119858e-8 3.103187393695644e-8
    3.181744949929493e-8 3.262291199826683e-8 3.344876487389515e-8 3.429552431083879e-8
    3.516371956102402e-8 3.605389327444367e-8 3.696660183832999e-8 3.790241572491415e-8
    3.886191984798912e-8 3.984571392849887e-8 4.085441286938291e-8 4.188864713990908e-8
    4.294906316973679e-8 4.403632375295546e-8 4.515110846235110e-8 4.629411407416066e-8
    4.746605500357808e-8 4.866766375128605e-8 4.989969136129151e-8 5.116290789035066e-8
    5.245810288927883e-8 5.378608589644305e-8 5.514768694374848e-8 5.654375707543381e-8
    5.797516887999938e-8 5.944281703560204e-8 6.094761886925538e-8 6.249051493018728e-8
    6.407246957771142e-8 6.569447158398063e-8 6.735753475199996e-8 6.906269854928282e-8
    7.081102875755009e-8 7.260361813887515e-8 7.444158711869258e-8 7.632608448609799e-8
    7.825828811187431e-8 8.023940568469639e-8 8.227067546597187e-8 8.435336706379083e-8
    8.648878222646859e-8 8.867825565617576e-8 9.092315584316633e-8 9.322488592112371e-8
    9.558488454416016e-8 9.800462678601715e-8 1.004856250620285e-7 1.030294300744239e-7
    1.056376317815616e-7 1.083118603916979e-7 1.110537873819143e-7 1.138651265428366e-7
    1.167476350498033e-7 1.197031145611492e-7 1.227334123442921e-7 1.258404224303270e-7
    1.290260867978469e-7 1.322923965867342e-7 1.356413933426766e-7 1.390751702931900e-7
    1.425958736559426e-7 1.462057039801983e-7 1.499069175222196e-7 1.537018276554882e-7
    1.575928063166254e-7 1.615822854879152e-7 1.656727587173569e-7 1.698667826771982e-7
    1.741669787619217e-7 1.785760347266842e-7 1.830967063672336e-7 1.877318192423504e-7
    1.924842704398937e-7 1.973570303875545e-7 2.023531447094468e-7 2.074757361296987e-7
    2.127280064242307e-7 2.181132384219442e-7 2.236347980565693e-7 2.292961364704534e-7
    2.351007921716077e-7 2.410523932453574e-7 2.471546596219794e-7 2.534114054017450e-7
    2.598265412388189e-7 2.664040767855079e-7 2.731481231983807e-7 2.800628957078328e-7
    2.871527162526975e-7 2.944220161815495e-7 3.018753390223940e-7 3.095173433224641e-7
    3.173528055599111e-7 3.253866231291997e-7 3.336238174020773e-7 3.420695368660331e-7
    3.507290603421982e-7 3.596078002847131e-7 3.687113061636111e-7 3.780452679333392e-7
    3.876155195890849e-7 3.974280428131199e-7 4.074889707134630e-7 4.178045916571687e-7
    4.283813532006647e-7 4.392258661195792e-7 4.503449085405727e-7 4.617454301777800e-7
    4.734345566764764e-7 4.854195940667116e-7 4.977080333296828e-7 5.103075550796888e-7
    5.232260343646272e-7 5.364715455879852e-7 5.500523675554431e-7 5.639769886492267e-7
    5.782541121334259e-7 5.928926615936398e-7 6.079017865142930e-7 6.232908679971530e-7
    6.390695246246015e-7 6.552476184713143e-7 6.718352612681461e-7 6.888428207220190e-7
    7.062809269958037e-7 7.241604793522372e-7 7.424926529659971e-7 7.612889059082502e-7
    7.805609863079677e-7 8.003209396945454e-7 8.205811165262823e-7 8.413541799094155e-7
    8.626531135125855e-7 8.844912296816030e-7 9.068821777596540e-7 9.298399526181122e-7
    9.533789034032711e-7 9.775137425045266e-7 1.002259554749525e-6 1.027631806832101e-6
    1.053646356978857e-6 1.080319464860410e-6 1.107667801753567e-6 1.135708460960684e-6
    1.164458968492795e-6 1.193937294023169e-6 1.224161862118087e-6 1.255151563751964e-6
    1.286925768113883e-6 1.319504334713020e-6 1.352907625790487e-6 1.387156519045313e-6
    1.422272420682596e-6 1.458277278791896e-6 1.495193597064269e-6 1.533044448856535e-6
    1.571853491611483e-6 1.611644981643150e-6 1.652443789296278e-6 1.694275414489517e-6
    1.737166002652057e-6 1.781142361063589e-6 1.826231975607942e-6 1.872463027950687e-6
    1.919864413151575e-6 1.968465757722777e-6 2.018297438144142e-6 2.069390599847166e-6
    2.121777176679394e-6 2.175489910861517e-6 2.230562373449610e-6 2.287028985315206e-6
    2.344925038656493e-6 2.404286719053863e-6 2.465151128083746e-6 2.527556306504807e-6
    2.591541258030912e-6 2.657145973705892e-6 2.724411456895122e-6 2.793379748909674e-6
    2.864093955279001e-6 2.936598272688535e-6 3.010938016599076e-6 3.087159649565175e-6
    3.165310810270233e-6 3.245440343296440e-6 3.327598329648112e-6 3.411836118047572e-6
    3.498206357023014e-6 3.586763027808471e-6 3.677561478076414e-6 3.770658456524001e-6
    3.866112148334659e-6 3.963982211537043e-6 4.064329814284172e-6 4.167217673075958e-6
    4.272710091948997e-6 4.380873002658149e-6 4.491774005874890e-6 4.605482413428291e-6
    4.722069291614882e-6 4.841607505604488e-6 4.964171764969802e-6 5.089838670367995e-6
    5.218686761403669e-6 5.350796565702904e-6 5.486250649229043e-6 5.625133667871754e-6
    5.767532420341347e-6 5.913535902401574e-6 6.063235362474671e-6 6.216724358653267e-6
    6.374098817154921e-6 6.535457092255596e-6 6.700900027739573e-6 6.870531019904149e-6
    7.044456082158326e-6 7.222783911255979e-6 7.405625955204643e-6 7.593096482892427e-6
    7.785312655476452e-6 7.982394599577268e-6 8.184465482325109e-6 8.391651588304516e-6
    8.604082398445620e-6 8.821890670911124e-6 9.045212524029381e-6 9.274187521325508e-6
    9.508958758703333e-6 9.749672953832658e-6 9.996480537797648e-6 1.024953574906325e-5
    1.050899672981857e-5 1.077502562475688e-5 1.104778868235423e-5 1.132745635870956e-5
    1.161420342401097e-5 1.190820907169483e-5 1.220965703036543e-5 1.251873567854506e-5
    1.283563816232609e-5 1.316056251599820e-5 1.349371178572608e-5 1.383529415635453e-5
    1.418552308141998e-5 1.454461741644958e-5 1.491280155563049e-5 1.529030557193499e-5
    1.567736536078827e-5 1.607422278736850e-5 1.648112583763108e-5 1.689832877315062e-5
    1.732609228987760e-5 1.776468368090811e-5 1.821437700336806e-5 1.867545324951607e-5
    1.914820052217076e-5 1.963291421457239e-5 2.012989719479022e-5 2.063945999479043e-5
    2.116192100428221e-5 2.169760666946286e-5 2.224685169678451e-5 2.280999926187051e-5
    2.338740122371020e-5 2.397941834426582e-5 2.458642051362790e-5 2.520878698085864e-5
    2.584690659066750e-5 2.650117802606513e-5 2.717201005714698e-5 2.785982179616087e-5
    2.856504295901648e-5 2.928811413339992e-5 3.002948705365901e-5 3.078962488263024e-5
    3.156900250058242e-5 3.236810680145524e-5 3.318743699657811e-5 3.402750492605617e-5
    3.488883537801701e-5 3.577196641591656e-5 3.667744971410538e-5 3.760585090186526e-5
    3.855774991612764e-5 3.953374136309290e-5 4.053443488897481e-5 4.156045556009812e-5
    4.261244425258658e-5 4.369105805188077e-5 4.479697066233354e-5 4.593087282713633e-5
    4.709347275883568e-5 4.828549658070596e-5 4.950768877925163e-5 5.076081266811723e-5
    5.204565086369337e-5 5.336300577270963e-5 5.471370009211811e-5 5.609857732157399e-5
    5.751850228882973e-5 5.897436168836697e-5 6.046706463359703e-5 6.199754322297199e-5
    6.356675312035263e-5 6.517567414999230e-5 6.682531090650202e-5 6.851669338017109e-5
    7.025087759802950e-5 7.202894628104418e-5 7.385200951785408e-5 7.572120545545685e-5
    7.763770100727098e-5 7.960269257900839e-5 8.161740681280158e-5 8.368310135004199e-5
    8.580106561339658e-5 8.797262160848012e-5 9.019912474567610e-5 9.248196468260630e-5
    9.482256618776514e-5 9.722239002584613e-5 9.968293386530069e-5 1.022057332086817e-4
    1.047923623463422e-4 1.074444353340659e-4 1.101636069952283e-4 1.129515739480974e-4
    1.158100756588950e-4 1.187408955212646e-4 1.217458619627960e-4 1.248268495792803e-4
    1.279857802973826e-4 1.312246245664358e-4 1.345454025800769e-4 1.379501855284665e-4
    1.414410968818444e-4 1.450203137062000e-4 1.486900680118476e-4 1.524526481357213e-4
    1.563104001582206e-4 1.602657293554595e-4 1.643211016877915e-4 1.684790453255006e-4
    1.727421522125798e-4 1.771130796695266e-4 1.815945520361177e-4 1.861893623551450e-4
    1.909003740981149e-4 1.957305229339422e-4 2.006828185416905e-4 2.057603464684362e-4
    2.109662700333616e-4 2.163038322792020e-4 2.217763579722068e-4 2.273872556517944e-4
    2.331400197311120e-4 2.390382326497400e-4 2.450855670798038e-4 2.512857881867951e-4
    2.576427559464257e-4 2.641604275188715e-4 2.708428596817982e-4 2.776942113235802e-4
    2.847187459981773e-4 2.919208345431458e-4 2.993049577623079e-4 3.068757091746327e-4
    3.146377978309150e-4 3.225960511998833e-4 3.307554181253913e-4 3.391209718563963e-4
    3.476979131514612e-4 3.564915734595476e-4 3.655074181789252e-4 3.747510499960437e-4
    3.842282123062646e-4 3.939447927183916e-4 4.039068266449680e-4 4.141205009803771e-4
    4.245921578687975e-4 4.353282985641266e-4 4.463355873840300e-4 4.576208557603033e-4
    4.691911063878091e-4 4.810535174742670e-4 4.932154470932443e-4 5.056844376427367e-4
    5.184682204117680e-4 5.315747202575070e-4 5.450120603954360e-4 5.587885673051503e-4
    5.729127757544501e-4 5.873934339443884e-4 6.022395087780477e-4 6.174601912558304e-4
    6.330649020001104e-4 6.490632969121758e-4 6.654652729643885e-4 6.822809741306155e-4
    6.995207974579798e-4 7.171953992830683e-4 7.353157015957883e-4 7.538928985540942e-4
    7.729384631529123e-4 7.924641540505959e-4 8.124820225563354e-4 8.330044197819950e-4
    8.540440039618890e-4 8.756137479441087e-4 8.977269468570121e-4 9.203972259545989e-4
    9.436385486445173e-4 9.674652247024948e-4 9.918919186770971e-4 1.016933658488700e-3
    1.042605844226668e-3 1.068924257148757e-3 1.095905068886831e-3 1.123564850863001e-3
    1.151920583920401e-3 1.180989668172786e-3 1.210789933077261e-3 1.241339647734421e-3
    1.272657531420301e-3 1.304762764354506e-3 1.337674998708962e-3 1.371414369861778e-3
    1.406001507900670e-3 1.441457549380551e-3 1.477804149339779e-3 1.515063493579655e-3
    1.553258311211796e-3 1.592411887477922e-3 1.632548076846733e-3 1.673691316392448e-3
    1.715866639459626e-3 1.759099689618886e-3 1.803416734918054e-3 1.848844682433375e-3
    1.895411093125252e-3 1.943144197003027e-3 1.992072908603272e-3 2.042226842785892e-3
    2.093636330852477e-3 2.146332436991038e-3 2.200346975051348e-3 2.255712525654921e-3
    2.312462453643540e-3 2.370630925870219e-3 2.430252929336210e-3 2.491364289677603e-3
    2.554001690004897e-3 2.618202690098617e-3 2.684005745964042e-3 2.751450229747692e-3
    2.820576450018112e-3 2.891425672413123e-3 2.964040140655490e-3 3.038463097938646e-3
    3.114738808683693e-3 3.192912580668634e-3 3.273030787530335e-3 3.355140891639261e-3
    3.439291467346709e-3 3.525532224603597e-3 3.613914032949453e-3 3.704488945869696e-3
    3.797310225518556e-3 3.892432367804570e-3 3.989911127834687e-3 4.089803545712384e-3
    4.192167972684452e-3 4.297064097630109e-3 4.404552973885462e-3 4.514697046395158e-3
    4.627560179182222e-3 4.743207683125965e-3 4.861706344036582e-3 4.983124451014207e-3
    5.107531825078492e-3 5.234999848053727e-3 5.365601491693056e-3 5.499411347023587e-3
    5.636505653892981e-3 5.776962330696120e-3 5.920861004258716e-3 6.068283039853012e-3
    6.219311571318372e-3 6.374031531257907e-3 6.532529681279637e-3 6.694894642248626e-3
    6.861216924513924e-3 7.031588958071509e-3 7.206105122621851e-3 7.384861777477637e-3
    7.567957291274194e-3 7.755492071432109e-3 7.947568593317822e-3 8.144291429044880e-3
    8.345767275854405e-3 8.552104984009613e-3 8.763415584135268e-3 8.979812313928043e-3
    9.201410644160163e-3 9.428328303893036e-3 9.660685304813189e-3 9.898603964597454e-3
    1.014220892920860e-2 1.039162719401749e-2 1.064698812364112e-2 1.090842347038031e-2
    1.117606739113369e-2 1.145005646265797e-2 1.173052969503765e-2 1.201762854321919e-2
    1.231149691645729e-2 1.261228118551280e-2 1.292013018743268e-2 1.323519522773450e-2
    1.355763007980790e-2 1.388759098133596e-2 1.422523662752992e-2 1.457072816095929e-2
    1.492422915774955e-2 1.528590560990764e-2 1.565592590352390e-2 1.603446079258723e-2
    1.642168336813692e-2 1.681776902246255e-2 1.722289540804862e-2 1.763724239094756e-2
    1.806099199824960e-2 1.849432835930290e-2 1.893743764032273e-2 1.939050797201118e-2
    1.985372936979348e-2 2.032729364625957e-2 2.081139431538166e-2 2.130622648806179e-2
    2.181198675854351e-2 2.232887308120389e-2 2.285708463722250e-2 2.339682169060371e-2
    2.394828543300937e-2 2.451167781683755e-2 2.508720137596240e-2 2.567505903352912e-2
    2.627545389617567e-2 2.688858903403243e-2 2.751466724582750e-2 2.815389080840442e-2
    2.880646120993628e-2 2.947257886609769e-2 3.015244281843551e-2 3.084625041415515e-2
    3.155419696651957e-2 3.227647539503570e-2 3.301327584458257e-2 3.376478528261606e-2
    3.453118707356473e-2 3.531266052951412e-2 3.610938043625919e-2 3.692151655378848e-2
    3.774923309025087e-2 3.859268814844162e-2 3.945203314383533e-2 4.032741219318565e-2
    4.121896147270468e-2 4.212680854483557e-2 4.305107165262980e-2 4.399185898074786e-2
    4.494926788210979e-2 4.592338406923520e-2 4.691428076933293e-2 4.792201784222222e-2
    4.894664086019928e-2 4.998818014900050e-2 5.104664978905513e-2 5.212204657627842e-2
    5.321434894171065e-2 5.432351582938347e-2 5.544948553187547e-2 5.659217448310789e-2
    5.775147600804214e-2 5.892725902905252e-2 6.011936672888377e-2 6.132761517025072e-2
    6.255179187229675e-2 6.379165434431705e-2 6.504692857734545e-2 6.631730749443021e-2
    6.760244936066715e-2 6.890197615431904e-2 7.021547190065078e-2 7.154248097041764e-2
    7.288250634529605e-2 7.423500785292254e-2 7.559940037460620e-2 7.697505202923224e-2
    7.836128233734003e-2 7.975736036987807e-2 8.116250288669292e-2 8.257587247039568e-2
    8.399657566189735e-2 8.542366110457801e-2 8.685611770478928e-2 8.829287281717173e-2
    8.973279046408942e-2 9.117466959938124e-2 9.261724242755159e-2 9.405917279053011e-2
    9.549905463517577e-2 9.693541057580997e-2 9.836669056724340e-2 9.979127070498093e-2
    1.012074521705920e-1 1.026134603415854e-1 1.040074440865374e-1 1.053874752677062e-1
    1.067515484748919e-1 1.080975810158915e-1 1.094234131905496e-1 1.107268088770843e-1
    1.120054564611210e-1 1.132569701396306e-1 1.144788916337890e-1 1.156686923466037e-1
    1.168237760030011e-1 1.179414818119287e-1 1.190190881918605e-1 1.200538171029236e-1
    1.210428390306403e-1 1.219832786679993e-1 1.228722213442187e-1 1.237067202500906e-1
    1.244838045112131e-1 1.252004881616583e-1 1.258537800716765e-1 1.264406948838723e-1
    1.269582650128343e-1 1.274035537634580e-1 1.277736696230866e-1 1.280657817820748e-1
    1.282771369364001e-1 1.284050774244387e-1 1.284470607479303e-1 1.284006805244087e-1
    1.282636889148981e-1 1.280340205663967e-1 1.277098181035044e-1 1.272894591974140e-1
    1.267715852332941e-1 1.261551315887461e-1 1.254393595264295e-1 1.246238896930143e-1
    1.237087372042566e-1 1.226943482820731e-1 1.215816383939604e-1 1.203720318278152e-1
    1.190675026161339e-1 1.176706167025557e-1 1.161845752207375e-1 1.146132587305188e-1
    1.129612722291907e-1 1.112339907264226e-1 1.094376051399672e-1 1.075791682356860e-1
    1.056666402997659e-1 1.037089341932574e-1 1.017159593994247e-1 9.969866463294753e-2
    9.766907853700648e-2 9.564034794996108e-2 9.362677317798635e-2 9.164383966413025e-2
    8.970824539818722e-2 8.783792336616393e-2 8.605205829358226e-2 8.437109689414765e-2
    8.281675079531681e-2 8.141199127595865e-2 8.018103491974262e-2 7.914931926233898e-2
    7.834346749229443e-2 7.779124125610450e-2 7.752148061910738e-2 7.756403024715913e-2
    7.794965090149503e-2 7.870991538272031e-2 7.987708812160959e-2 8.148398769652001e-2
    8.356383166195519e-2 8.615006320244342e-2 8.927615928266066e-2 9.297542015081131e-2
    9.728074026978026e-2 1.022243610013626e-1 1.078376056545455e-1 1.141505978307220e-1
    1.211919643575250e-1 1.289885244990409e-1 1.375649675629522e-1 1.469435214932793e-1
    1.571436155387129e-1 1.681815406172470e-1 1.800701115534207e-1 1.928183359382785e-1
    2.064310949462969e-1 2.209088420279113e-1 2.362473259687378e-1 2.524373453530892e-1
    2.694645419727860e-1 2.873092411637455e-1 3.059463474103025e-1 3.253453038062457e-1
    3.454701240754497e-1 3.662795058038554e-1 3.877270332873466e-1 4.097614779230907e-1
    4.323272033304815e-1 4.553646813470820e-1 4.788111236693347e-1 5.026012321643210e-1
    5.266680687362381e-1 5.509440430628945e-1 5.753620135033666e-1 5.998564930051069e-1
    6.243649479062769e-1 6.488291731481964e-1 6.731967226113031e-1 6.974223681133935e-1
    7.214695551298709e-1 7.453118176079578e-1 7.689341084738177e-1 7.923251469406313e-1
    8.154468946792514e-1 8.382529588620361e-1 8.606964729280408e-1 8.827303808940066e-1
    9.043077398134539e-1 9.253820210676810e-1 9.459073950938809e-1 9.658389893988458e-1
    9.851331149836149e-1 1.003747460698400e0 1.021641258115348e0 1.038775421215469e0
    1.055112665762773e0 1.070617613018757e0 1.085256881765642e0 1.098999171723885e0
    1.111815340551351e0 1.123678475804587e0 1.134563962575154e0 1.144449546996578e0
    1.153315395439488e0 1.161144148953824e0 1.167920972355188e0 1.173633597266619e0
    1.178272358399341e0 1.181830222372122e0 1.184302808417118e0 1.185688400391391e0
    1.185987949600690e0 1.185205068039938e0 1.183346011758618e0 1.180419654165559e0
    1.176437449193423e0 1.171413384346539e0 1.165363923754672e0 1.158307941448769e0
    1.150266645161621e0 1.141263491036105e0 1.131324089695892e0 1.120476104197833e0
    1.108749140441790e0 1.096174630662269e0 1.082785710667130e0 1.068617091521960e0
    1.053704926404603e0 1.038086673373128e0 1.021800954802441e0 1.004887414249984e0
    9.873865715099715e-1 9.693396766085158e-1 9.507885634792423e-1 9.317755040408333e-1
    9.123430633747612e-1 8.925339566736609e-1 8.723909085987007e-1 8.519565156484390e-1
    8.312731121024175e-1 8.103826400606938e-1 7.893265240561709e-1 7.681455506705850e-1
    7.468797535342262e-1 7.255683040652466e-1 7.042494081982735e-1 6.829602093873764e-1
    6.617366980615929e-1 6.406136276961587e-1 6.196244376202237e-1 5.988011826480552e-1
    5.781744695913523e-1 5.577734006858533e-1 5.376255239459181e-1 5.177567904461493e-1
    4.981915185189201e-1 4.789523648502156e-1 4.600603024524573e-1 4.415346054906554e-1
    4.233928409358631e-1 4.056508670158244e-1 3.883228384252668e-1 3.714212182460304e-1
    3.549567965085023e-1 3.389387153003741e-1 3.233745002839053e-1 3.082700985237170e-1
    2.936299222428715e-1 2.794568984283334e-1 2.657525238525665e-1 2.525169251485069e-1
    2.397489234936150e-1 2.274461034033164e-1 2.156048850843112e-1 2.042205997561593e-1
    1.932875673170461e-1 1.827991757080517e-1 1.727479613204221e-1 1.631256897925700e-1
    1.539234365575694e-1 1.451316665270690e-1 1.367403123327042e-1 1.287388505898652e-1
    1.211163756994428e-1 1.138616707592182e-1 1.069632752161533e-1 1.004095489522851e-1
    9.418873255868071e-2 8.828900361256816e-2 8.269852883112865e-2 7.740551203053542e-2
    7.239823786987623e-2 6.766511140605407e-2 6.319469352724810e-2 5.897573236885718e-2
    5.499719084699696e-2 5.124827047067939e-2 4.771843161495804e-2 4.439741045385405e-2
    4.127523276411357e-2 3.834222481915290e-2 3.558902159731680e-2 3.300657253018801e-2
    3.058614501553842e-2 2.831932591596423e-2 2.619802125864994e-2 2.421445434437941e-2
    2.236116246514604e-2 2.063099241977809e-2 1.901709500611886e-2 1.751291865671181e-2
    1.611220237280507e-2 1.480896809900892e-2 1.359751266827287e-2 1.247239943409428e-2
    1.142844969422639e-2 1.046073399774109e-2 9.564563415201087e-3 8.735480840060827e-3
    7.969252378348573e-3 7.261858873273441e-3 6.609487601739906e-3 6.008524170911583e-3
    5.455544635001108e-3 4.947307845413227e-3 4.480748041252803e-3 4.052967682029704e-3
    3.661230520129996e-3 3.302954907242155e-3 2.975707326376286e-3 2.677196139328753e-3
    2.405265538348289e-3 2.157889690269200e-3 1.933167061404517e-3 1.729314911947156e-3
    1.544663949421667e-3 1.377653131777775e-3 1.226824611940062e-3 1.090818816953073e-3
    9.683696562237733e-4 8.582998547078633e-4 7.595164081671061e-4 6.710061588042438e-4
    5.918314906323234e-4 5.211261448364269e-4 4.580911561257076e-4 4.019909116468935e-4
    3.521493344374282e-4 3.079461936426494e-4 2.688135438162331e-4 2.342322955791869e-4
    2.037289197448423e-4 1.768722867420505e-4 1.532706428034703e-4 1.325687239481061e-4
    1.144450082945134e-4 9.860910671014850e-5 8.479929124898128e-5 7.278016026830104e-5
    6.234043855974553e-5 5.329091029054532e-5 4.546248203874146e-5 3.870437272897406e-5
    3.288242684001202e-5 2.787754686655388e-5 2.358424067962393e-5 1.990927914372054e-5
    1.677045911877814e-5 1.409546678957741e-5 1.182083615045469e-5 9.890997384159190e-6
    8.257409848418316e-6 6.877774401177699e-6 5.715319847944458e-6 4.738158385896762e-6
    3.918705043050152e-6 3.233156261954634e-6 2.661022952147887e-6 2.184713529653826e-6
    1.789162671611208e-6 1.461501734055989e-6 1.190767007297385e-6 9.676424704047657e-7
    7.842306886128894e-7 6.338697462890909e-7 5.109045720791709e-7 4.106509537143369e-7
    3.291759257764362e-7 2.631494433582983e-7 2.097880650699715e-7 1.667814033901452e-7
    1.322170326514490e-7 1.045163775417044e-7 8.238013308958086e-8 6.474193442700247e-8
    5.072914537298913e-8 3.962977113348111e-8 3.086462308133116e-8 2.396397365304564e-8
    1.854803776187329e-8 1.431070474620077e-8 1.100602261409244e-8 8.437005063051853e-9
    6.446392276039299e-9 4.909049595193300e-9 3.725734586576577e-9 2.818003420549378e-9
    2.124062543718722e-9 1.595401903152685e-9 1.194072047983336e-9 8.904897777782761e-10
    6.616760864360181e-10 4.898463770578125e-10 3.612866684332778e-10 2.654611098726833e-10
    1.943058642743789e-10 1.416725719814556e-10 1.028914015322783e-10 7.442933077024869e-11
    5.362396000776045e-11 3.847699173618421e-11 2.749465147709778e-11 1.956488583388614e-11
    1.386325412872690e-11 9.781112121817287e-12 6.871040385355592e-12 4.805554991674040e-12
    3.346003803370750e-12 2.319239281949175e-12 1.600200871332119e-12 1.098969781319983e-12
    7.511908462993132e-13 5.110188994347764e-13 3.459485509461846e-13 2.330424613752507e-13
    1.561930472609476e-13 1.041441312260378e-13 6.906866872912778e-14 4.555134409194367e-14
    2.986445583413969e-14 1.945517651052207e-14 1.258436343749619e-14 8.073458863064042e-15
    5.128080950616702e-15 3.215707087067349e-15 1.981449387587675e-15 1.189964128936070e-15
    6.889053551971638e-16 3.675605215054140e-16 0.000000000000000e0 0.000000000000000e0
    0.000000000000000e0 0.000000000000000e0 0.000000000000000e0 0.000000000000000e0
    0.000000000000000e0 0.000000000000000e0 0.000000000000000e0 0.000000000000000e0
    0.000000000000000e0 0.000000000000000e0 0.000000000000000e0 0.000000000000000e0
    0.000000000000000e0 0.000000000000000e0 0.000000000000000e0 0.000000000000000e0
    0.000000000000000e0 0.000000000000000e0 0.000000000000000e0 0.000000000000000e0
    0.000000000000000e0 0.000000000000000e0 0.000000000000000e0 0.000000000000000e0
    0.000000000000000e0 0.000000000000000e0 0.000000000000000e0 0.000000000000000e0
    0.000000000000000e0 0.000000000000000e0 0.000000000000000e0 0.000000000000000e0
    0.000000000000000e0 0.000000000000000e0 0.000000000000000e0 0.000000000000000e0
    0.000000000000000e0 0.000000000000000e0 0.000000000000000e0 0.000000000000000e0
    0.000000000000000e0 0.000000000000000e0 0.000000000000000e0 0.000000000000000e0
    0.000000000000000e0 0.000000000000000e0 0.000000000000000e0 0.000000000000000e0
    0.000000000000000e0 0.000000000000000e0 0.000000000000000e0 0.000000000000000e0
    0.000000000000000e0 0.000000000000000e0 0.000000000000000e0 0.000000000000000e0
    0.000000000000000e0 0.000000000000000e0 0.000000000000000e0 0.000000000000000e0
    0.000000000000000e0 0.000000000000000e0 0.000000000000000e0 0.000000000000000e0
    0.000000000000000e0 0.000000000000000e0 0.000000000000000e0
    </PP_RHOATOM>
  <PP_PAW paw_data_format="2" core_energy="-4.461776948475e2">
    <PP_OCCUPATIONS>
      2.000000000000000e0 0.000000000000000e0 1.000000000000000e0 0.000000000000000e0
      </PP_OCCUPATIONS>
    <PP_AE_NLCC>
      1.484621979320764e3 1.484454601699641e3 1.484287242960542e3 1.484119903101531e3
      1.483952105345560e3 1.483782860829065e3 1.483612443832935e3 1.483440816262457e3
      1.483267990917428e3 1.483093980131021e3 1.482918795736298e3 1.482742449080181e3
      1.482564951054760e3 1.482386312104058e3 1.482206542162145e3 1.482025650645584e3
      1.481843646519547e3 1.481660538427493e3 1.481476334652181e3 1.481291042953046e3
      1.481104670659475e3 1.480917224730113e3 1.480728711746241e3 1.480539137895671e3
      1.480348508841767e3 1.480156829835049e3 1.479964105941575e3 1.479770341926365e3
      1.479575542088346e3 1.479379710350186e3 1.479182850294993e3 1.478984965152908e3
      1.478786057818885e3 1.478586130810093e3 1.478385186326759e3 1.478183226334610e3
      1.477980252407342e3 1.477776265729857e3 1.477571267296973e3 1.477365257762663e3
      1.477158237419228e3 1.476950206293195e3 1.476741164116705e3 1.476531110298370e3
      1.476320043899079e3 1.476107963789856e3 1.475894868554646e3 1.475680756429863e3
      1.475465625434130e3 1.475249473273012e3 1.475032297306412e3 1.474814094683592e3
      1.474594862330473e3 1.474374596849231e3 1.474153294577537e3 1.473930951562583e3
      1.473707563593180e3 1.473483126283939e3 1.473257634996337e3 1.473031084782252e3
      1.472803470362718e3 1.472574786208293e3 1.472345026606547e3 1.472114185656392e3
      1.471882257187458e3 1.471649234645023e3 1.471415111284748e3 1.471179880161976e3
      1.470943534046735e3 1.470706065437961e3 1.470467466598815e3 1.470227729644774e3
      1.469986846409838e3 1.469744808426773e3 1.469501606985125e3 1.469257233128027e3
      1.469011677771968e3 1.468764931603322e3 1.468516984997169e3 1.468267827986181e3
      1.468017450413859e3 1.467765842009045e3 1.467512992204686e3 1.467258890089343e3
      1.467003524520550e3 1.466746884185736e3 1.466488957457502e3 1.466229732481184e3
      1.465969197282355e3 1.465707339583578e3 1.465444146748305e3 1.465179605957273e3
      1.464913704262610e3 1.464646428417910e3 1.464377764857259e3 1.464107699819919e3
      1.463836219277401e3 1.463563308954859e3 1.463288954325991e3 1.463013140612292e3
      1.462735852779612e3 1.462457075550060e3 1.462176793450254e3 1.461894990730187e3
      1.461611651229224e3 1.461326758643188e3 1.461040296499441e3 1.460752247872341e3
      1.460462595581345e3 1.460171322211837e3 1.459878410079206e3 1.459583841350800e3
      1.459287597812805e3 1.458989660919134e3 1.458690012051996e3 1.458388632234359e3
      1.458085502132393e3 1.457780602189711e3 1.457473912545028e3 1.457165413055001e3
      1.456855083287505e3 1.456542902519955e3 1.456228849736890e3 1.455912903627502e3
      1.455595042583283e3 1.455275244695541e3 1.454953487752867e3 1.454629749238567e3
      1.454304006328041e3 1.453976235886117e3 1.453646414464374e3 1.453314518298407e3
      1.452980523304968e3 1.452644405079058e3 1.452306138889047e3 1.451965699685587e3
      1.451623062142314e3 1.451278200589214e3 1.450931088915093e3 1.450581700742596e3
      1.450230009317822e3 1.449875987416178e3 1.449519607566184e3 1.449160842010971e3
      1.448799662588892e3 1.448436040850259e3 1.448069947976255e3 1.447701354688376e3
      1.447330231396319e3 1.446956548116108e3 1.446580274490007e3 1.446201379778608e3
      1.445819832857352e3 1.445435602212787e3 1.445048655938718e3 1.444658961732279e3
      1.444266486889993e3 1.443871198303772e3 1.443473062456872e3 1.443072045419789e3
      1.442668112846137e3 1.442261229968450e3 1.441851361593942e3 1.441438472100240e3
      1.441022525431028e3 1.440603485091705e3 1.440181314144923e3 1.439755975206145e3
      1.439327430439109e3 1.438895641551261e3 1.438460569789160e3 1.438022175933787e3
      1.437580420295860e3 1.437135262711076e3 1.436686662535290e3 1.436234578639701e3
      1.435778969405910e3 1.435319792721018e3 1.434857005972616e3 1.434390566043740e3
      1.433920429307819e3 1.433446551623506e3 1.432968888329533e3 1.432487394239474e3
      1.432002023636474e3 1.431512730267956e3 1.431019467340228e3 1.430522187513104e3
      1.430020842894451e3 1.429515385034706e3 1.429005764921422e3 1.428491932972338e3
      1.427973839036578e3 1.427451432420934e3 1.426924661859895e3 1.426393475414235e3
      1.425857820493400e3 1.425317643897200e3 1.424772891920622e3 1.424223510320980e3
      1.423669444134640e3 1.423110637763321e3 1.422547034998781e3 1.421978578983578e3
      1.421405212217200e3 1.420826876547699e3 1.420243513165608e3 1.419655062597718e3
      1.419061464700784e3 1.418462658655185e3 1.417858582958592e3 1.417249175419532e3
      1.416634373150983e3 1.416014112563901e3 1.415388329360701e3 1.414756958528759e3
      1.414119934333810e3 1.413477190313380e3 1.412828659270152e3 1.412174273265304e3
      1.411513963611847e3 1.410847660867894e3 1.410175294829943e3 1.409496794526116e3
      1.408812088209360e3 1.408121103350679e3 1.407423766632268e3 1.406720003940700e3
      1.406009740360049e3 1.405292900165011e3 1.404569406814024e3 1.403839182942333e3
      1.403102150355096e3 1.402358230020447e3 1.401607342062534e3 1.400849405754616e3
      1.400084339512065e3 1.399312060885439e3 1.398532486553521e3 1.397745532316347e3
      1.396951113088280e3 1.396149142891030e3 1.395339534846731e3 1.394522201171007e3
      1.393697053166039e3 1.392864001213668e3 1.392022954768497e3 1.391173822351022e3
      1.390316511540781e3 1.389450928969519e3 1.388576980314407e3 1.387694570291246e3
      1.386803602647757e3 1.385903980156864e3 1.384995604610036e3 1.384078376810671e3
      1.383152196567521e3 1.382216962688171e3 1.381272572972565e3 1.380318924206592e3
      1.379355912155738e3 1.378383431558787e3 1.377401376121608e3 1.376409638511002e3
      1.375408110348628e3 1.374396682205013e3 1.373375243593645e3 1.372343682965155e3
      1.371301887701597e3 1.370249744110815e3 1.369187137420942e3 1.368113951774966e3
      1.367030070225456e3 1.365935374729375e3 1.364829746143028e3 1.363713064217149e3
      1.362585207592111e3 1.361446053793288e3 1.360295479226570e3 1.359133359174004e3
      1.357959567789647e3 1.356773978095530e3 1.355576461977843e3 1.354366890183271e3
      1.353145132315533e3 1.351911056832112e3 1.350664531041184e3 1.349405421098769e3
      1.348133592006085e3 1.346848907607137e3 1.345551230586539e3 1.344240422467573e3
      1.342916343610511e3 1.341578853211182e3 1.340227809299805e3 1.338863068740125e3
      1.337484487228801e3 1.336091919295116e3 1.334685218300979e3 1.333264236441242e3
      1.331828824744355e3 1.330378833073339e3 1.328914110127119e3 1.327434503442212e3
      1.325939859394768e3 1.324430023203017e3 1.322904838930077e3 1.321364149487192e3
      1.319807796637360e3 1.318235620999400e3 1.316647462052462e3 1.315043158140967e3
      1.313422546480042e3 1.311785463161402e3 1.310131743159739e3 1.308461220339621e3
      1.306773727462879e3 1.305069096196568e3 1.303347157121441e3 1.301607739740994e3
      1.299850672491100e3 1.298075782750207e3 1.296282896850171e3 1.294471840087692e3
      1.292642436736401e3 1.290794510059575e3 1.288927882323572e3 1.287042374811902e3
      1.285137807840032e3 1.283214000770903e3 1.281270772031190e3 1.279307939128321e3
      1.277325318668264e3 1.275322726374115e3 1.273299977105497e3 1.271256884878779e3
      1.269193262888168e3 1.267108923527653e3 1.265003678413843e3 1.262877338409717e3
      1.260729713649289e3 1.258560613563263e3 1.256369846905603e3 1.254157221781143e3
      1.251922545674180e3 1.249665625478107e3 1.247386267526121e3 1.245084277622984e3
      1.242759461077890e3 1.240411622738470e3 1.238040567025912e3 1.235646097971280e3
      1.233228019253003e3 1.230786134235578e3 1.228320246009520e3 1.225830157432557e3
      1.223315671172122e3 1.220776589749144e3 1.218212715583168e3 1.215623851038837e3
      1.213009798473733e3 1.210370360287653e3 1.207705338973283e3 1.205014537168327e3
      1.202297757709123e3 1.199554803685740e3 1.196785478498622e3 1.193989585916747e3
      1.191166930137391e3 1.188317315847458e3 1.185440548286441e3 1.182536433311042e3
      1.179604777461423e3 1.176645388029183e3 1.173658073127023e3 1.170642641760156e3
      1.167598903899486e3 1.164526670556554e3 1.161425753860297e3 1.158295967135630e3
      1.155137124983874e3 1.151949043365063e3 1.148731539682128e3 1.145484432867000e3
      1.142207543468638e3 1.138900693743004e3 1.135563707745011e3 1.132196411422458e3
      1.128798632711957e3 1.125370201636887e3 1.121910950407384e3 1.118420713522370e3
      1.114899327873660e3 1.111346632852134e3 1.107762470456001e3 1.104146685401167e3
      1.100499125233694e3 1.096819640444404e3 1.093108084585592e3 1.089364314389863e3
      1.085588189891125e3 1.081779574547700e3 1.077938335367594e3 1.074064343035896e3
      1.070157472044325e3 1.066217600822909e3 1.062244611873789e3 1.058238391907169e3
      1.054198831979359e3 1.050125827632940e3 1.046019279039014e3 1.041879091141529e3
      1.037705173803676e3 1.033497441956316e3 1.029255815748429e3 1.024980220699561e3
      1.020670587854226e3 1.016326853938263e3 1.011948961517081e3 1.007536859155781e3
      1.003090501581101e3 9.986098498451526e2 9.940948714909029e2 9.895455407193461e2
      9.849618385583184e2 9.803437530329006e2 9.756912793373438e2 9.710044200084781e2
      9.662831851004984e2 9.615275923610936e2 9.567376674088264e2 9.519134439116851e2
      9.470549637667414e2 9.421622772808034e2 9.372354433519865e2 9.322745296521092e2
      9.272796128097957e2 9.222507785942097e2 9.171881220992793e2 9.120917479283115e2
      9.069617703788820e2 9.017983136278565e2 8.966015119164448e2 8.913715097351124e2
      8.861084620082435e2 8.808125342783882e2 8.754839028899452e2 8.701227551721406e2
      8.647292896211088e2 8.593037160809349e2 8.538462559234667e2 8.483571422267209e2
      8.428366199517086e2 8.372849461174688e2 8.317023899741219e2 8.260892331737459e2
      8.204457699388456e2 8.147723072282337e2 8.090691649000574e2 8.033366758717795e2
      7.975751862768703e2 7.917850556179475e2 7.859666569161695e2 7.801203768565762e2
      7.742466159291546e2 7.683457885653592e2 7.624183232698086e2 7.564646627469080e2
      7.504852640220905e2 7.444805985574146e2 7.384511523612216e2 7.323974260915513e2
      7.263199351530415e2 7.202192097869720e2 7.140957951541821e2 7.079502514105222e2
      7.017831537745401e2 6.955950925870837e2 6.893866733624826e2 6.831585168310027e2
      6.769112589722339e2 6.706455510390831e2 6.643620595720492e2 6.580614664034329e2
      6.517444686511566e2 6.454117787018594e2 6.390641241829231e2 6.327022479231120e2
      6.263269079014712e2 6.199388771841661e2 6.135389438489280e2 6.071279108967699e2
      6.007065961506707e2 5.942758321408714e2 5.878364659764961e2 5.813893592031762e2
      5.749353876463586e2 5.684754412400279e2 5.620104238405147e2 5.555412530251347e2
      5.490688598753644e2 5.425941887442949e2 5.361181970081109e2 5.296418548013427e2
      5.231661447356601e2 5.166920616019994e2 5.102206120557985e2 5.037528142851723e2
      4.972896976618351e2 4.908323023746205e2 4.843816790454564e2 4.779388883276735e2
      4.715050004865478e2 4.650810949619911e2 4.586682599133279e2 4.522675917461338e2
      4.458801946210989e2 4.395071799449556e2 4.331496658434816e2 4.268087766166528e2
      4.204856421760375e2 4.141813974645412e2 4.078971818586655e2 4.016341385534397e2
      3.953934139302492e2 3.891761569077968e2 3.829835182764661e2 3.768166500164082e2
      3.706767045996737e2 3.645648342767865e2 3.584821903481577e2 3.524299224207956e2
      3.464091776507993e2 3.404210999721527e2 3.344668293123851e2 3.285475007956982e2
      3.226642439341923e2 3.168181818078800e2 3.110104302341886e2 3.052420969277205e2
      2.995142806510548e2 2.938280703574309e2 2.881845443261858e2 2.825847692918498e2
      2.770297995678581e2 2.715206761658586e2 2.660584259116420e2 2.606440605587592e2
      2.552785759009139e2 2.499629508842669e2 2.446981467208164e2 2.394851060040478e2
      2.343247518280873e2 2.292179869116112e2 2.241656927278018e2 2.191687286416602e2
      2.142279310560152e2 2.093441125675903e2 2.045180611345075e2 1.997505392566286e2
      1.950422831701544e2 1.903940020579048e2 1.858063772767311e2 1.812800616035006e2
      1.768156785011175e2 1.724138214060352e2 1.680750530387176e2 1.637999047385110e2
      1.595888758243666e2 1.554424329828589e2 1.513610096849238e2 1.473450056327214e2
      1.433947862380186e2 1.395106821334460e2 1.356929887179716e2 1.319419657378916e2
      1.282578369046046e2 1.246407895504037e2 1.210909743234619e2 1.176085049231545e2
      1.141934578768029e2 1.108458723588653e2 1.075657500535527e2 1.043530550617701e2
      1.012077138532266e2 9.812961526448483e1 9.511861054363996e1 9.217451344225022e1
      8.929710035504810e1 8.648611050788432e1 8.374124619426402e1 8.106217306074347e1
      7.844852044136243e1 7.589988174118540e1 7.341581486893066e1 7.099584271855704e1
      6.863945369957685e1 6.634610231575685e1 6.411520979175508e1 6.194616474713694e1
      5.983832391709758e1 5.779101291910581e1 5.580352706457247e1 5.387513221452845e1
      5.200506567818600e1 5.019253715314154e1 4.843672970586285e1 4.673680079099346e1
      4.509188330789022e1 4.350108669270410e1 4.196349804420183e1 4.047818328142067e1
      3.904418833114544e1 3.766054034309243e1 3.632624893059093e1 3.504030743445643e1
      3.380169420766043e1 3.260937391831841e1 3.146229886843492e1 3.035941032520781e1
      2.929963986505724e1 2.828191072183779e1 2.730513914225939e1 2.636823574272538e1
      2.547010686529928e1 2.460965592989970e1 2.378578477981565e1 2.299739501764201e1
      2.224338932875500e1 2.152267278948631e1 2.083415415720759e1 2.017674713960777e1
      1.954937164053439e1 1.895095497987334e1 1.838043308506368e1 1.783675165197787e1
      1.731886727304679e1 1.682574853066745e1 1.635637705409763e1 1.590974853821529e1
      1.548487372269545e1 1.508077933033203e1 1.469650896340552e1 1.433112395715955e1
      1.398370418960573e1 1.365334884701016e1 1.333917714452912e1 1.304032900154624e1
      1.275596567130757e1 1.248527032445814e1 1.222744858604151e1 1.198172902544125e1
      1.174736359862828e1 1.152362804194160e1 1.130982221650292e1 1.110527040226617e1
      1.090932154066465e1 1.072134942486414e1 1.054075283677070e1 1.036695563018863e1
      1.019940675985910e1 1.003758025651721e1 9.880975148553373e0 9.729115331317040e0
      9.581549385529582e0 9.437850346647300e0 9.297615427319840e0 9.160465695316846e0
      9.026045709442633e0 8.894023116039937e0 8.764088208704393e0 8.635953453810385e0
      8.509352984399271e0 8.384042064912029e0 8.259796529175357e0 8.136412193974564e0
      8.013704250477057e0 7.891506635708648e0 7.769671386228867e0 7.648067976107006e0
      7.526582641259621e0 7.405117692176322e0 7.283590817031111e0 7.161934377146393e0
      7.040094696750512e0 6.918031348939580e0 6.795716439723368e0 6.673133892001602e0
      6.550278731277386e0 6.427156374873132e0 6.303781926365731e0 6.180179476905175e0
      6.056381415023364e0 5.932427746475936e0 5.808365425593008e0 5.684247699541742e0
      5.560133466826978e0 5.436086651276635e0 5.312175592673960e0 5.188472455113633e0
      5.065052654069603e0 4.941994303072634e0 4.819377680805064e0 4.697284719327599e0
      4.575798514062233e0 4.455002856063428e0 4.334981787019180e0 4.215819177334918e0
      4.097598327564762e0 3.980401593369852e0 3.864310034099698e0 3.749403085011902e0
      3.635758253068258e0 3.523450836169851e0 3.412553665623224e0 3.303136871561330e0
      3.195267670978809e0 3.089010177981196e0 2.984425235790324e0 2.881570269996363e0
      2.780499162497790e0 2.681262145526078e0 2.583905715111671e0 2.488472563310764e0
      2.395001528480402e0 2.303527562860555e0 2.214081716697215e0 2.126691138120033e0
      2.041379087970545e0 1.958164968764033e0 1.877064366958060e0 1.798089107694179e0
      1.721247321176530e0 1.646543519850711e0 1.573978685549689e0 1.503550365779301e0
      1.435252778324502e0 1.369076923369013e0 1.305010702334269e0 1.243039042659825e0
      1.183144027765063e0 1.125305031452000e0 1.069498856030746e0 1.015699873472171e0
      9.638801689172215e-1 9.140096858826110e-1 8.660563726237442e-1 8.199863289078577e-1
      7.757639527891463e-1 7.333520868051734e-1 6.927121630481238e-1 6.538043467047120e-1
      6.165876775918948e-1 5.810202092866613e-1 5.470591454721990e-1 5.146609731532889e-1
      4.837815924240699e-1 4.543764425011144e-1 4.264006237637174e-1 3.998090155716298e-1
      3.745563896575807e-1 3.505975189180238e-1 3.278872814503373e-1 3.063807597080246e-1
      2.860333346674353e-1 2.668007749198862e-1 2.486393206219538e-1 2.315057622541708e-1
      2.153575141543652e-1 2.001526828067625e-1 1.858501298816710e-1 1.724095300334983e-1
      1.597914234770129e-1 1.479572633734822e-1 1.368694580697156e-1 1.264914082442093e-1
      1.167875390257303e-1 1.077233271608054e-1 9.926532331787696e-2 9.138116962759522e-2
      8.403961257119775e-2 7.721051134295271e-2 7.086484182921270e-2 6.497469636727038e-2
      5.951327947375438e-2 5.445489976665872e-2 4.977495834884692e-2 4.544993397425166e-2
      4.145736537897566e-2 3.777583122247588e-2 3.438492813894688e-2 3.126524743169701e-2
      2.839835093712459e-2 2.576674652509786e-2 2.335386358203260e-2 2.114402864837642e-2
      1.912244117728148e-2 1.727514918455269e-2 1.558902441606662e-2 1.405173660463287e-2
      1.265172643959800e-2 1.137817701741379e-2 1.022098374322246e-2 9.170722863086224e-3
      8.218618978449401e-3 7.356511997440790e-3 6.576824008600026e-3 5.872526524561241e-3
      5.237108466583191e-3 4.664545163496918e-3 4.149268543419588e-3 3.686138615361735e-3
      3.270416276243907e-3 2.897737436959376e-3 2.564088435946207e-3 2.265782696026389e-3
      1.999438575873317e-3 1.761958367952498e-3 1.550508397654070e-3 1.362500181974806e-3
      1.195572609573681e-3 1.047575106866581e-3 9.165517568967571e-4 8.007263390526385e-4
      6.984882584238462e-4 6.083793338402309e-4 5.290814135773760e-4 4.594047874657375e-4
      3.982773638168651e-4 3.447345792608244e-4 2.979100093331320e-4 2.570266474974948e-4
      2.213888202664534e-4 1.903747061980666e-4 1.634294268061028e-4 1.400586778202521e-4
      1.198228697637900e-4 1.023317474677528e-4 8.723945890040836e-5 7.424004454497195e-5
      6.306331949325562e-5 5.347112142471481e-5 4.525389869599694e-5 3.822761386329154e-5
      3.223093908696919e-5 2.712272101452352e-5 2.277969389400201e-5 1.909442082708251e-5
      1.597344422083163e-5 1.333562763291638e-5 1.111067232041198e-5 9.237792891953333e-6
      7.664537522143590e-6 6.345739211922664e-6 5.242585565739470e-6 4.321795503221066e-6
      3.554892227546360e-6 2.917562633403515e-6 2.389094153242520e-6 1.951880810992182e-6
      1.590990977372589e-6 1.293790000660164e-6 1.049611521847678e-6 8.494718744727155e-7
      6.858225181061297e-7 5.523359619578673e-7 4.437211028100219e-7 3.555643312091439e-7
      2.841931533395872e-7 2.265594351367116e-7 1.801397019176407e-7 1.428502230726653e-7
      1.129748791433058e-7 8.910404987164457e-8 7.008297846679696e-8 5.496826127910915e-8
      4.299128512282501e-8 3.352758839576494e-8 2.607125858439352e-8 2.021359930438092e-8
      1.562540621113381e-8 1.204228433061423e-8 9.252520923106362e-9 7.087099122823216e-9
      5.411499423027144e-9 4.118989637103498e-9 3.125150210190672e-9 2.363421548182156e-9
      1.781494154818534e-9 1.338391530287643e-9 1.002120621422206e-9 7.477856922178152e-10
      5.560793096792999e-10 4.120791622075766e-10 3.042920415104155e-10 2.238968720685422e-10
      1.641474687906263e-10 1.199030087836058e-10 8.726024720039049e-11 6.326648866594495e-11
      4.569641582009873e-11 3.287922153026223e-11 2.356521625788043e-11 1.682329301317014e-11
      1.196241901941810e-11 8.471761155945130e-12 5.975204754224049e-12 4.196945194431645e-12
      2.935562851105107e-12 2.044570528845848e-12 1.417878453724918e-12 9.789795865114458e-13
      6.729374275680046e-13 4.604757591930941e-13 3.136379759337404e-13 2.126132794542647e-13
      1.434264529411402e-13 9.626385830217570e-14 6.426600535442860e-14 4.266069222614350e-14
      2.814357674342824e-14 1.843765776791388e-14 1.198149960154048e-14 7.709655161480358e-15
      4.898768362159371e-15 3.060369425845335e-15 1.866132544070989e-15 1.100239027523896e-15
      6.041947689814306e-16 1.417409445682269e-19 7.358831113843478e-20 3.444526265283145e-20
      0.000000000000000e0 0.000000000000000e0 0.000000000000000e0 0.000000000000000e0
      0.000000000000000e0 0.000000000000000e0 0.000000000000000e0 0.000000000000000e0
      0.000000000000000e0 0.000000000000000e0 0.000000000000000e0 0.000000000000000e0
      0.000000000000000e0 0.000000000000000e0 0.000000000000000e0 0.000000000000000e0
      0.000000000000000e0 0.000000000000000e0 0.000000000000000e0 0.000000000000000e0
      0.000000000000000e0 0.000000000000000e0 0.000000000000000e0 0.000000000000000e0
      0.000000000000000e0 0.000000000000000e0 0.000000000000000e0 0.000000000000000e0
      0.000000000000000e0 0.000000000000000e0 0.000000000000000e0 0.000000000000000e0
      0.000000000000000e0 0.000000000000000e0 0.000000000000000e0 0.000000000000000e0
      0.000000000000000e0 0.000000000000000e0 0.000000000000000e0 0.000000000000000e0
      0.000000000000000e0 0.000000000000000e0 0.000000000000000e0 0.000000000000000e0
      0.000000000000000e0 0.000000000000000e0 0.000000000000000e0 0.000000000000000e0
      0.000000000000000e0 0.000000000000000e0 0.000000000000000e0 0.000000000000000e0
      0.000000000000000e0 0.000000000000000e0 0.000000000000000e0 0.000000000000000e0
      0.000000000000000e0 0.000000000000000e0 0.000000000000000e0 0.000000000000000e0
      0.000000000000000e0 0.000000000000000e0 0.000000000000000e0 0.000000000000000e0
      0.000000000000000e0 0.000000000000000e0 0.000000000000000e0 0.000000000000000e0
      0.000000000000000e0 0.000000000000000e0 0.000000000000000e0 0.000000000000000e0
      0.000000000000000e0 0.000000000000000e0 0.000000000000000e0 0.000000000000000e0
      0.000000000000000e0 0.000000000000000e0 0.000000000000000e0 0.000000000000000e0
      0.000000000000000e0 0.000000000000000e0 0.000000000000000e0 0.000000000000000e0
      0.000000000000000e0 0.000000000000000e0 0.000000000000000e0 0.000000000000000e0
      0.000000000000000e0 0.000000000000000e0 0.000000000000000e0 0.000000000000000e0
      0.000000000000000e0 0.000000000000000e0 0.000000000000000e0 0.000000000000000e0
      0.000000000000000e0 0.000000000000000e0 0.000000000000000e0 0.000000000000000e0
      0.000000000000000e0 0.000000000000000e0 0.000000000000000e0 0.000000000000000e0
      0.000000000000000e0 0.000000000000000e0 0.000000000000000e0 0.000000000000000e0
      0.000000000000000e0 0.000000000000000e0 0.000000000000000e0 0.000000000000000e0
      0.000000000000000e0 0.000000000000000e0 0.000000000000000e0 0.000000000000000e0
      0.000000000000000e0 0.000000000000000e0 0.000000000000000e0 0.000000000000000e0
      0.000000000000000e0 0.000000000000000e0 0.000000000000000e0 0.000000000000000e0
      0.000000000000000e0 0.000000000000000e0 0.000000000000000e0 0.000000000000000e0
      0.000000000000000e0 0.000000000000000e0 0.000000000000000e0 0.000000000000000e0
      0.000000000000000e0 0.000000000000000e0 0.000000000000000e0 0.000000000000000e0
      0.000000000000000e0 0.000000000000000e0 0.000000000000000e0 0.000000000000000e0
      0.000000000000000e0 0.000000000000000e0 0.000000000000000e0 0.000000000000000e0
      0.000000000000000e0 0.000000000000000e0 0.000000000000000e0 0.000000000000000e0
      0.000000000000000e0 0.000000000000000e0 0.000000000000000e0 0.000000000000000e0
      0.000000000000000e0 0.000000000000000e0 0.000000000000000e0 0.000000000000000e0
      0.000000000000000e0 0.000000000000000e0 0.000000000000000e0 0.000000000000000e0
      0.000000000000000e0 0.000000000000000e0 0.000000000000000e0 0.000000000000000e0
      0.000000000000000e0 0.000000000000000e0 0.000000000000000e0 0.000000000000000e0
      0.000000000000000e0 0.000000000000000e0 0.000000000000000e0 0.000000000000000e0
      0.000000000000000e0 0.000000000000000e0 0.000000000000000e0 0.000000000000000e0
      0.000000000000000e0 0.000000000000000e0 0.000000000000000e0 0.000000000000000e0
      0.000000000000000e0 0.000000000000000e0 0.000000000000000e0 0.000000000000000e0
      0.000000000000000e0 0.000000000000000e0 0.000000000000000e0 0.000000000000000e0
      0.000000000000000e0 0.000000000000000e0 0.000000000000000e0 0.000000000000000e0
      0.000000000000000e0 0.000000000000000e0 0.000000000000000e0 0.000000000000000e0
      0.000000000000000e0 0.000000000000000e0 0.000000000000000e0 0.000000000000000e0
      0.000000000000000e0 0.000000000000000e0 0.000000000000000e0
      </PP_AE_NLCC>
    <PP_AE_VLOC>
      -3.705757098604986e5 -3.659712724541871e5 -3.614240322879794e5 -3.569332788463484e5
      -3.524983104399318e5 -3.481184340958949e5 -3.437929654496479e5 -3.395212286379145e5
      -3.353025561931283e5 -3.311362889391367e5 -3.270217758882055e5 -3.229583741393001e5
      -3.189454487776281e5 -3.149823727754407e5 -3.110685268940489e5 -3.072032995870730e5
      -3.033860869048811e5 -2.996162924002283e5 -2.958933270350535e5 -2.922166090884430e5
      -2.885855640657387e5 -2.849996246087684e5 -2.814582304071973e5 -2.779608281109772e5
      -2.745068712438842e5 -2.710958201181315e5 -2.677271417500396e5 -2.644003097767618e5
      -2.611148043740350e5 -2.578701121749555e5 -2.546657261897672e5 -2.515011457266410e5
      -2.483758763134424e5 -2.452894296204684e5 -2.422413233841428e5 -2.392310813316665e5
      -2.362582331065960e5 -2.333223141953474e5 -2.304228658546195e5 -2.275594350397105e5
      -2.247315743337313e5 -2.219388418776939e5 -2.191808013014716e5 -2.164570216556136e5
      -2.137670773440099e5 -2.111105480573904e5 -2.084870187076493e5 -2.058960793629906e5
      -2.033373251838711e5 -2.008103563597458e5 -1.983147780465955e5 -1.958502003052327e5
      -1.934162380403724e5 -1.910125109404609e5 -1.886386434182488e5 -1.862942645521080e5
      -1.839790080280715e5 -1.816925120825993e5 -1.794344194460493e5 -1.772043772868545e5
      -1.750020371563918e5 -1.728270549345363e5 -1.706790907758925e5 -1.685578090566933e5
      -1.664628783223552e5 -1.643939712356895e5 -1.623507645257582e5 -1.603329389373565e5
      -1.583401791811337e5 -1.563721738843249e5 -1.544286155421009e5 -1.525092004695179e5
      -1.506136287540677e5 -1.487416042088166e5 -1.468928343261217e5 -1.450670302319310e5
      -1.432639066406401e5 -1.414831818105237e5 -1.397245774997058e5 -1.379878189226870e5
      -1.362726347074090e5 -1.345787568528519e5 -1.329059206871566e5 -1.312538648262709e5
      -1.296223311331093e5 -1.280110646772145e5 -1.264198136949286e5 -1.248483295500505e5
      -1.232963666949897e5 -1.217636826323941e5 -1.202500378772631e5 -1.187551959195304e5
      -1.172789231870997e5 -1.158209890093578e5 -1.143811655811261e5 -1.129592279270681e5
      -1.115549538665360e5 -1.101681239788555e5 -1.087985215690389e5 -1.074459326339259e5
      -1.061101458287488e5 -1.047909524341053e5 -1.034881463233481e5 -1.022015239303766e5
      -1.009308842178282e5 -9.967602864566683e4 -9.843676114016171e4 -9.721288806324942e4
      -9.600421818227552e4 -9.481056264011858e4 -9.363173492567341e4 -9.246755084472051e4
      -9.131782849113277e4 -9.018238821845761e4 -8.906105261184981e4 -8.795364646034347e4
      -8.685999672948416e4 -8.577993253427877e4 -8.471328511250752e4 -8.365988779834771e4
      -8.261957599633138e4 -8.159218715563055e4 -8.057756074465479e4 -7.957553822597159e4
      -7.858596303152922e4 -7.760868053819991e4 -7.664353804361191e4 -7.569038474229569e4
      -7.474907170211764e4 -7.381945184100553e4 -7.290137990397788e4 -7.199471244043133e4
      -7.109930778174081e4 -7.021502601911632e4 -6.934172898174139e4 -6.847928021518884e4
      -6.762754496009141e4 -6.678639013109557e4 -6.595568429605781e4 -6.513529765551098e4
      -6.432510202238419e4 -6.352497080197526e4 -6.273477897216108e4 -6.195440306387424e4
      -6.118372114180355e4 -6.042261278534119e4 -5.967095906977375e4 -5.892864254768963e4
      -5.819554723063774e4 -5.747155857099472e4 -5.675656344407521e4 -5.605045013044838e4
      -5.535310829848722e4 -5.466442898712916e4 -5.398430458884248e4 -5.331262883282687e4
      -5.264929676839275e4 -5.199420474857078e4 -5.134725041391938e4 -5.070833267652295e4
      -5.007735170420339e4 -4.945420890491981e4 -4.883880691136066e4 -4.823104956573061e4
      -4.763084190472856e4 -4.703809014470661e4 -4.645270166701612e4 -4.587458500353896e4
      -4.530364982239155e4 -4.473980691381306e4 -4.418296817622418e4 -4.363304660246209e4
      -4.308995626618802e4 -4.255361230845437e4 -4.202393092445311e4 -4.150082935041721e4
      -4.098422585068572e4 -4.047403970493966e4 -3.997019119558340e4 -3.947260159528958e4
      -3.898119315470245e4 -3.849588909028085e4 -3.801661357231020e4 -3.754329171304558e4
      -3.707584955501561e4 -3.661421405946785e4 -3.615831309494679e4 -3.570807542603823e4
      -3.526343070222326e4 -3.482430944689508e4 -3.439064304650385e4 -3.396236373982763e4
      -3.353940460739480e4 -3.312169956102036e4 -3.270918333348148e4 -3.230179146832131e4
      -3.189946030977358e4 -3.150212699282273e4 -3.110972943337520e4 -3.072220631855832e4
      -3.033949709714602e4 -2.996154197009198e4 -2.958828188118863e4 -2.921965850784024e4
      -2.885561425194732e4 -2.849609223090612e4 -2.814103626872440e4 -2.779039088724522e4
      -2.744410129747077e4 -2.710211339100599e4 -2.676437373160664e4 -2.643082954682703e4
      -2.610142871977282e4 -2.577611978095826e4 -2.545485190026787e4 -2.513757487901216e4
      -2.482423914208046e4 -2.451479573019559e4 -2.420919629227056e4 -2.390739307784927e4
      -2.360933892964049e4 -2.331498727615658e4 -2.302429212443434e4 -2.273720805284720e4
      -2.245369020401162e4 -2.217369427777546e4 -2.189717652429232e4 -2.162409373719236e4
      -2.135440324683108e4 -2.108806291361522e4 -2.082503112142337e4 -2.056526677110565e4
      -2.030872927405694e4 -2.005537854587623e4 -1.980517500010659e4 -1.955807954204505e4
      -1.931405356263779e4 -1.907305893244691e4 -1.883505799568858e4 -1.860001356435537e4
      -1.836788891240221e4 -1.813864777000763e4 -1.791225431790931e4 -1.768867318180416e4
      -1.746786942682282e4 -1.724980855206960e4 -1.703445648523382e4 -1.682177957726638e4
      -1.661174459711859e4 -1.640431872655306e4 -1.619946955501469e4 -1.599716507456668e4
      -1.579737367488931e4 -1.560006413834066e4 -1.540520563507928e4 -1.521276771824684e4
      -1.502272031921158e4 -1.483503374286836e4 -1.464967866299976e4 -1.446662611769495e4
      -1.428584750482347e4 -1.410731457756564e4 -1.393099943999996e4 -1.375687454274441e4
      -1.358491267865141e4 -1.341508697855677e4 -1.324737090708245e4 -1.308173825848932e4
      -1.291816315258231e4 -1.275662003066830e4 -1.259708365156144e4 -1.243952908763969e4
      -1.228393172095050e4 -1.213026723936263e4 -1.197851163276813e4 -1.182864118933303e4
      -1.168063249179058e4 -1.153446241378114e4 -1.139010811624104e4 -1.124754704383361e4
      -1.110675692142436e4 -1.096771575060120e4 -1.083040180623676e4 -1.069479363309424e4
      -1.056087004247590e4 -1.042861010891140e4 -1.029799316688818e4 -1.016899880762409e4
      -1.004160687587744e4 -9.915797466797795e3 -9.791550922816946e3 -9.668847830577091e3
      -9.547669017897373e3 -9.427995550778720e3 -9.309808730445724e3 -9.193090090424828e3
      -9.077821393659605e3 -8.963984629660491e3 -8.851562011691863e3 -8.740535973993065e3
      -8.630889169032731e3 -8.522604464799734e3 -8.415664942126336e3 -8.310053892043909e3
      -8.205754813173549e3 -8.102751409147551e3 -8.001027586062884e3 -7.900567449967534e3
      -7.801355304376685e3 -7.703375647820764e3 -7.606613171423742e3 -7.511052756511031e3
      -7.416679472247527e3 -7.323478573305252e3 -7.231435497559545e3 -7.140535863813921e3
      -7.050765469553356e3 -6.962110288725547e3 -6.874556469549899e3 -6.788090332352908e3
      -6.702698367431354e3 -6.618367232942187e3 -6.535083752817600e3 -6.452834914706604e3
      -6.371607867942839e3 -6.291389921536723e3 -6.212168542192406e3 -6.133931352350507e3
      -6.056666128254257e3 -5.980360798039696e3 -5.905003439850368e3 -5.830582279974523e3
      -5.757085691005996e3 -5.684502190028123e3 -5.612820436819573e3 -5.542029232082982e3
      -5.472117515696004e3 -5.403074364983177e3 -5.334888993009324e3 -5.267550746895594e3
      -5.201049106154886e3 -5.135373681048168e3 -5.070514210962387e3 -5.006460562807146e3
      -4.943202729432028e3 -4.880730828063895e3 -4.819035098762860e3 -4.758105902897863e3
      -4.697933721641405e3 -4.638509154482594e3 -4.579822917759019e3 -4.521865843206750e3
      -4.464628876528272e3 -4.408103075978548e3 -4.352279610968323e3 -4.297149760684928e3
      -4.242704912730393e3 -4.188936561776403e3 -4.135836308235906e3 -4.083395856951280e3
      -4.031607015899032e3 -3.980461694910341e3 -3.929951904407556e3 -3.880069754156689e3
      -3.830807452035250e3 -3.782157302815171e3 -3.734111706961398e3 -3.686663159445011e3
      -3.639804248571358e3 -3.593527654822692e3 -3.547826149715140e3 -3.502692594670008e3
      -3.458119939899228e3 -3.414101223304487e3 -3.370629569390015e3 -3.327698188189276e3
      -3.285300374204672e3 -3.243429505360560e3 -3.202079041969323e3 -3.161242525710320e3
      -3.120913578621580e3 -3.081085902103915e3 -3.041753275937639e3 -3.002909557311393e3
      -2.964548679863098e3 -2.926664652732878e3 -2.889251559627739e3 -2.852303557897951e3
      -2.815814877624886e3 -2.779779820720274e3 -2.744192760036595e3 -2.709048138488606e3
      -2.674340468185887e3 -2.640064329576017e3 -2.606214370598511e3 -2.572785305849406e3
      -2.539771915756081e3 -2.507169045762430e3 -2.474971605524184e3 -2.443174568114218e3
      -2.411772969237867e3 -2.380761906457882e3 -2.350136538429092e3 -2.319892084142589e3
      -2.290023822179363e3 -2.260527089973194e3 -2.231397283082686e3 -2.202629854472457e3
      -2.174220313803193e3 -2.146164226730556e3 -2.118457214212844e3 -2.091094951827254e3
      -2.064073169094646e3 -2.037387648812673e3 -2.011034226397297e3 -1.985008789232342e3
      -1.959307276027340e3 -1.933925676183176e3 -1.908860029165652e3 -1.884106423886911e3
      -1.859660998094482e3 -1.835519937767937e3 -1.811679476523010e3 -1.788135895023071e3
      -1.764885520398009e3 -1.741924725670279e3 -1.719249929187994e3 -1.696857594065074e3
      -1.674744227628391e3 -1.652906380871686e3 -1.631340647916258e3 -1.610043665478319e3
      -1.589012112342952e3 -1.568242708844527e3 -1.547732216353559e3 -1.527477436769898e3
      -1.507475212022124e3 -1.487722423573159e3 -1.468215991931926e3 -1.448952876171030e3
      -1.429930073450332e3 -1.411144618546425e3 -1.392593583387856e3 -1.374274076596003e3
      -1.356183243031610e3 -1.338318263346880e3 -1.320676353542985e3 -1.303254764533018e3
      -1.286050781710236e3 -1.269061724521577e3 -1.252284946046346e3 -1.235717832580026e3
      -1.219357803223097e3 -1.203202309474862e3 -1.187248834832158e3 -1.171494894392938e3
      -1.155938034464550e3 -1.140575832176798e3 -1.125405895099618e3 -1.110425860865302e3
      -1.095633396795259e3 -1.081026199531240e3 -1.066601994670913e3 -1.052358536407777e3
      -1.038293607175358e3 -1.024405017295580e3 -1.010690604631281e3 -9.971482342428500e2
      -9.837757980488467e2 -9.705712144906057e2 -9.575324282007537e2 -9.446574096755796e2
      -9.319441549512076e2 -9.193906852834974e2 -9.069950468316584e2 -8.947553103454899e2
      -8.826695708561777e2 -8.707359473706624e2 -8.589525825694604e2 -8.473176425079190e2
      -8.358293163208414e2 -8.244858159304455e2 -8.132853757575935e2 -8.022262524362615e2
      -7.913067245311826e2 -7.805250922586072e2 -7.698796772101872e2 -7.593688220798818e2
      -7.489908903938515e2 -7.387442662433251e2 -7.286273540203647e2 -7.186385781565041e2
      -7.087763828642057e2 -6.990392318811077e2 -6.894256082170175e2 -6.799340139036030e2
      -6.705629697467508e2 -6.613110150815658e2 -6.521767075299458e2 -6.431586227607110e2
      -6.342553542522811e2 -6.254655130578009e2 -6.167877275727466e2 -6.082206433049340e2
      -5.997629226469381e2 -5.914132446508510e2 -5.831703048053690e2 -5.750328148151985e2
      -5.669995023827176e2 -5.590691109918904e2 -5.512403996944037e2 -5.435121428979988e2
      -5.358831301569823e2 -5.283521659648738e2 -5.209180695492023e2 -5.135796746684029e2
      -5.063358294108042e2 -4.991853959956977e2 -4.921272505764597e2 -4.851602830457158e2
      -4.782833968425311e2 -4.714955087616281e2 -4.647955487645976e2 -4.581824597931027e2
      -4.516551975840802e2 -4.452127304869061e2 -4.388540392825385e2 -4.325781170046214e2
      -4.263839687625597e2 -4.202706115665388e2 -4.142370741545120e2 -4.082823968211400e2
      -4.024056312486946e2 -3.966058403399092e2 -3.908820980528116e2 -3.852334892375167e2
      -3.796591094749831e2 -3.741580649177759e2 -3.687294721328035e2 -3.633724579460555e2
      -3.580861592893586e2 -3.528697230491515e2 -3.477223059172962e2 -3.426430742439427e2
      -3.376312038924484e2 -3.326858800963975e2 -3.278062973186985e2 -3.229916591128100e2
      -3.182411779860975e2 -3.135540752653450e2 -3.089295809644380e2 -3.043669336542449e2
      -2.998653803347110e2 -2.954241763091927e2 -2.910425850610511e2 -2.867198781325274e2
      -2.824553350059221e2 -2.782482429871051e2 -2.740978970913750e2 -2.700035999316917e2
      -2.659646616093062e2 -2.619803996068079e2 -2.580501386836183e2 -2.541732107739365e2
      -2.503489548871804e2 -2.465767170109234e2 -2.428558500163562e2 -2.391857135662931e2
      -2.355656740257322e2 -2.319951043749961e2 -2.284733841254576e2 -2.249998992378684e2
      -2.215740420433062e2 -2.181952111667404e2 -2.148628114532320e2 -2.115762538967708e2
      -2.083349555717500e2 -2.051383395670866e2 -2.019858349229774e2 -1.988768765702940e2
      -1.958109052726030e2 -1.927873675708055e2 -1.898057157303867e2 -1.868654076912461e2
      -1.839659070201040e2 -1.811066828654515e2 -1.782872099150207e2 -1.755069683557454e2
      -1.727654438361733e2 -1.700621274313003e2 -1.673965156097771e2 -1.647681102034430e2
      -1.621764183791431e2 -1.596209526127661e2 -1.571012306654505e2 -1.546167755618891e2
      -1.521671155706746e2 -1.497517841866061e2 -1.473703201148838e2 -1.450222672571119e2
      -1.427071746990246e2 -1.404245966998487e2 -1.381740926832053e2 -1.359552272294580e2
      -1.337675700694062e2 -1.316106960792151e2 -1.294841852764768e2 -1.273876228172929e2
      -1.253205989942551e2 -1.232827092352125e2 -1.212735541027001e2 -1.192927392939026e2
      -1.173398756410288e2 -1.154145791119664e2 -1.135164708110789e2 -1.116451769800223e2
      -1.098003289984339e2 -1.079815633843280e2 -1.061885217942410e2 -1.044208510227033e2
      -1.026782030008649e2 -1.009602347947019e2 -9.926660860212374e1 -9.759699174883240e1
      -9.595105668311609e1 -9.432848096924349e1 -9.272894727936997e1 -9.115214338382426e1
      -8.959776213964460e1 -8.806550147724462e1 -8.655506438508478e1 -8.506615889223392e1
      -8.359849804870608e1 -8.215179990346723e1 -8.072578748000334e1 -7.932018874935713e1
      -7.793473660053491e1 -7.656916880820159e1 -7.522322799758074e1 -7.389666160648435e1
      -7.258922184440936e1 -7.130066564863710e1 -7.003075463728762e1 -6.877925505928016e1
      -6.754593774116984e1 -6.633057803083095e1 -6.513295573796857e1 -6.395285507145449e1
      -6.279006457348472e1 -6.164437705057646e1 -6.051558950142422e1 -5.940350304164896e1
      -5.830792282548881e1 -5.722865796448495e1 -5.616552144323101e1 -5.511833003226840e1
      -5.408690419821168e1 -5.307106801121345e1 -5.207064904987306e1 -5.108547830371575e1
      -5.011539007337298e1 -4.916022186860175e1 -4.821981430429581e1 -4.729401099464003e1
      -4.638265844557718e1 -4.548560594575267e1 -4.460270545611478e1 -4.373381149835383e1
      -4.287878104236376e1 -4.203747339292110e1 -4.120975007577625e1 -4.039547472335455e1
      -3.959451296027570e1 -3.880673228889308e1 -3.803200197506561e1 -3.727019293437269e1
      -3.652117761898405e1 -3.578482990540123e1 -3.506102498328316e1 -3.434963924557101e1
      -3.365055018012738e1 -3.296363626309932e1 -3.228877685421913e1 -3.162585209424714e1
      -3.097474280476179e1 -3.033533039049826e1 -2.970749674442724e1 -2.909112415576770e1
      -2.848609522111262e1 -2.789229275884788e1 -2.730959972703202e1 -2.673789914489688e1
      -2.617707401812435e1 -2.562700726804017e1 -2.508758166486001e1 -2.455867976511169e1
      -2.404018385334531e1 -2.353197588823575e1 -2.303393745316605e1 -2.254594971137271e1
      -2.206789336572011e1 -2.159964862315836e1 -2.114109516390827e1 -2.069211211540318e1
      -2.025257803100643e1 -1.982237087350861e1 -1.940136800339600e1 -1.898944617187262e1
      -1.858648151859948e1 -1.819234957410769e1 -1.780692526682669e1 -1.743008293465658e1
      -1.706169634100379e1 -1.670163869518438e1 -1.634978267709049e1 -1.600600046600379e1
      -1.567016377342687e1 -1.534214387979689e1 -1.502181167493241e1 -1.470903770205758e1
      -1.440369220523727e1 -1.410564518004881e1 -1.381476642730880e1 -1.353092560966482e1
      -1.325399231085732e1 -1.298383609744851e1 -1.272032658281127e1 -1.246333349316656e1
      -1.221272673545191e1 -1.196837646680252e1 -1.173015316542212e1 -1.149792770261873e1
      -1.127157141578117e1 -1.105095618206767e1 -1.083595449258234e1 -1.062643952681295e1
      -1.042228522710545e1 -1.022336637295424e1 -1.002955865488785e1 -9.840738747734466e0
      -9.656784383055749e0 -9.477574420540929e0 -9.302988918159972e0 -9.132909200876691e0
      -8.967217927745100e0 -8.805799157186545e0 -8.648538410267390e0 -8.495322731860593e0
      -8.346040749477336e0 -8.200582729617270e0 -8.058840631549803e0 -7.920708158350906e0
      -7.786080805077647e0 -7.654855903986204e0 -7.526932666683301e0 -7.402212223123606e0
      -7.280597657374297e0 -7.161994040081328e0 -7.046308457580460e0 -6.933450037610468e0
      -6.823329971595790e0 -6.715861533478217e0 -6.610960095089908e0 -6.508543138069951e0
      -6.408530262340588e0 -6.310843191169555e0 -6.215405772856634e0 -6.122143979095142e0
      -6.030985900068421e0 -5.941861736354229e0 -5.854703787718826e0 -5.769446438893950e0
      -5.686026142438900e0 -5.604381398798864e0 -5.524452733679933e0 -5.446182672867678e0
      -5.369515714624497e0 -5.294398299805758e0 -5.220778779840384e0 -5.148607382725923e0
      -5.077836177190092e0 -5.008419035173429e0 -4.940311592787671e0 -4.873471209902926e0
      -4.807856928514454e0 -4.743429430034020e0 -4.680150991644592e0 -4.617985441847990e0
      -4.556898115325536e0 -4.496855807225316e0 -4.437826726985423e0 -4.379780451808707e0
      -4.322687879915160e0 -4.266521183712507e0 -4.211253763031830e0 -4.156860198563813e0
      -4.103316205606425e0 -4.050598588205643e0 -3.998685193762078e0 -3.947554868199814e0
      -3.897187411834317e0 -3.847563536110858e0 -3.798664821382640e0 -3.750473675858752e0
      -3.702973295795167e0 -3.656147626952603e0 -3.609981327320822e0 -3.564459731103917e0
      -3.519568813967503e0 -3.475295159554540e0 -3.431625927275342e0 -3.388548821373630e0
      -3.346052061263056e0 -3.304124353122229e0 -3.262754862731582e0 -3.221933189533012e0
      -3.181649341884915e0 -3.141893713488028e0 -3.102657060983644e0 -3.063930482696000e0
      -3.025705398425417e0 -2.987973530293803e0 -2.950726884675088e0 -2.913957735139337e0
      -2.877658606356651e0 -2.841822258946139e0 -2.806441675234829e0 -2.771510045890341e0
      -2.737020757391924e0 -2.702967380304534e0 -2.669343658319392e0 -2.636143498025307e0
      -2.603360959374973e0 -2.570990246810543e0 -2.539025701013684e0 -2.507461791245584e0
      -2.476293108243388e0 -2.445514357640096e0 -2.415120353875967e0 -2.385106014570739e0
      -2.355466355326399e0 -2.326196484932158e0 -2.297291600943786e0 -2.268746985610758e0
      -2.240558002126491e0 -2.212720091177071e0 -2.185228767766214e0 -2.158079618294735e0
      -2.131268297874065e0 -2.104790527855099e0 -2.078642093554053e0 -2.052818842158768e0
      -2.027316680799778e0 -2.002131574771496e0 -1.977259545890042e0 -1.952696670975110e0
      -1.928439080444373e0 -1.904482957009678e0 -1.880824534465745e0 -1.857460096559723e0
      -1.834385975937298e0 -1.811598553158743e0 -1.789094255769170e0 -1.766869557425158e0
      -1.744920977072226e0 -1.723245078162863e0 -1.701838467914031e0 -1.680697796599223e0
      -1.659819756871365e0 -1.639201083113611e0 -1.618838550815080e0 -1.598728975969386e0
      -1.578869214493800e0 -1.559256161667370e0 -1.539886751586605e0 -1.520757956637252e0
      -1.501866786981203e0 -1.483210290057252e0 -1.464785550094543e0 -1.446589687637792e0
      -1.428619859083438e0 -1.410873256222719e0 -1.393347105795384e0 -1.376038669053115e0
      -1.358945241322787e0 -1.342064151577891e0 -1.325392762017438e0 -1.308928467647124e0
      -1.292668695865724e0 -1.276610906056297e0 -1.260752589182240e0 -1.245091267388577e0
      -1.229624493608672e0 -1.214349851176490e0 -1.199264953444712e0 -1.184367443408527e0
      -1.169654993335205e0 -1.155125304399272e0 -1.140776106322997e0 -1.126605157022140e0
      -1.112610242256525e0 -1.098789175285350e0 -1.085139796526958e0 -1.071659973222810e0
      -1.058347599105672e0 -1.045200594071696e0 -1.032216903856464e0 -1.019394499714840e0
      -1.006731378104557e0 -9.942255603736271e-1 -9.818750924513589e-1 -9.696780445431179e-1
      -9.576325108287433e-1 -9.457366091645426e-1 -9.339884807889527e-1 -9.223862900317156e-1
      -9.109282240266491e-1 -8.996124924279332e-1 -8.884373271298658e-1 -8.774009819901551e-1
      -8.665017325566136e-1 -8.557378757973396e-1 -8.451077298343266e-1 -8.346096336804445e-1
      -8.242419469798568e-1 -8.140030497517483e-1 -8.038913421373969e-1 -7.939052441505230e-1
      -7.840431954308081e-1 -7.743036550006196e-1 -7.646851010247553e-1 -7.551860305732287e-1
      -7.458049593869705e-1 -7.365404216463585e-1 -7.273909697425807e-1 -7.183551740516840e-1
      -7.094316227113330e-1 -7.006189214002227e-1 -6.919156931200749e-1 -6.833205779802833e-1
      -6.748322329851021e-1 -6.664493318234456e-1 -6.581705646612504e-1 -6.499946379363849e-1
      -6.419202741561407e-1 -6.339462116972356e-1 -6.260712046083489e-1 -6.182940224151717e-1
      -6.106134499278923e-1 -6.030282870511741e-1 -5.955373485964993e-1 -5.881394640969246e-1
      -5.808334776241767e-1 -5.736182476080325e-1 -5.664926466580118e-1 -5.594555613872693e-1
      -5.525058922387163e-1 -5.456425533133208e-1 -5.388644722005106e-1 -5.321705898107375e-1
      -5.255598602100711e-1 -5.190312504568814e-1 -5.125837404405354e-1 -5.062163227220743e-1
      -4.999280023768948e-1 -4.937177968393446e-1 -4.875847357492633e-1 -4.815278608004211e-1
      -4.755462255908135e-1 -4.696388954748394e-1 -4.638049474172789e-1 -4.580434698490969e-1
      -4.523535625250396e-1 -4.467343363829685e-1 -4.411849134049704e-1 -4.357044264801604e-1
      -4.302920192692040e-1 -4.249468460705204e-1 -4.196680716881272e-1 -4.144548713011527e-1
      -4.093064303349387e-1 -4.042219443337602e-1 -3.992006188351485e-1 -3.942416692456374e-1
      -3.893443207185349e-1 -3.845078095130981e-1 -3.797313768242248e-1 -3.750142779415941e-1
      -3.703557758077634e-1 -3.657551425213408e-1 -3.612116592231576e-1 -3.567246159839412e-1
      -3.522933116933894e-1 -3.479170539506018e-1 -3.435951589558986e-1 -3.393269514039608e-1
      -3.351117643783153e-1 -3.309489392471106e-1 -3.268378255602785e-1 -3.227777816903588e-1
      -3.187681717009143e-1 -3.148083698925896e-1 -3.108977585456950e-1 -3.070357231242058e-1
      -3.032216641697159e-1 -2.994549842135203e-1 -2.957350947040950e-1 -2.920614144013189e-1
      -2.884333692853438e-1 -2.848503924669114e-1 -2.813119240987712e-1 -2.778174112882004e-1
      -2.743663080106229e-1 -2.709580750243018e-1 -2.675921801316590e-1 -2.642680966837521e-1
      -2.609853056636378e-1 -2.577432941285132e-1 -2.545415555074775e-1 -2.513795895223596e-1
      -2.482569021095402e-1 -2.451730053427570e-1 -2.421274173568858e-1 -2.391196622725679e-1
      -2.361492701219742e-1 -2.332157767752870e-1 -2.303187238682008e-1 -2.274576587303071e-1
      -2.246321343143554e-1 -2.218417091264091e-1 -2.190859471568543e-1 -2.163644178122754e-1
      -2.136766958481777e-1 -2.110223613025342e-1 -2.084009994301735e-1 -2.058122006379690e-1
      -2.032555604208413e-1 -2.007306792985573e-1 -1.982371627533024e-1 -1.957746211680455e-1
      -1.933426697656527e-1 -1.909409285487689e-1 -1.885690222404468e-1 -1.862265802254979e-1
      -1.839132364925927e-1 -1.816286295770648e-1 -1.793724025044344e-1 -1.771442027346328e-1
      -1.749436821069105e-1 -1.727704967854441e-1 -1.706243072056051e-1 -1.685047780209039e-1
      -1.664115780505951e-1 -1.643443802279229e-1 -1.623028615490233e-1 -1.602867030224485e-1
      -1.582955896193261e-1 -1.563292102241371e-1 -1.543872575860994e-1 -1.524694282711634e-1
      -1.505754226145963e-1 -1.487049446741599e-1 -1.468577021838721e-1 -1.450334065083341e-1
      -1.432317725976366e-1 -1.414525189428146e-1 -1.396953675318642e-1 -1.379600438063038e-1
      -1.362462766182691e-1 -1.345537981881521e-1 -1.328823440627537e-1 -1.312316530739656e-1
      -1.296014672979639e-1 -1.279915320149031e-1 -1.264015956691210e-1 -1.248314098298280e-1
      -1.232807291522921e-1 -1.217493113395032e-1 -1.202369171043115e-1 -1.187433101320418e-1
      -1.172682570435654e-1 -1.158115273588355e-1 -1.143728934608764e-1 -1.129521305602134e-1
      -1.115490166597540e-1 -1.101633325200957e-1 -1.087948616252723e-1 -1.074433901489232e-1
      -1.061087069208797e-1 -1.047906033941727e-1 -1.034888736124442e-1 -1.022033141777671e-1
      -1.009337242188648e-1 -9.967990535972248e-2 -9.844166168859342e-2 -9.721879972738435e-2
      -9.601112840142541e-2 -9.481845900961574e-2 -9.364060519493556e-2 -9.247738291533080e-2
      -9.132861041495326e-2 -9.019410819576215e-2 -8.907369898947827e-2 -8.796720772988303e-2
      -8.687446152546661e-2 -8.579528963241101e-2 -8.472952342791185e-2 -8.367699638383236e-2
      -8.263754404067958e-2 -8.161100398191088e-2 -8.059721580855326e-2 -7.959602111414159e-2
      -7.860726345996878e-2 -7.763078835063890e-2 -7.666644320993028e-2 -7.571407735695230e-2
      -7.477354198260239e-2 -7.384469012631561e-2 -7.292737665309883e-2 -7.202145823085642e-2
      -7.112679330799139e-2 -7.024324209128885e-2 -6.937066652407444e-2 -6.850893026463983e-2
      -6.765789866494183e-2 -6.681743874956132e-2 -6.598741919492629e-2 -6.516771030879315e-2
      -6.435818400998023e-2 -6.355871380835687e-2 -6.276917478507725e-2 -6.198944357306245e-2
      -6.121939833772466e-2 -6.045891875792870e-2 -5.970788600719361e-2
      </PP_AE_VLOC>
  </PP_PAW>
  <PP_GIPAW gipaw_data_format="2">
    <PP_GIPAW_CORE_ORBITALS number_of_core_orbitals="3">
      <PP_GIPAW_CORE_ORBITAL.1 index="1" label="1S" n="1.000000000000e0" l="0.000000000000e0">
        6.556767290860854e-3 6.638867001362369e-3 6.721994712731604e-3 6.806163296947972e-3
        6.891384680274161e-3 6.977669692326200e-3 7.065032216514777e-3 7.153485580187342e-3
        7.243043396936342e-3 7.333719449397867e-3 7.425527691231632e-3 7.518482249239167e-3
        7.612597425553496e-3 7.707887699795721e-3 7.804367731077346e-3 7.902052360160427e-3
        8.000956611840444e-3 8.101095697541954e-3 8.202485017500402e-3 8.305140162616553e-3
        8.409076917030065e-3 8.514311260642209e-3 8.620859371487056e-3 8.728737628101458e-3
        8.837962611577083e-3 8.948551108344610e-3 9.060520113369178e-3 9.173886832358688e-3
        9.288668683823618e-3 9.404883301938460e-3 9.522548539283454e-3 9.641682469462758e-3
        9.762303389853567e-3 9.884429824189507e-3 1.000808052551542e-2 1.013327447926387e-2
        1.026003090555317e-2 1.038836926204291e-2 1.051830924751919e-2 1.064987080430738e-2
        1.078307412115326e-2 1.091793963656459e-2 1.105448804174822e-2 1.119274028357312e-2
        1.133271756758023e-2 1.147444136172902e-2 1.161793339922331e-2 1.176321568149276e-2
        1.191031048196165e-2 1.205924034897548e-2 1.221002810899660e-2 1.236269687053116e-2
        1.251727002751091e-2 1.267377126233475e-2 1.283222454961344e-2 1.299265415959867e-2
        1.315508466190435e-2 1.331954092951574e-2 1.348604814212355e-2 1.365463178957865e-2
        1.382531767553559e-2 1.399813192161512e-2 1.417310097157716e-2 1.435025159520694e-2
        1.452961089187537e-2 1.471120629394364e-2 1.489506557173861e-2 1.508121683759539e-2
        1.526968854955846e-2 1.546050951561938e-2 1.565370889812054e-2 1.584931621850657e-2
        1.604736136095041e-2 1.624787457660574e-2 1.645088648833676e-2 1.665642809517620e-2
        1.686453077753968e-2 1.707522630124711e-2 1.728854682168419e-2 1.750452488827986e-2
        1.772319345013562e-2 1.794458586129726e-2 1.816873588453424e-2 1.839567769592362e-2
        1.862544589049418e-2 1.885807548764368e-2 1.909360193530509e-2 1.933206111563198e-2
        1.957348935091870e-2 1.981792340766949e-2 2.006540050150582e-2 2.031595830371647e-2
        2.056963494710160e-2 2.082646903031591e-2 2.108649962325727e-2 2.134976627356812e-2
        2.161630901180995e-2 2.188616835736765e-2 2.215938532423023e-2 2.243600142686839e-2
        2.271605868615702e-2 2.299959963548384e-2 2.328666732722251e-2 2.357730533826047e-2
        2.387155777511581e-2 2.416946928235736e-2 2.447108504881512e-2 2.477645081164683e-2
        2.508561286443983e-2 2.539861806396964e-2 2.571551383654586e-2 2.603634818581728e-2
        2.636116969752722e-2 2.669002754676633e-2 2.702297150729410e-2 2.736005195597830e-2
        2.770131987986606e-2 2.804682688460101e-2 2.839662520090625e-2 2.875076769212519e-2
        2.910930786156402e-2 2.947229985996163e-2 2.983979849303261e-2 3.021185922909054e-2
        3.058853820675396e-2 3.096989224273315e-2 3.135597883969940e-2 3.174685619423727e-2
        3.214258320488062e-2 3.254321948023290e-2 3.294882534717273e-2 3.335946185914522e-2
        3.377519080453852e-2 3.419607471514734e-2 3.462217687470105e-2 3.505356132764508e-2
        3.549029288841127e-2 3.593243714949070e-2 3.638006048915117e-2 3.683323008261603e-2
        3.729201390983444e-2 3.775648076345313e-2 3.822670026098230e-2 3.870274285377709e-2
        3.918467983498707e-2 3.967258335071675e-2 4.016652640866237e-2 4.066658288663199e-2
        4.117282754446033e-2 4.168533603287303e-2 4.220418490384898e-2 4.272945162069620e-2
        4.326121456828803e-2 4.379955306339546e-2 4.434454736511778e-2 4.489627868541261e-2
        4.545482919972679e-2 4.602028205772795e-2 4.659272139413726e-2 4.717223233966406e-2
        4.775890103204247e-2 4.835281462717082e-2 4.895406131035380e-2 4.956273030764833e-2
        5.017891189731288e-2 5.080269742136116e-2 5.143417929722016e-2 5.207345102949301e-2
        5.272060722182693e-2 5.337574358888659e-2 5.403895696843303e-2 5.471034533350859e-2
        5.539000780472771e-2 5.607804466267429e-2 5.677455736040518e-2 5.747964853606056e-2
        5.819342202558079e-2 5.891598287553021e-2 5.964743735602753e-2 6.038789297378346e-2
        6.113745848524482e-2 6.189624390984569e-2 6.266436054336523e-2 6.344192097139222e-2
        6.422903908289599e-2 6.502583008390372e-2 6.583241051128396e-2 6.664889824663568e-2
        6.747541253028339e-2 6.831207397537781e-2 6.915900458210199e-2 7.001632775194882e-2
        7.088416830230098e-2 7.176265248175996e-2 7.265190798420857e-2 7.355206396108944e-2
        7.446325103683174e-2 7.538560132494027e-2 7.631924844596983e-2 7.726432754209256e-2
        7.822097528758247e-2 7.918932990653175e-2 8.016953118911687e-2 8.116172050620365e-2
        8.216604082528780e-2 8.318263672613050e-2 8.421165441655109e-2 8.525324174830534e-2
        8.630754823305253e-2 8.737472505840911e-2 8.845492510408819e-2 8.954830295812243e-2
        9.065501493316908e-2 9.177521908289508e-2 9.290907521844005e-2 9.405674492495558e-2
        9.521839157821827e-2 9.639418036131442e-2 9.758427828139384e-2 9.878885418649066e-2
        1.000080787824084e-1 1.012421246496662e-1 1.024911662605043e-1 1.037553799959452e-1
        1.050349441629072e-1 1.063300390113681e-1 1.076408467515756e-1 1.089675515712993e-1
        1.103103396531236e-1 1.116693991917757e-1 1.130449204114851e-1 1.144370955833719e-1
        1.158461190428582e-1 1.172721872070993e-1 1.187154985924302e-1 1.201762538318224e-1
        1.216546556923462e-1 1.231509090926347e-1 1.246652211203427e-1 1.261978010495965e-1
        1.277488603584288e-1 1.293186127461925e-1 1.309072741509486e-1 1.325150627668217e-1
        1.341421990613156e-1 1.357889057925858e-1 1.374554080266581e-1 1.391419331545894e-1
        1.408487109095636e-1 1.425759733839125e-1 1.443239550460579e-1 1.460928927573635e-1
        1.478830257888921e-1 1.496945958380568e-1 1.515278470451588e-1 1.533830260098036e-1
        1.552603818071862e-1 1.571601660042345e-1 1.590826326756038e-1 1.610280384195099e-1
        1.629966423733929e-1 1.649887062293992e-1 1.670044942496722e-1 1.690442732814397e-1
        1.711083127718869e-1 1.731968847828035e-1 1.753102640049919e-1 1.774487277724246e-1
        1.796125560761381e-1 1.818020315778492e-1 1.840174396232810e-1 1.862590682551845e-1
        1.885272082260407e-1 1.908221530104297e-1 1.931441988170497e-1 1.954936446003731e-1
        1.978707920719205e-1 2.002759457111388e-1 2.027094127758657e-1 2.051715033123615e-1
        2.076625301648940e-1 2.101828089848544e-1 2.127326582393890e-1 2.153123992195239e-1
        2.179223560477662e-1 2.205628556851593e-1 2.232342279377733e-1 2.259368054626063e-1
        2.286709237728791e-1 2.314369212426966e-1 2.342351391110556e-1 2.370659214851750e-1
        2.399296153431238e-1 2.428265705357219e-1 2.457571397876898e-1 2.487216786980205e-1
        2.517205457395457e-1 2.547541022576717e-1 2.578227124682555e-1 2.609267434545922e-1
        2.640665651634864e-1 2.672425504003756e-1 2.704550748234762e-1 2.737045169369210e-1
        2.769912580828552e-1 2.803156824324588e-1 2.836781769758622e-1 2.870791315109196e-1
        2.905189386308066e-1 2.939979937104049e-1 2.975166948914382e-1 3.010754430663217e-1
        3.046746418606864e-1 3.083146976145403e-1 3.119960193620251e-1 3.157190188097289e-1
        3.194841103135114e-1 3.232917108538016e-1 3.271422400093219e-1 3.310361199291957e-1
        3.349737753033932e-1 3.389556333314677e-1 3.429821236895370e-1 3.470536784954607e-1
        3.511707322721644e-1 3.553337219090600e-1 3.595430866215128e-1 3.637992679083009e-1
        3.681027095070153e-1 3.724538573473464e-1 3.768531595022004e-1 3.813010661365909e-1
        3.857980294542469e-1 3.903445036418802e-1 3.949409448110515e-1 3.995878109375746e-1
        4.042855617983980e-1 4.090346589059001e-1 4.138355654395347e-1 4.186887461747608e-1
        4.235946674091918e-1 4.285537968858965e-1 4.335666037137813e-1 4.386335582849878e-1
        4.437551321892323e-1 4.489317981250156e-1 4.541640298076307e-1 4.594523018738950e-1
        4.647970897835285e-1 4.701988697171061e-1 4.756581184705021e-1 4.811753133457498e-1
        4.867509320382380e-1 4.923854525201600e-1 4.980793529201345e-1 5.038331113989161e-1
        5.096472060211084e-1 5.155221146227972e-1 5.214583146750132e-1 5.274562831429412e-1
        5.335164963407822e-1 5.396394297821814e-1 5.458255580261317e-1 5.520753545182572e-1
        5.583892914273877e-1 5.647678394773283e-1 5.712114677737289e-1 5.777206436259589e-1
        5.842958323638896e-1 5.909374971494876e-1 5.976460987831198e-1 6.044220955044715e-1
        6.112659427879770e-1 6.181780931326637e-1 6.251589958463068e-1 6.322090968237926e-1
        6.393288383195896e-1 6.465186587142226e-1 6.537789922746490e-1 6.611102689084287e-1
        6.685129139115901e-1 6.759873477100816e-1 6.835339855947087e-1 6.911532374494484e-1
        6.988455074730395e-1 7.066111938937417e-1 7.144506886771609e-1 7.223643772270335e-1
        7.303526380788711e-1 7.384158425863548e-1 7.465543546003847e-1 7.547685301406729e-1
        7.630587170597884e-1 7.714252546995437e-1 7.798684735396321e-1 7.883886948384102e-1
        7.969862302657323e-1 8.056613815277418e-1 8.144144399835206e-1 8.232456862535102e-1
        8.321553898196095e-1 8.411438086168626e-1 8.502111886166503e-1 8.593577634013013e-1
        8.685837537300426e-1 8.778893670962090e-1 8.872747972756397e-1 8.967402238661851e-1
        9.062858118182612e-1 9.159117109563804e-1 9.256180554916025e-1 9.354049635248467e-1
        9.452725365410128e-1 9.552208588938631e-1 9.652499972816242e-1 9.753600002132677e-1
        9.855508974654404e-1 9.958226995300180e-1 1.006175397052259e0 1.016608960259549e0
        1.027123338380724e0 1.037718459055977e0 1.048394227737351e0 1.059150527079840e0
        1.069987216323113e0 1.080904130663899e0 1.091901080619072e0 1.102977851379485e0
        1.114134202154612e0 1.125369865508074e0 1.136684546684120e0 1.148077922925158e0
        1.159549642780442e0 1.171099325406026e0 1.182726559856113e0 1.194430904365930e0
        1.206211885626303e0 1.218068998050073e0 1.230001703030549e0 1.242009428192196e0
        1.254091566633747e0 1.266247476163999e0 1.278476478530508e0 1.290777858641448e0
        1.303150863780928e0 1.315594702818037e0 1.328108545409950e0 1.340691521199418e0
        1.353342719006998e0 1.366061186018392e0 1.378845926967295e0 1.391695903314162e0
        1.404610032421328e0 1.417587186724953e0 1.430626192904256e0 1.443725831048570e0
        1.456884833822719e0 1.470101885631308e0 1.483375621782469e0 1.496704627651717e0
        1.510087437846504e0 1.523522535372172e0 1.537008350799978e0 1.550543261437911e0
        1.564125590505058e0 1.577753606310289e0 1.591425521436083e0 1.605139491928315e0
        1.618893616492903e0 1.632685935700195e0 1.646514431198045e0 1.660377024934547e0
        1.674271578391430e0 1.688195891829142e0 1.702147703544713e0 1.716124689143484e0
        1.730124460825858e0 1.744144566690244e0 1.758182490053400e0 1.772235648789447e0
        1.786301394688802e0 1.800377012838396e0 1.814459721024492e0 1.828546669159535e0
        1.842634938734434e0 1.856721542297775e0 1.870803422963444e0 1.884877453948214e0
        1.898940438140876e0 1.912989107704530e0 1.927020123713664e0 1.941030075827745e0
        1.955015482003010e0 1.968972788244223e0 1.982898368398194e0 1.996788523990871e0
        2.010639484109864e0 2.024447405334295e0 2.038208371713867e0 2.051918394799128e0
        2.065573413724881e0 2.079169295348751e0 2.092701834446931e0 2.106166753969162e0
        2.119559705355012e0 2.132876268913556e0 2.146111954268559e0 2.159262200871299e0
        2.172322378583169e0 2.185287788330205e0 2.198153662831721e0 2.210915167405203e0
        2.223567400849658e0 2.236105396409571e0 2.248524122821670e0 2.260818485446653e0
        2.272983327488040e0 2.285013431300308e0 2.296903519788445e0 2.308648257901015e0
        2.320242254218869e0 2.331680062641509e0 2.342956184173200e0 2.354065068810765e0
        2.365001117535060e0 2.375758684408013e0 2.386332078777087e0 2.396715567588970e0
        2.406903377814216e0 2.416889698984518e0 2.426668685844191e0 2.436234461117389e0
        2.445581118392479e0 2.454702725124895e0 2.463593325759724e0 2.472246944975133e0
        2.480657591047665e0 2.488819259340286e0 2.496725935913952e0 2.504371601263340e0
        2.511750234177205e0 2.518855815723728e0 2.525682333361015e0 2.532223785172766e0
        2.538474184228972e0 2.544427563071250e0 2.550077978322346e0 2.555419515419014e0
        2.560446293467371e0 2.565152470219551e0 2.569532247170288e0 2.573579874771809e0
        2.577289657765180e0 2.580655960626010e0 2.583673213122139e0 2.586335915980681e0
        2.588638646661521e0 2.590576065234074e0 2.592142920353817e0 2.593334055334826e0
        2.594144414314214e0 2.594569048504079e0 2.594603122526225e0 2.594241920824598e0
        2.593480854150056e0 2.592315466111718e0 2.590741439788823e0 2.588754604396645e0
        2.586350941999671e0 2.583526594264872e0 2.580277869247541e0 2.576601248201786e0
        2.572493392407392e0 2.567951150004414e0 2.562971562826443e0 2.557551873223153e0
        2.551689530862323e0 2.545382199501185e0 2.538627763716538e0 2.531424335582744e0
        2.523770261286324e0 2.515664127665528e0 2.507104768662908e0 2.498091271678582e0
        2.488622983811546e0 2.478699517976080e0 2.468320758880003e0 2.457486868851234e0
        2.446198293498880e0 2.434455767194789e0 2.422260318361344e0 2.409613274551029e0
        2.396516267303175e0 2.382971236763132e0 2.368980436049035e0 2.354546435351250e0
        2.339672125749562e0 2.324360722733190e0 2.308615769408734e0 2.292441139381288e0
        2.275841039294068e0 2.258820011012070e0 2.241382933435530e0 2.223535023929191e0
        2.205281839353686e0 2.186629276685713e0 2.167583573214012e0 2.148151306298600e0
        2.128339392681096e0 2.108155087334444e0 2.087605981840768e0 2.066700002286511e0
        2.045445406664473e0 2.023850781772707e0 2.001925039600601e0 1.979677413192787e0
        1.957117451981712e0 1.934255016579920e0 1.911100273023141e0 1.887663686430909e0
        1.863956014197360e0 1.839988298461628e0 1.815771858088964e0 1.791318280034252e0
        1.766639410102646e0 1.741747343098687e0 1.716654412355770e0 1.691373178638794e0
        1.665916418414279e0 1.640297111484287e0 1.614528427983290e0 1.588623714740753e0
        1.562596481016683e0 1.536460383622860e0 1.510229211448735e0 1.483916869418127e0
        1.457537361910618e0 1.431104775689756e0 1.404633262388619e0 1.378137020611542e0
        1.351630277718649e0 1.325127271366831e0 1.298642230886569e0 1.272189358578260e0
        1.245782811013988e0 1.219436680430654e0 1.193164976297840e0 1.166981607138223e0
        1.140900362669832e0 1.114934896327762e0 1.089098708208448e0 1.063405128462731e0
        1.037867301145670e0 1.012498168512671e0 9.873104557344941e-1 9.623166559898340e-1
        9.375290158849701e-1 9.129595211466127e-1 8.886198825371212e-1 8.645215219505243e-1
        8.406755586622864e-1 8.170927957239645e-1 7.937837065138331e-1 7.707584214741999e-1
        7.480267150837239e-1 7.255979931272119e-1 7.034812803353568e-1 6.816852084724633e-1
        6.602180049516778e-1 6.390874820551900e-1 6.183010268321407e-1 5.978655917403673e-1
        5.777876860904648e-1 5.580733683425728e-1 5.387282392983204e-1 5.197574362228162e-1
        5.011656279246469e-1 4.829570108156257e-1 4.651353059665261e-1 4.477037571701694e-1
        4.306651300189365e-1 4.140217119999336e-1 3.977753136075648e-1 3.819272704700507e-1
        3.664784464833989e-1 3.514292379434190e-1 3.367795786635210e-1 3.225289460632037e-1
        3.086763682093122e-1 2.952204317892951e-1 2.821592909928293e-1 2.694906772753059e-1
        2.572119099737936e-1 2.453199077432330e-1 2.338112007777966e-1 2.226819437795772e-1
        2.119279296340920e-1 2.015446037495109e-1 1.915270790140758e-1 1.818701513238909e-1
        1.725683156311478e-1 1.636157824609379e-1 1.550064948430982e-1 1.467341456040677e-1
        1.387921949625038e-1 1.311738883714312e-1 1.238722745489947e-1 1.168802236394448e-1
        1.101904454458268e-1 1.037955076759659e-1 9.768785414373545e-2 9.185982286827400e-2
        8.630366401476909e-2 8.101155762164430e-2 7.597563106046873e-2 7.118797617664406e-2
        6.664066606089874e-2 6.232577140382699e-2 5.823537638813052e-2 5.436159407584333e-2
        5.069658125062499e-2 4.723255267817938e-2 4.396179475097373e-2 4.087667848667895e-2
        3.796967185310469e-2 3.523335139584127e-2 3.266041314832418e-2 3.024368280758252e-2
        2.797612516250050e-2 2.585085276498748e-2 2.386113383799659e-2 2.200039941783302e-2
        2.026224973163079e-2 1.864045981423010e-2 1.712898437193853e-2 1.572196190378951e-2
        1.441371809390393e-2 1.319876849140005e-2 1.207182049696814e-2 1.102777467771765e-2
        1.006172543420328e-2 9.168961045634225e-3 8.344963121158317e-3 7.585405486784172e-3
        6.886152538955460e-3 6.243257097018880e-3 5.652957787827617e-3 5.111675996500083e-3
        4.616012417909221e-3 4.162743243812203e-3 3.748816020652452e-3 3.371345212981401e-3
        3.027607507163213e-3 2.715036889551880e-3 2.431219532677314e-3 2.173888522156396e-3
        1.940918456068861e-3 1.730319947419709e-3 1.540234059063281e-3 1.368926699103532e-3
        1.214783003325200e-3 1.076301729666340e-3 9.520896881291431e-4 8.408562278581451e-4
        7.414078014075372e-4 6.526426244869201e-4 5.735454477314602e-4 5.031824553015173e-4
        4.406963033911838e-4 3.853013100267883e-4 3.362788058763917e-4 2.929726541797717e-4
        2.547849463544828e-4 2.211718783453544e-4 1.916398113692359e-4 1.657415193698021e-4
        1.430726242436262e-4 1.232682187322911e-4 1.059996757988287e-4 9.097164232207577e-5
        7.791921405053702e-5 6.660528795810007e-5 5.681808743665568e-5 4.836885514368403e-5
        4.108970779364982e-5 3.483164673711400e-5 2.946271780631824e-5 2.486631361499726e-5
        2.093961127654928e-5 1.759213834055878e-5 1.474445963423216e-5 1.232697762323869e-5
        1.027883886628906e-5 8.546939120544527e-6 7.085019650027863e-6 5.852847300774733e-6
        4.815470813328993e-6 3.942546521870907e-6 3.207721026298343e-6 2.588096474310216e-6
        2.063595837050680e-6 1.618823542986170e-6 1.227925845179518e-6 0.000000000000000e0
        0.000000000000000e0 0.000000000000000e0 0.000000000000000e0 0.000000000000000e0
        0.000000000000000e0 0.000000000000000e0 0.000000000000000e0 0.000000000000000e0
        0.000000000000000e0 0.000000000000000e0 0.000000000000000e0 0.000000000000000e0
        0.000000000000000e0 0.000000000000000e0 0.000000000000000e0 0.000000000000000e0
        0.000000000000000e0 0.000000000000000e0 0.000000000000000e0 0.000000000000000e0
        0.000000000000000e0 0.000000000000000e0 0.000000000000000e0 0.000000000000000e0
        0.000000000000000e0 0.000000000000000e0 0.000000000000000e0 0.000000000000000e0
        0.000000000000000e0 0.000000000000000e0 0.000000000000000e0 0.000000000000000e0
        0.000000000000000e0 0.000000000000000e0 0.000000000000000e0 0.000000000000000e0
        0.000000000000000e0 0.000000000000000e0 0.000000000000000e0 0.000000000000000e0
        0.000000000000000e0 0.000000000000000e0 0.000000000000000e0 0.000000000000000e0
        0.000000000000000e0 0.000000000000000e0 0.000000000000000e0 0.000000000000000e0
        0.000000000000000e0 0.000000000000000e0 0.000000000000000e0 0.000000000000000e0
        0.000000000000000e0 0.000000000000000e0 0.000000000000000e0 0.000000000000000e0
        0.000000000000000e0 0.000000000000000e0 0.000000000000000e0 0.000000000000000e0
        0.000000000000000e0 0.000000000000000e0 0.000000000000000e0 0.000000000000000e0
        0.000000000000000e0 0.000000000000000e0 0.000000000000000e0 0.000000000000000e0
        0.000000000000000e0 0.000000000000000e0 0.000000000000000e0 0.000000000000000e0
        0.000000000000000e0 0.000000000000000e0 0.000000000000000e0 0.000000000000000e0
        0.000000000000000e0 0.000000000000000e0 0.000000000000000e0 0.000000000000000e0
        0.000000000000000e0 0.000000000000000e0 0.000000000000000e0 0.000000000000000e0
        0.000000000000000e0 0.000000000000000e0 0.000000000000000e0 0.000000000000000e0
        0.000000000000000e0 0.000000000000000e0 0.000000000000000e0 0.000000000000000e0
        0.000000000000000e0 0.000000000000000e0 0.000000000000000e0 0.000000000000000e0
        0.000000000000000e0 0.000000000000000e0 0.000000000000000e0 0.000000000000000e0
        0.000000000000000e0 0.000000000000000e0 0.000000000000000e0 0.000000000000000e0
        0.000000000000000e0 0.000000000000000e0 0.000000000000000e0 0.000000000000000e0
        0.000000000000000e0 0.000000000000000e0 0.000000000000000e0 0.000000000000000e0
        0.000000000000000e0 0.000000000000000e0 0.000000000000000e0 0.000000000000000e0
        0.000000000000000e0 0.000000000000000e0 0.000000000000000e0 0.000000000000000e0
        0.000000000000000e0 0.000000000000000e0 0.000000000000000e0 0.000000000000000e0
        0.000000000000000e0 0.000000000000000e0 0.000000000000000e0 0.000000000000000e0
        0.000000000000000e0 0.000000000000000e0 0.000000000000000e0 0.000000000000000e0
        0.000000000000000e0 0.000000000000000e0 0.000000000000000e0 0.000000000000000e0
        0.000000000000000e0 0.000000000000000e0 0.000000000000000e0 0.000000000000000e0
        0.000000000000000e0 0.000000000000000e0 0.000000000000000e0 0.000000000000000e0
        0.000000000000000e0 0.000000000000000e0 0.000000000000000e0 0.000000000000000e0
        0.000000000000000e0 0.000000000000000e0 0.000000000000000e0 0.000000000000000e0
        0.000000000000000e0 0.000000000000000e0 0.000000000000000e0 0.000000000000000e0
        0.000000000000000e0 0.000000000000000e0 0.000000000000000e0 0.000000000000000e0
        0.000000000000000e0 0.000000000000000e0 0.000000000000000e0 0.000000000000000e0
        0.000000000000000e0 0.000000000000000e0 0.000000000000000e0 0.000000000000000e0
        0.000000000000000e0 0.000000000000000e0 0.000000000000000e0 0.000000000000000e0
        0.000000000000000e0 0.000000000000000e0 0.000000000000000e0 0.000000000000000e0
        0.000000000000000e0 0.000000000000000e0 0.000000000000000e0 0.000000000000000e0
        0.000000000000000e0 0.000000000000000e0 0.000000000000000e0 0.000000000000000e0
        0.000000000000000e0 0.000000000000000e0 0.000000000000000e0 0.000000000000000e0
        0.000000000000000e0 0.000000000000000e0 0.000000000000000e0 0.000000000000000e0
        0.000000000000000e0 0.000000000000000e0 0.000000000000000e0 0.000000000000000e0
        0.000000000000000e0 0.000000000000000e0 0.000000000000000e0 0.000000000000000e0
        0.000000000000000e0 0.000000000000000e0 0.000000000000000e0 0.000000000000000e0
        0.000000000000000e0 0.000000000000000e0 0.000000000000000e0 0.000000000000000e0
        0.000000000000000e0 0.000000000000000e0 0.000000000000000e0 0.000000000000000e0
        0.000000000000000e0 0.000000000000000e0 0.000000000000000e0 0.000000000000000e0
        0.000000000000000e0 0.000000000000000e0 0.000000000000000e0 0.000000000000000e0
        0.000000000000000e0 0.000000000000000e0 0.000000000000000e0 0.000000000000000e0
        0.000000000000000e0 0.000000000000000e0 0.000000000000000e0 0.000000000000000e0
        0.000000000000000e0 0.000000000000000e0 0.000000000000000e0 0.000000000000000e0
        0.000000000000000e0 0.000000000000000e0 0.000000000000000e0 0.000000000000000e0
        0.000000000000000e0 0.000000000000000e0 0.000000000000000e0 0.000000000000000e0
        0.000000000000000e0 0.000000000000000e0 0.000000000000000e0 0.000000000000000e0
        0.000000000000000e0 0.000000000000000e0 0.000000000000000e0 0.000000000000000e0
        0.000000000000000e0 0.000000000000000e0 0.000000000000000e0 0.000000000000000e0
        0.000000000000000e0 0.000000000000000e0 0.000000000000000e0 0.000000000000000e0
        0.000000000000000e0 0.000000000000000e0 0.000000000000000e0 0.000000000000000e0
        0.000000000000000e0 0.000000000000000e0 0.000000000000000e0 0.000000000000000e0
        0.000000000000000e0 0.000000000000000e0 0.000000000000000e0 0.000000000000000e0
        0.000000000000000e0 0.000000000000000e0 0.000000000000000e0 0.000000000000000e0
        0.000000000000000e0 0.000000000000000e0 0.000000000000000e0 0.000000000000000e0
        0.000000000000000e0 0.000000000000000e0 0.000000000000000e0 0.000000000000000e0
        0.000000000000000e0 0.000000000000000e0 0.000000000000000e0 0.000000000000000e0
        0.000000000000000e0 0.000000000000000e0 0.000000000000000e0 0.000000000000000e0
        0.000000000000000e0 0.000000000000000e0 0.000000000000000e0 0.000000000000000e0
        0.000000000000000e0 0.000000000000000e0 0.000000000000000e0 0.000000000000000e0
        0.000000000000000e0 0.000000000000000e0 0.000000000000000e0 0.000000000000000e0
        0.000000000000000e0 0.000000000000000e0 0.000000000000000e0 0.000000000000000e0
        0.000000000000000e0 0.000000000000000e0 0.000000000000000e0 0.000000000000000e0
        0.000000000000000e0 0.000000000000000e0 0.000000000000000e0 0.000000000000000e0
        0.000000000000000e0 0.000000000000000e0 0.000000000000000e0 0.000000000000000e0
        0.000000000000000e0 0.000000000000000e0 0.000000000000000e0 0.000000000000000e0
        0.000000000000000e0 0.000000000000000e0 0.000000000000000e0 0.000000000000000e0
        0.000000000000000e0 0.000000000000000e0 0.000000000000000e0 0.000000000000000e0
        0.000000000000000e0 0.000000000000000e0 0.000000000000000e0
        </PP_GIPAW_CORE_ORBITAL.1>
      <PP_GIPAW_CORE_ORBITAL.2 index="2" label="2S" n="2.000000000000e0" l="0.000000000000e0">
        1.704703246989536e-3 1.726048467409957e-3 1.747660959237060e-3 1.769544069075066e-3
        1.791700896952179e-3 1.814134256981905e-3 1.836847759055093e-3 1.859844868035974e-3
        1.883129123283087e-3 1.906704108103079e-3 1.930573450265334e-3 1.954740822552632e-3
        1.979209943330396e-3 2.003984577107322e-3 2.029068535055916e-3 2.054465675574052e-3
        2.080179904904427e-3 2.106215177809345e-3 2.132575498137898e-3 2.159264919308052e-3
        2.186287544975669e-3 2.213647529690324e-3 2.241349079511715e-3 2.269396452625766e-3
        2.297793959878053e-3 2.326545965497587e-3 2.355656887927529e-3 2.385131200399236e-3
        2.414973431467713e-3 2.445188165755460e-3 2.475780044665210e-3 2.506753767060533e-3
        2.538114089980483e-3 2.569865829311150e-3 2.602013860553778e-3 2.634563119624528e-3
        2.667518603451817e-3 2.700885370718614e-3 2.734668542794469e-3 2.768873304362674e-3
        2.803504904169205e-3 2.838568655891369e-3 2.874069938901307e-3 2.910014199036205e-3
        2.946406949380674e-3 2.983253771240710e-3 3.020560314878216e-3 3.058332300285990e-3
        3.096575518167446e-3 3.135295830697310e-3 3.174499172352288e-3 3.214191550931874e-3
        3.254379048437435e-3 3.295067821862751e-3 3.336264104167434e-3 3.377974205168260e-3
        3.420204512506465e-3 3.462961492689911e-3 3.506251691959672e-3 3.550081737187996e-3
        3.594458336825346e-3 3.639388281982398e-3 3.684878447514769e-3 3.730935793033128e-3
        3.777567363828571e-3 3.824780291757466e-3 3.872581796534812e-3 3.920979186785000e-3
        3.969979861003725e-3 4.019591308659471e-3 4.069821111338150e-3 4.120676943978142e-3
        4.172166575812660e-3 4.224297871474985e-3 4.277078792227835e-3 4.330517397122064e-3
        4.384621844352031e-3 4.439400392300710e-3 4.494861400621168e-3 4.551013331400251e-3
        4.607864750621814e-3 4.665424329536972e-3 4.723700845646107e-3 4.782703183890169e-3
        4.842440338117690e-3 4.902921412492780e-3 4.964155622577696e-3 5.026152296810539e-3
        5.088920878044005e-3 5.152470924602604e-3 5.216812111557902e-3 5.281954232431051e-3
        5.347907200711628e-3 5.414681050986053e-3 5.482285940337893e-3 5.550732150037639e-3
        5.620030086887252e-3 5.690190284754544e-3 5.761223406075395e-3 5.833140243381091e-3
        5.905951720837344e-3 5.979668895831693e-3 6.054302960655688e-3 6.129865243941108e-3
        6.206367211989257e-3 6.283820470959518e-3 6.362236768483074e-3 6.441627994718784e-3
        6.522006184458863e-3 6.603383518885055e-3 6.685772327217387e-3 6.769185088742509e-3
        6.853634434048540e-3 6.939133146909624e-3 7.025694166708664e-3 7.113330589589800e-3
        7.202055670295524e-3 7.291882824353957e-3 7.382825629762845e-3 7.474897828948718e-3
        7.568113330674374e-3 7.662486211979496e-3 7.758030720140153e-3 7.854761274649194e-3
        7.952692469218015e-3 8.051839073799371e-3 8.152216036631465e-3 8.253838486303666e-3
        8.356721733843859e-3 8.460881274827686e-3 8.566332791509900e-3 8.673092154977905e-3
        8.781175427327421e-3 8.890598863860676e-3 9.001378915301309e-3 9.113532230075092e-3
        9.227075656717801e-3 9.342026245971326e-3 9.458401252787208e-3 9.576218139230846e-3
        9.695494576498543e-3 9.816248446986837e-3 9.938497847453291e-3 1.006226109134838e-2
        1.018755671087867e-2 1.031440345990555e-2 1.044282031618701e-2 1.057282648358889e-2
        1.070444139517953e-2 1.083768471553031e-2 1.097257634340595e-2 1.110913641438004e-2
        1.124738530349220e-2 1.138734362793003e-2 1.152903224973656e-2 1.167247227854328e-2
        1.181768507432931e-2 1.196469225020657e-2 1.211351567523109e-2 1.226417747724060e-2
        1.241670004571851e-2 1.257110603468440e-2 1.272741836561105e-2 1.288566023036816e-2
        1.304585509419290e-2 1.320802669868728e-2 1.337219906484240e-2 1.353839649608987e-2
        1.370664358138015e-2 1.387696519828816e-2 1.404938651614604e-2 1.422393299920322e-2
        1.440063040981375e-2 1.457950481165105e-2 1.476058257294991e-2 1.494389036977613e-2
        1.512945518932333e-2 1.531730433323739e-2 1.550746542096826e-2 1.569996639314917e-2
        1.589483551500337e-2 1.609210137977820e-2 1.629179291220650e-2 1.649393937199543e-2
        1.669857035734254e-2 1.690571580847904e-2 1.711540601124022e-2 1.732767160066293e-2
        1.754254356461013e-2 1.776005324742233e-2 1.798023235359605e-2 1.820311295148026e-2
        1.842872747705095e-2 1.865710873788032e-2 1.888828991677532e-2 1.912230457495084e-2
        1.935918665602229e-2 1.959897049017016e-2 1.984169079879507e-2 2.008738269828418e-2
        2.033608170271338e-2 2.058782372843271e-2 2.084264509827316e-2 2.110058254531985e-2
        2.136167321703226e-2 2.162595467928413e-2 2.189346492044336e-2 2.216424235547319e-2
        2.243832583005558e-2 2.271575462473612e-2 2.299656845909016e-2 2.328080749590969e-2
        2.356851234541036e-2 2.385972406945829e-2 2.415448418581593e-2 2.445283467240648e-2
        2.475481797159633e-2 2.506047699449472e-2 2.536985512527017e-2 2.568299622548279e-2
        2.599994463843188e-2 2.632074519351805e-2 2.664544321061902e-2 2.697408450447838e-2
        2.730671538910637e-2 2.764338268219191e-2 2.798413370952480e-2 2.832901630942732e-2
        2.867807883719414e-2 2.903137016953954e-2 2.938893970905080e-2 2.975083738864685e-2
        3.011711367604080e-2 3.048781957820527e-2 3.086300664583936e-2 3.124272697783586e-2
        3.162703322574734e-2 3.201597859824998e-2 3.240961686560348e-2 3.280800236410564e-2
        3.321119000054021e-2 3.361923525661633e-2 3.403219419339782e-2 3.445012345572097e-2
        3.487308027659878e-2 3.530112248160991e-2 3.573430849327072e-2 3.617269733538810e-2
        3.661634863739144e-2 3.706532263864157e-2 3.751968019271446e-2 3.797948277165774e-2
        3.844479247021752e-2 3.891567201003344e-2 3.939218474379941e-2 3.987439465938756e-2
        4.036236638393301e-2 4.085616518787671e-2 4.135585698896361e-2 4.186150835619359e-2
        4.237318651372201e-2 4.289095934470716e-2 4.341489539510141e-2 4.394506387738307e-2
        4.448153467422557e-2 4.502437834210077e-2 4.557366611481294e-2 4.612946990695988e-2
        4.669186231731765e-2 4.726091663214500e-2 4.783670682840389e-2 4.841930757689197e-2
        4.900879424528318e-2 4.960524290107207e-2 5.020873031441770e-2 5.081933396088281e-2
        5.143713202406341e-2 5.206220339810457e-2 5.269462769009725e-2 5.333448522235154e-2
        5.398185703454107e-2 5.463682488571360e-2 5.529947125616221e-2 5.596987934915202e-2
        5.664813309249635e-2 5.733431713997699e-2 5.802851687260242e-2 5.873081839969796e-2
        5.944130855982176e-2 6.016007492149999e-2 6.088720578377491e-2 6.162279017655893e-2
        6.236691786078794e-2 6.311967932836662e-2 6.388116580189863e-2 6.465146923419413e-2
        6.543068230754717e-2 6.621889843277488e-2 6.701621174801071e-2 6.782271711724322e-2
        6.863851012859228e-2 6.946368709231377e-2 7.029834503852427e-2 7.114258171463630e-2
        7.199649558249504e-2 7.286018581520710e-2 7.373375229365141e-2 7.461729560266229e-2
        7.551091702687475e-2 7.641471854622104e-2 7.732880283106836e-2 7.825327323698632e-2
        7.918823379913310e-2 8.013378922624891e-2 8.109004489424489e-2 8.205710683937539e-2
        8.303508175098161e-2 8.402407696379372e-2 8.502420044977876e-2 8.603556080952123e-2
        8.705826726312271e-2 8.809242964060699e-2 8.913815837181660e-2 9.019556447578626e-2
        9.126475954957877e-2 9.234585575656810e-2 9.343896581415468e-2 9.454420298089683e-2
        9.566168104304273e-2 9.679151430044634e-2 9.793381755185059e-2 9.908870607952103e-2
        1.002562956332123e-1 1.014367024134498e-1 1.026300430541081e-1 1.038364346042688e-1
        1.050559945093366e-1 1.062888405913971e-1 1.075350910287949e-1 1.087948643349121e-1
        1.100682793361276e-1 1.113554551489356e-1 1.126565111562022e-1 1.139715669825390e-1
        1.153007424687707e-1 1.166441576454748e-1 1.180019327055710e-1 1.193741879759349e-1
        1.207610438880154e-1 1.221626209474283e-1 1.235790397025042e-1 1.250104207117630e-1
        1.264568845102924e-1 1.279185515750012e-1 1.293955422887239e-1 1.308879769031470e-1
        1.323959755005324e-1 1.339196579542066e-1 1.354591438877918e-1 1.370145526331452e-1
        1.385860031869816e-1 1.401736141661466e-1 1.417775037615120e-1 1.433977896904612e-1
        1.450345891479352e-1 1.466880187560058e-1 1.483581945119458e-1 1.500452317347613e-1
        1.517492450101555e-1 1.534703481338888e-1 1.552086540535021e-1 1.569642748083679e-1
        1.587373214680360e-1 1.605279040688363e-1 1.623361315487047e-1 1.641621116801948e-1
        1.660059510016391e-1 1.678677547464222e-1 1.697476267703290e-1 1.716456694769291e-1
        1.735619837409602e-1 1.754966688296697e-1 1.774498223220778e-1 1.794215400261202e-1
        1.814119158936315e-1 1.834210419331294e-1 1.854490081203578e-1 1.874959023065486e-1
        1.895618101243606e-1 1.916468148914541e-1 1.937509975116587e-1 1.958744363736925e-1
        1.980172072473906e-1 2.001793831773992e-1 2.023610343742933e-1 2.045622281030749e-1
        2.067830285690079e-1 2.090234968007472e-1 2.112836905307173e-1 2.135636640726988e-1
        2.158634681965773e-1 2.181831500002124e-1 2.205227527783831e-1 2.228823158887660e-1
        2.252618746149021e-1 2.276614600261119e-1 2.300810988343116e-1 2.325208132476913e-1
        2.349806208212112e-1 2.374605343038731e-1 2.399605614827268e-1 2.424807050235690e-1
        2.450209623082951e-1 2.475813252688611e-1 2.501617802178194e-1 2.527623076753869e-1
        2.553828821930078e-1 2.580234721733739e-1 2.606840396868662e-1 2.633645402843807e-1
        2.660649228065056e-1 2.687851291890148e-1 2.715250942646467e-1 2.742847455611364e-1
        2.770640030954714e-1 2.798627791643439e-1 2.826809781307714e-1 2.855184962068619e-1
        2.883752212326993e-1 2.912510324513284e-1 2.941458002798198e-1 2.970593860763974e-1
        2.999916419036128e-1 3.029424102875545e-1 3.059115239730814e-1 3.088988056750720e-1
        3.119040678256852e-1 3.149271123176299e-1 3.179677302434434e-1 3.210257016307845e-1
        3.241007951737464e-1 3.271927679602000e-1 3.303013651951838e-1 3.334263199203560e-1
        3.365673527295317e-1 3.397241714803308e-1 3.428964710019678e-1 3.460839327992158e-1
        3.492862247525874e-1 3.525030008147726e-1 3.557339007033871e-1 3.589785495900817e-1
        3.622365577860745e-1 3.655075204241714e-1 3.687910171373458e-1 3.720866117339537e-1
        3.753938518696705e-1 3.787122687162374e-1 3.820413766271149e-1 3.853806728001482e-1
        3.887296369373545e-1 3.920877309019514e-1 3.954543983727526e-1 3.988290644960662e-1
        4.022111355352359e-1 4.055999985179788e-1 4.089950208816779e-1 4.123955501167993e-1
        4.158009134086112e-1 4.192104172773937e-1 4.226233472173364e-1 4.260389673343314e-1
        4.294565199828807e-1 4.328752254023470e-1 4.362942813527864e-1 4.397128627506168e-1
        4.431301213043833e-1 4.465451851508951e-1 4.499571584920230e-1 4.533651212324547e-1
        4.567681286187220e-1 4.601652108798244e-1 4.635553728697882e-1 4.669375937125145e-1
        4.703108264492809e-1 4.736739976892795e-1 4.770260072635859e-1 4.803657278829693e-1
        4.836920047999694e-1 4.870036554756815e-1 4.902994692517054e-1 4.935782070277320e-1
        4.968386009452549e-1 5.000793540779146e-1 5.032991401289950e-1 5.064966031366135e-1
        5.096703571871605e-1 5.128189861375607e-1 5.159410433469517e-1 5.190350514183849e-1
        5.220995019511793e-1 5.251328553045743e-1 5.281335403733429e-1 5.310999543760531e-1
        5.340304626566736e-1 5.369233985002499e-1 5.397770629633852e-1 5.425897247202883e-1
        5.453596199251644e-1 5.480849520917451e-1 5.507638919907743e-1 5.533945775662838e-1
        5.559751138715137e-1 5.585035730253477e-1 5.609779941901581e-1 5.633963835719689e-1
        5.657567144438646e-1 5.680569271935960e-1 5.702949293963419e-1 5.724685959136163e-1
        5.745757690193156e-1 5.766142585539278e-1 5.785818421079351e-1 5.804762652354608e-1
        5.822952416992281e-1 5.840364537479099e-1 5.856975524269661e-1 5.872761579240789e-1
        5.887698599503085e-1 5.901762181581023e-1 5.914927625973080e-1 5.927169942103442e-1
        5.938463853676977e-1 5.948783804449209e-1 5.958103964423143e-1 5.966398236484810e-1
        5.973640263489477e-1 5.979803435810505e-1 5.984860899362840e-1 5.988785564113137e-1
        5.991550113088516e-1 5.993127011895913e-1 5.993488518763924e-1 5.992606695119016e-1
        5.990453416707862e-1 5.987000385277458e-1 5.982219140824540e-1 5.976081074425713e-1
        5.968557441659446e-1 5.959619376630970e-1 5.949237906610825e-1 5.937383967297560e-1
        5.924028418714836e-1 5.909142061752798e-1 5.892695655363291e-1 5.874659934418084e-1
        5.855005628238859e-1 5.833703479807234e-1 5.810724265662655e-1 5.786038816495415e-1
        5.759618038441503e-1 5.731432935085369e-1 5.701454630176055e-1 5.669654391061403e-1
        5.636003652844356e-1 5.600474043264541e-1 5.563037408307495e-1 5.523665838543001e-1
        5.482331696193086e-1 5.439007642929210e-1 5.393666668397154e-1 5.346282119467020e-1
        5.296827730204585e-1 5.245277652559102e-1 5.191606487761286e-1 5.135789318424038e-1
        5.077801741336964e-1 5.017619900944413e-1 4.955220523495215e-1 4.890580951850826e-1
        4.823679180936932e-1 4.754493893821969e-1 4.683004498404289e-1 4.609191164687977e-1
        4.533034862625512e-1 4.454517400503625e-1 4.373621463846795e-1 4.290330654810935e-1
        4.204629532037782e-1 4.116503650938533e-1 4.025939604373182e-1 3.932925063689956e-1
        3.837448820087097e-1 3.739500826257092e-1 3.639072238271299e-1 3.536155457660676e-1
        3.430744173646127e-1 3.322833405469703e-1 3.212419544775642e-1 3.099500397987925e-1
        2.984075228628734e-1 2.866144799519806e-1 2.745711414806379e-1 2.622778961740983e-1
        2.497352952161917e-1 2.369440563598816e-1 2.239050679935202e-1 2.106193931555397e-1
        1.970882734900634e-1 1.833131331356617e-1 1.692955825392197e-1 1.550374221866259e-1
        1.405406462417378e-1 1.258074460848331e-1 1.108402137415242e-1 9.564154519290266e-2
        8.021424355749744e-2 6.456132213549301e-2 4.868600730557065e-2 3.259174126472515e-2
        1.628218460148765e-2 -2.387813068243952e-4 -1.696705208187973e-2 -3.389829832570533e-2
        -5.102796380358733e-2 -6.835126383558815e-2 -8.586318390273423e-2 -1.035584784726992e-1
        -1.214316700483938e-1 -1.394770484413083e-1 -1.576886702697808e-1 -1.760603586806577e-1
        -1.945857032911516e-1 -2.132580603462105e-1 -2.320705530854955e-1 -2.510160723132868e-1
        -2.700872771644148e-1 -2.892765960598107e-1 -3.085762278465932e-1 -3.279781431198808e-1
        -3.474740857267893e-1 -3.670555744573941e-1 -3.867139049327575e-1 -4.064401517063655e-1
        -4.262251706023031e-1 -4.460596013209619e-1 -4.659338703506379e-1 -4.858381942305503e-1
        -5.057625832169856e-1 -5.256968454087540e-1 -5.456305913902013e-1 -5.655532394489785e-1
        -5.854540214211124e-1 -6.053219892074358e-1 -6.251460219932843e-1 -6.449148341882164e-1
        -6.646169840854369e-1 -6.842408832230657e-1 -7.037748064129925e-1 -7.232069023893181e-1
        -7.425252050185329e-1 -7.617176450083283e-1 -7.807720620513768e-1 -7.996762173441212e-1
        -8.184178064276201e-1 -8.369844723066610e-1 -8.553638188133757e-1 -8.735434241913699e-1
        -8.915108548849814e-1 -9.092536795251384e-1 -9.267594831080954e-1 -9.440158813660615e-1
        -9.610105353295715e-1 -9.777311660806868e-1 -9.941655696940829e-1 -1.010301632360175e0
        -1.026127345680949e0 -1.041630822125407e0 -1.056800310627744e0 -1.071624212307683e0
        -1.086091096288964e0 -1.100189715588927e0 -1.113909023049376e0 -1.127238187276691e0
        -1.140166608557234e0 -1.152683934712664e0 -1.164780076858719e0 -1.176445225030286e0
        -1.187669863635226e0 -1.198444786699338e0 -1.208761112865009e0 -1.218610300106509e0
        -1.227984160125507e0 -1.236874872391126e0 -1.245274997789773e0 -1.253177491851022e0
        -1.260575717516937e0 -1.267463457423446e0 -1.273834925663660e0 -1.279684779004380e0
        -1.285008127528428e0 -1.289800544676897e0 -1.294058076666891e0 -1.297777251261853e0
        -1.300955085873143e0 -1.303589094973102e0 -1.305677296801462e0 -1.307218219348566e0
        -1.308210905600549e0 -1.308654918033253e0 -1.308550342343326e0 -1.307897790406655e0
        -1.306698402455883e0 -1.304953848470497e0 -1.302666328774551e0 -1.299838573838743e0
        -1.296473843285173e0 -1.292575924094636e0 -1.288149128017872e0 -1.283198288193655e0
        -1.277728754978053e0 -1.271746390990566e0 -1.265257565384185e0 -1.258269147347663e0
        -1.250788498849511e0 -1.242823466634340e0 -1.234382373483238e0 -1.225474008750860e0
        -1.216107618192799e0 -1.206292893097677e0 -1.196039958739090e0 -1.185359362163285e0
        -1.174262059328994e0 -1.162759401616400e0 -1.150863121722653e0 -1.138585318961731e0
        -1.125938443986736e0 -1.112935282952970e0 -1.099588941140297e0 -1.085912826053434e0
        -1.071920630018856e0 -1.057626312297077e0 -1.043044080729024e0 -1.028188372935233e0
        -1.013073837086590e0 -9.977153122653831e-1 -9.821278084355033e-1 -9.663264860406532e-1
        -9.503266352378162e-1 -9.341436548479980e-1 -9.177930309165967e-1 -9.012903150361890e-1
        -8.846511023870828e-1 -8.678910095338686e-1 -8.510256520046573e-1 -8.340706216825156e-1
        -8.170414640420564e-1 -7.999536552682990e-1 -7.828225792998127e-1 -7.656635048438025e-1
        -7.484915624172035e-1 -7.313217214749286e-1 -7.141687676941022e-1 -6.970472804912077e-1
        -6.799716108574152e-1 -6.629558596056176e-1 -6.460138561305819e-1 -6.291591377907086e-1
        -6.124049300257334e-1 -5.957641273288044e-1 -5.792492751931660e-1 -5.628725531525509e-1
        -5.466457590296740e-1 -5.305802944981245e-1 -5.146871520486254e-1 -4.989769034300017e-1
        -4.834596896071147e-1 -4.681452122411081e-1 -4.530427266502016e-1 -4.381610361506906e-1
        -4.235084876070706e-1 -4.090929679378129e-1 -3.949219012319161e-1 -3.810022460370683e-1
        -3.673404922940316e-1 -3.539426573308535e-1 -3.408142803184911e-1 -3.279604146556026e-1
        -3.153856179250929e-1 -3.030939393722770e-1 -2.910889052995011e-1 -2.793735033276263e-1
        -2.679501670702392e-1 -2.568207632860097e-1 -2.459865838728932e-1 -2.354483450055659e-1
        -2.252061952113653e-1 -2.152597332501184e-1 -2.056080354539754e-1 -1.962496909403774e-1
        -1.871828421139674e-1 -1.784052273459228e-1 -1.699142227579351e-1 -1.617068805852858e-1
        -1.537799624692140e-1 -1.461299670010583e-1 -1.387531517011867e-1 -1.316455502317121e-1
        -1.248029859707321e-1 -1.182210831480415e-1 -1.118952766299301e-1 -1.058208212254792e-1
        -9.999280113827249e-2 -9.440613995352564e-2 -8.905561135712286e-2 -8.393585063853733e-2
        -7.904136693169917e-2 -7.436655608864290e-2 -6.990571405065696e-2 -6.565305057171682e-2
        -6.160270315188199e-2 -5.774875104860191e-2 -5.408522924770491e-2 -5.060614229077880e-2
        -4.730547787022289e-2 -4.417722011666317e-2 -4.121536251532473e-2 -3.841392039827264e-2
        -3.576694296824362e-2 -3.326852481725893e-2 -3.091281690952792e-2 -2.869403700352186e-2
        -2.660647949270498e-2 -2.464452464842201e-2 -2.280264725199829e-2 -2.107542460632751e-2
        -1.945754392019390e-2 -1.794380906137052e-2 -1.652914667720263e-2 -1.520861168395922e-2
        -1.397739212873630e-2 -1.283081343013173e-2 -1.176434200628377e-2 -1.077358830116903e-2
        -9.854309222279614e-3 -9.002410004931711e-3 -8.213945520484723e-3 -7.485121047655692e-3
        -6.812292527885249e-3 -6.191966327334208e-3 -5.620798529552888e-3 -5.095593784158034e-3
        -4.613303737966584e-3 -4.171025075965336e-3 -3.765997200236918e-3 -3.395599575513426e-3
        -3.057348770389777e-3 -2.748895223401608e-3 -2.468019763160948e-3 -2.212629911553480e-3
        -1.980755998640669e-3 -1.770547117386480e-3 -1.580266945653365e-3 -1.408289462096076e-3
        -1.253094581635398e-3 -1.113263735131202e-3 -9.874754167080834e-4 -8.745007209306838e-4
        -7.731988906935916e-4 -6.825128952963544e-4 -6.014650567316313e-4 -5.291527407375024e-4
        -4.647441276669407e-4 -4.074740767214335e-4 -3.566400955942525e-4 -3.115984260837623e-4
        -2.717602547796044e-4 -2.365880565048967e-4 -2.055920768251611e-4 -1.783269586179856e-4
        -1.543885164436438e-4 -1.334106612725838e-4 -1.150624770156569e-4 -9.904544927096840e-5
        -8.509084575081935e-5 -7.295724698452210e-5 -6.242822510840913e-5 -5.331016785334130e-5
        -4.543024422118871e-5 -3.863450780314373e-5 -3.278613323190874e-5 -2.776378087377198e-5
        -2.346008455190610e-5 -1.978025684511986e-5 -1.664080632273673e-5 -1.396836095203978e-5
        -1.169859184544822e-5 -9.775231495822599e-6 -8.149180675522780e-6 -6.777698243537190e-6
        -5.623668210650629e-6 -4.654938550751599e-6 -3.843726412610380e-6 -3.166084576506766e-6
        -2.601424209815408e-6 -2.132089201105785e-6 -1.742977589724793e-6 -1.421205853676055e-6
        -1.155812069618088e-6 -9.374942119734690e-7 -7.583801107598176e-7 -6.118258374032469e-7
        -4.922395323572839e-7 -3.949279260038340e-7 -3.159630335267955e-7 -2.520667239722546e-7
        -2.005110725551795e-7 -1.590326027008988e-7 -1.257587098053416e-7 -9.914473194766762e-8
        -7.792029365707575e-8 -6.104369732870635e-8 -4.766327317337407e-8 -3.708472268769770e-8
        -2.874360396877746e-8 -2.218220370657821e-8 -1.703015674836068e-8 -1.298811468707776e-8
        -9.814495059844486e-9 -7.312696360953488e-9 -5.335350787955560e-9 -3.696170462052122e-9
        0.000000000000000e0 0.000000000000000e0 0.000000000000000e0 0.000000000000000e0
        0.000000000000000e0 0.000000000000000e0 0.000000000000000e0 0.000000000000000e0
        0.000000000000000e0 0.000000000000000e0 0.000000000000000e0 0.000000000000000e0
        0.000000000000000e0 0.000000000000000e0 0.000000000000000e0 0.000000000000000e0
        0.000000000000000e0 0.000000000000000e0 0.000000000000000e0 0.000000000000000e0
        0.000000000000000e0 0.000000000000000e0 0.000000000000000e0 0.000000000000000e0
        0.000000000000000e0 0.000000000000000e0 0.000000000000000e0 0.000000000000000e0
        0.000000000000000e0 0.000000000000000e0 0.000000000000000e0 0.000000000000000e0
        0.000000000000000e0 0.000000000000000e0 0.000000000000000e0 0.000000000000000e0
        0.000000000000000e0 0.000000000000000e0 0.000000000000000e0 0.000000000000000e0
        0.000000000000000e0 0.000000000000000e0 0.000000000000000e0 0.000000000000000e0
        0.000000000000000e0 0.000000000000000e0 0.000000000000000e0 0.000000000000000e0
        0.000000000000000e0 0.000000000000000e0 0.000000000000000e0 0.000000000000000e0
        0.000000000000000e0 0.000000000000000e0 0.000000000000000e0 0.000000000000000e0
        0.000000000000000e0 0.000000000000000e0 0.000000000000000e0 0.000000000000000e0
        0.000000000000000e0 0.000000000000000e0 0.000000000000000e0 0.000000000000000e0
        0.000000000000000e0 0.000000000000000e0 0.000000000000000e0 0.000000000000000e0
        0.000000000000000e0 0.000000000000000e0 0.000000000000000e0 0.000000000000000e0
        0.000000000000000e0 0.000000000000000e0 0.000000000000000e0 0.000000000000000e0
        0.000000000000000e0 0.000000000000000e0 0.000000000000000e0 0.000000000000000e0
        0.000000000000000e0 0.000000000000000e0 0.000000000000000e0 0.000000000000000e0
        0.000000000000000e0 0.000000000000000e0 0.000000000000000e0 0.000000000000000e0
        0.000000000000000e0 0.000000000000000e0 0.000000000000000e0 0.000000000000000e0
        0.000000000000000e0 0.000000000000000e0 0.000000000000000e0 0.000000000000000e0
        0.000000000000000e0 0.000000000000000e0 0.000000000000000e0 0.000000000000000e0
        0.000000000000000e0 0.000000000000000e0 0.000000000000000e0 0.000000000000000e0
        0.000000000000000e0 0.000000000000000e0 0.000000000000000e0 0.000000000000000e0
        0.000000000000000e0 0.000000000000000e0 0.000000000000000e0 0.000000000000000e0
        0.000000000000000e0 0.000000000000000e0 0.000000000000000e0 0.000000000000000e0
        0.000000000000000e0 0.000000000000000e0 0.000000000000000e0 0.000000000000000e0
        0.000000000000000e0 0.000000000000000e0 0.000000000000000e0 0.000000000000000e0
        0.000000000000000e0 0.000000000000000e0 0.000000000000000e0 0.000000000000000e0
        0.000000000000000e0 0.000000000000000e0 0.000000000000000e0 0.000000000000000e0
        0.000000000000000e0 0.000000000000000e0 0.000000000000000e0 0.000000000000000e0
        0.000000000000000e0 0.000000000000000e0 0.000000000000000e0 0.000000000000000e0
        0.000000000000000e0 0.000000000000000e0 0.000000000000000e0 0.000000000000000e0
        0.000000000000000e0 0.000000000000000e0 0.000000000000000e0 0.000000000000000e0
        0.000000000000000e0 0.000000000000000e0 0.000000000000000e0 0.000000000000000e0
        0.000000000000000e0 0.000000000000000e0 0.000000000000000e0 0.000000000000000e0
        0.000000000000000e0 0.000000000000000e0 0.000000000000000e0 0.000000000000000e0
        0.000000000000000e0 0.000000000000000e0 0.000000000000000e0 0.000000000000000e0
        0.000000000000000e0 0.000000000000000e0 0.000000000000000e0 0.000000000000000e0
        0.000000000000000e0 0.000000000000000e0 0.000000000000000e0 0.000000000000000e0
        0.000000000000000e0 0.000000000000000e0 0.000000000000000e0 0.000000000000000e0
        0.000000000000000e0 0.000000000000000e0 0.000000000000000e0 0.000000000000000e0
        0.000000000000000e0 0.000000000000000e0 0.000000000000000e0 0.000000000000000e0
        0.000000000000000e0 0.000000000000000e0 0.000000000000000e0 0.000000000000000e0
        0.000000000000000e0 0.000000000000000e0 0.000000000000000e0 0.000000000000000e0
        0.000000000000000e0 0.000000000000000e0 0.000000000000000e0 0.000000000000000e0
        0.000000000000000e0 0.000000000000000e0 0.000000000000000e0 0.000000000000000e0
        0.000000000000000e0 0.000000000000000e0 0.000000000000000e0
        </PP_GIPAW_CORE_ORBITAL.2>
      <PP_GIPAW_CORE_ORBITAL.3 index="3" label="2P" n="2.000000000000e0" l="1.000000000000e0">
        6.524634206267070e-7 6.661739748040568e-7 6.801726360076509e-7 6.944654583807054e-7
        7.090724838970464e-7 7.240296653306100e-7 7.393369413151807e-7 7.550034564334950e-7
        7.710370433736196e-7 7.874457218182083e-7 8.042377034410855e-7 8.214213962526140e-7
        8.390054081875999e-7 8.569985518133942e-7 8.754098519205805e-7 8.942485510021815e-7
        9.135241118030923e-7 9.332462170671567e-7 9.534247769269117e-7 9.740699416619409e-7
        9.951921032487549e-7 1.016801898656552e-6 1.038910216080299e-6 1.061528202020569e-6
        1.084667274087819e-6 1.108339121753759e-6 1.132555701458799e-6 1.157329249467122e-6
        1.182672297362129e-6 1.208597674315066e-6 1.235118512488671e-6 1.262248255064404e-6
        1.290000662945291e-6 1.318389824976804e-6 1.347430162229483e-6 1.377136431195801e-6
        1.407523741976920e-6 1.438607566232206e-6 1.470403733500570e-6 1.502928449984759e-6
        1.536198308756183e-6 1.570230292940853e-6 1.605041787074724e-6 1.640650589113012e-6
        1.677074922057089e-6 1.714333432657766e-6 1.752445209502078e-6 1.791429797771432e-6
        1.831307200679920e-6 1.872097898124322e-6 1.913822860826462e-6 1.956503551010946e-6
        2.000161935897013e-6 2.044820508188636e-6 2.090502293851495e-6 2.137230867417113e-6
        2.185030362253072e-6 2.233925476536189e-6 2.283941494594504e-6 2.335104306304864e-6
        2.387440424096593e-6 2.440976989658847e-6 2.495741782947359e-6 2.551763237883554e-6
        2.609070467389608e-6 2.667693291510847e-6 2.727662233434326e-6 2.789008538249342e-6
        2.851764199710312e-6 2.915961977028321e-6 2.981635409036107e-6 3.048818822854399e-6
        3.117547369694671e-6 3.187857046631547e-6 3.259784710452191e-6 3.333368098408143e-6
        3.408645834230020e-6 3.485657463882505e-6 3.564443488576552e-6 3.645045392618153e-6
        3.727505644698804e-6 3.811867712491534e-6 3.898176112852975e-6 3.986476444818540e-6
        4.076815397853779e-6 4.169240770053300e-6 4.263801517401983e-6 4.360547767592578e-6
        4.459530831357503e-6 4.560803262468244e-6 4.664418896186154e-6 4.770432850453851e-6
        4.878901547617003e-6 4.989882777567518e-6 5.103435733184315e-6 5.219621022549962e-6
        5.338500716629218e-6 5.460138380932521e-6 5.584599112873536e-6 5.711949579219188e-6
        5.842258055024960e-6 5.975594460244285e-6 6.112030389580749e-6 6.251639171558200e-6
        6.394495939214472e-6 6.540677613226741e-6 6.690262954342810e-6 6.843332671718261e-6
        6.999969423384339e-6 7.160257860125919e-6 7.324284681453031e-6 7.492138656151953e-6
        7.663910733048175e-6 7.839694077985850e-6 8.019584062404189e-6 8.203678394480956e-6
        8.392077172672456e-6 8.584882908974585e-6 8.782200609991525e-6 8.984137831501117e-6
        9.190804742530776e-6 9.402314189590733e-6 9.618781762711237e-6 9.840325863116060e-6
        1.006706777253369e-5 1.029913172425635e-5 1.053664497596849e-5 1.077973788437876e-5
        1.102854398171361e-5 1.128320005410987e-5 1.154384622194788e-5 1.181062602218356e-5
        1.208368649275735e-5 1.236317825910191e-5 1.264925562354390e-5 1.294207665153169e-5
        1.324180324784667e-5 1.354860127798760e-5 1.386264070216803e-5 1.418409560251352e-5
        1.451314433409881e-5 1.484996966285550e-5 1.519475877975502e-5 1.554770342672767e-5
        1.590900006129889e-5 1.627884991617116e-5 1.665745915920959e-5 1.704503904923640e-5
        1.744180599411654e-5 1.784798171446697e-5 1.826379336403153e-5 1.868947366624035e-5
        1.912526105200276e-5 1.957139980101948e-5 2.002814018664471e-5 2.049573862436628e-5
        2.097445782394598e-5 2.146456694535528e-5 2.196634175857885e-5 2.248006480738868e-5
        2.300602557718523e-5 2.354452066700655e-5 2.409585396580842e-5 2.466033683312090e-5
        2.523828828418969e-5 2.583003517971287e-5 2.643591242028674e-5 2.705626314567680e-5
        2.769143893903320e-5 2.834180003617264e-5 2.900771554005161e-5 2.968956364055914e-5
        3.038773183976031e-5 3.110261718272472e-5 3.183462649407765e-5 3.258417662041512e-5
        3.335169467872683e-5 3.413761831097550e-5 3.494239594498370e-5 3.576648706178371e-5
        3.661036246958927e-5 3.747450458455218e-5 3.835940771847047e-5 3.926557837361923e-5
        4.019353554487889e-5 4.114381102934034e-5 4.211694974357058e-5 4.311351004872784e-5
        4.413406408371289e-5 4.517919810653257e-5 4.624951284409050e-5 4.734562385197316e-5
        4.846816187494500e-5 4.961777319173640e-5 5.079512002823755e-5 5.200088104905253e-5
        5.323575172741737e-5 5.450044471275396e-5 5.579569013244176e-5 5.712223607226487e-5
        5.848084921073568e-5 5.987231516947858e-5 6.129743895125769e-5 6.275704545657002e-5
        6.425197996196246e-5 6.578310862687649e-5 6.735131901017316e-5 6.895752059957985e-5
        7.060264535414928e-5 7.228764826009782e-5 7.401350790030666e-5 7.578122703783540e-5
        7.759183321378470e-5 7.944637935985631e-5 8.134594442596846e-5 8.329163402329119e-5
        8.528458108307568e-5 8.732594653166087e-5 8.941691998204917e-5 9.155872044245225e-5
        9.375259704221840e-5 9.599982977556111e-5 9.830173026351989e-5 1.006596425345936e-4
        1.030749438244978e-4 1.055490453955063e-4 1.080833933758522e-4 1.106794696196681e-4
        1.133387925879643e-4 1.160629182511487e-4 1.188534410136086e-4 1.217119946608839e-4
        1.246402533299758e-4 1.276399325033450e-4 1.307127900271703e-4 1.338606271544472e-4
        1.370852896135246e-4 1.403886687026858e-4 1.437727024114004e-4 1.472393765688831e-4
        1.507907260206129e-4 1.544288358334804e-4 1.581558425302473e-4 1.619739353540153e-4
        1.658853575634226e-4 1.698924077592967e-4 1.739974412435150e-4 1.782028714108355e-4
        1.825111711744859e-4 1.869248744263065e-4 1.914465775322722e-4 1.960789408642279e-4
        2.008246903686968e-4 2.056866191736388e-4 2.106675892340552e-4 2.157705330173572e-4
        2.209984552294370e-4 2.263544345824012e-4 2.318416256049461e-4 2.374632604963805e-4
        2.432226510253201e-4 2.491231904741031e-4 2.551683556300008e-4 2.613617088243171e-4
        2.677069000205017e-4 2.742076689524191e-4 2.808678473139498e-4 2.876913610011173e-4
        2.946822324079683e-4 3.018445827774563e-4 3.091826346086087e-4 3.167007141212848e-4
        3.244032537798602e-4 3.322947948772055e-4 3.403799901803528e-4 3.486636066392776e-4
        3.571505281602541e-4 3.658457584452710e-4 3.747544238990329e-4 3.838817766050984e-4
        3.932331973727459e-4 4.028141988561885e-4 4.126304287477963e-4 4.226876730470183e-4
        4.329918594067356e-4 4.435490605588094e-4 4.543654978206302e-4 4.654475446845106e-4
        4.768017304918027e-4 4.884347441936615e-4 5.003534382004159e-4 5.125648323215522e-4
        5.250761177983531e-4 5.378946614312818e-4 5.510280098042399e-4 5.644838936078801e-4
        5.782702320641872e-4 5.923951374545994e-4 6.068669197539808e-4 6.216940913728064e-4
        6.368853720099661e-4 6.524496936186479e-4 6.683962054878057e-4 6.847342794417731e-4
        7.014735151606257e-4 7.186237456239625e-4 7.361950426808137e-4 7.541977227484481e-4
        7.726423526429023e-4 7.915397555441094e-4 8.109010170985663e-4 8.307374916625266e-4
        8.510608086887792e-4 8.718828792601114e-4 8.932159027726351e-4 9.150723737722043e-4
        9.374650889472138e-4 9.604071542811354e-4 9.839119923682096e-4 1.007993349895773e-3
        1.032665305296768e-3 1.057942276576055e-3 1.083839029314184e-3 1.110370684852404e-3
        1.137552728662697e-3 1.165401018906731e-3 1.193931795187685e-3 1.223161687498972e-3
        1.253107725373946e-3 1.283787347240766e-3 1.315218409986657e-3 1.347419198735877e-3
        1.380408436845778e-3 1.414205296125426e-3 1.448829407281309e-3 1.484300870594751e-3
        1.520640266835728e-3 1.557868668417830e-3 1.596007650799249e-3 1.635079304134672e-3
        1.675106245183114e-3 1.716111629476763e-3 1.758119163755973e-3 1.801153118675680e-3
        1.845238341788534e-3 1.890400270810147e-3 1.936664947171952e-3 1.984059029867211e-3
        2.032609809595834e-3 2.082345223213706e-3 2.133293868492346e-3 2.185485019194758e-3
        2.238948640473452e-3 2.293715404596667e-3 2.349816707008914e-3 2.407284682732050e-3
        2.466152223113153e-3 2.526452992925545e-3 2.588221447829416e-3 2.651492852198545e-3
        2.716303297319700e-3 2.782689719971388e-3 2.850689921388674e-3 2.920342586620878e-3
        2.991687304289030e-3 3.064764586750012e-3 3.139615890674415e-3 3.216283638045167e-3
        3.294811237584084e-3 3.375243106613551e-3 3.457624693360557e-3 3.542002499710451e-3
        3.628424104417737e-3 3.716938186781368e-3 3.807594550791971e-3 3.900444149758555e-3
        3.995539111422207e-3 4.092932763564413e-3 4.192679660117589e-3 4.294835607785503e-3
        4.399457693181245e-3 4.506604310490456e-3 4.616335189667517e-3 4.728711425172433e-3
        4.843795505256127e-3 4.961651341801876e-3 5.082344300730607e-3 5.205941232977752e-3
        5.332510506049347e-3 5.462122036165037e-3 5.594847320995592e-3 5.730759473002532e-3
        5.869933253387355e-3 6.012445106657875e-3 6.158373195819023e-3 6.307797438195459e-3
        6.460799541893213e-3 6.617463042907481e-3 6.777873342883611e-3 6.942117747538158e-3
        7.110285505746806e-3 7.282467849305739e-3 7.458758033372965e-3 7.639251377595873e-3
        7.824045307931112e-3 8.013239399162737e-3 8.206935418124303e-3 8.405237367630336e-3
        8.608251531122491e-3 8.816086518035233e-3 9.028853309885818e-3 9.246665307092895e-3
        9.469638376527797e-3 9.697890899802248e-3 9.931543822295827e-3 1.017072070292620e-2
        1.041554776466467e-2 1.066615394579921e-2 1.092267095194673e-2 1.118523330881567e-2
        1.145397841571987e-2 1.172904659984375e-2 1.201058117125855e-2 1.229872847868868e-2
        1.259363796602668e-2 1.289546222959459e-2 1.320435707614897e-2 1.352048158162596e-2
        1.384399815062218e-2 1.417507257660634e-2 1.451387410285591e-2 1.486057548411198e-2
        1.521535304894488e-2 1.557838676282213e-2 1.594986029186912e-2 1.632996106731243e-2
        1.671888035059403e-2 1.711681329914408e-2 1.752395903279853e-2 1.794052070084684e-2
        1.836670554969375e-2 1.880272499111779e-2 1.924879467110802e-2 1.970513453925895e-2
        2.017196891870242e-2 2.064952657655342e-2 2.113804079484576e-2 2.163774944193142e-2
        2.214889504431617e-2 2.267172485890225e-2 2.320649094560701e-2 2.375345024032478e-2
        2.431286462819738e-2 2.488500101715641e-2 2.547013141169910e-2 2.606853298685675e-2
        2.668048816231299e-2 2.730628467662708e-2 2.794621566151469e-2 2.860057971613676e-2
        2.926968098134427e-2 2.995382921382452e-2 3.065333986009171e-2 3.136853413026215e-2
        3.209973907155180e-2 3.284728764143055e-2 3.361151878036555e-2 3.439277748408223e-2
        3.519141487526896e-2 3.600778827464832e-2 3.684226127133417e-2 3.769520379239132e-2
        3.856699217151016e-2 3.945800921670623e-2 4.036864427695029e-2 4.129929330763138e-2
        4.225035893475127e-2 4.322225051774532e-2 4.421538421082047e-2 4.523018302269723e-2
        4.626707687463866e-2 4.732650265664498e-2 4.840890428168821e-2 4.951473273785703e-2
        5.064444613827761e-2 5.179850976867152e-2 5.297739613240755e-2 5.418158499289928e-2
        5.541156341319562e-2 5.666782579260698e-2 5.795087390020419e-2 5.926121690502322e-2
        6.059937140280257e-2 6.196586143907632e-2 6.336121852843948e-2 6.478598166979798e-2
        6.624069735740945e-2 6.772591958751645e-2 6.924220986036751e-2 7.079013717741651e-2
        7.237027803348504e-2 7.398321640366690e-2 7.562954372474834e-2 7.730985887091196e-2
        7.902476812348624e-2 8.077488513449781e-2 8.256083088377665e-2 8.438323362935984e-2
        8.624272885093321e-2 8.813995918604451e-2 9.007557435881630e-2 9.205023110088106e-2
        9.406459306425557e-2 9.611933072586538e-2 9.821512128342604e-2 1.003526485423808e-1
        1.025326027935903e-1 1.047556806814647e-1 1.070225850622219e-1 1.093340248519533e-1
        1.116907148641710e-1 1.140933756365072e-1 1.165427332462323e-1 1.190395191142532e-1
        1.215844697972483e-1 1.241783267675957e-1 1.268218361807417e-1 1.295157486296590e-1
        1.322608188860373e-1 1.350578056278487e-1 1.379074711529259e-1 1.408105810781907e-1
        1.437679040241688e-1 1.467802112844252e-1 1.498482764795528e-1 1.529728751953507e-1
        1.561547846048227e-1 1.593947830736337e-1 1.626936497486591e-1 1.660521641292663e-1
        1.694711056209685e-1 1.729512530710967e-1 1.764933842861388e-1 1.800982755303977e-1
        1.837667010056305e-1 1.874994323113326e-1 1.912972378853413e-1 1.951608824244409e-1
        1.990911262846589e-1 2.030887248609567e-1 2.071544279460254e-1 2.112889790679148e-1
        2.154931148062300e-1 2.197675640866540e-1 2.241130474535618e-1 2.285302763205149e-1
        2.330199521984400e-1 2.375827659013186e-1 2.422193967292309e-1 2.469305116286265e-1
        2.517167643297118e-1 2.565787944608743e-1 2.615172266400896e-1 2.665326695432846e-1
        2.716257149496628e-1 2.767969367640275e-1 2.820468900161742e-1 2.873761098374560e-1
        2.927851104146669e-1 2.982743839214214e-1 3.038443994272540e-1 3.094956017847000e-1
        3.152284104946668e-1 3.210432185504462e-1 3.269403912607689e-1 3.329202650523495e-1
        3.389831462524202e-1 3.451293098518059e-1 3.513589982491442e-1 3.576724199769119e-1
        3.640697484099753e-1 3.705511204574397e-1 3.771166352386349e-1 3.837663527441349e-1
        3.905002924827718e-1 3.973184321156701e-1 4.042207060783937e-1 4.112070041923663e-1
        4.182771702667913e-1 4.254310006923758e-1 4.326682430282289e-1 4.399885945833832e-1
        4.473917009944653e-1 4.548771548011168e-1 4.624444940208535e-1 4.700932007251291e-1
        4.778226996184597e-1 4.856323566225565e-1 4.935214774675003e-1 5.014893062920965e-1
        5.095350242556416e-1 5.176577481634409e-1 5.258565291085199e-1 5.341303511320850e-1
        5.424781299053974e-1 5.508987114358411e-1 5.593908708000787e-1 5.679533109072948e-1
        5.765846612956409e-1 5.852834769650835e-1 5.940482372499468e-1 6.028773447345010e-1
        6.117691242149828e-1 6.207218217114355e-1 6.297336035327086e-1 6.388025553978487e-1
        6.479266816169399e-1 6.571039043341828e-1 6.663320628356365e-1 6.756089129235743e-1
        6.849321263587812e-1 6.942992903713550e-1 7.037079072396778e-1 7.131553939361992e-1
        7.226390818374274e-1 7.321562164942171e-1 7.417039574570397e-1 7.512793781494399e-1
        7.608794657814569e-1 7.705011212934304e-1 7.801411593194807e-1 7.897963081591164e-1
        7.994632097450348e-1 8.091384195953559e-1 8.188184067393898e-1 8.284995536077096e-1
        8.381781558798508e-1 8.478504222864650e-1 8.575124743672308e-1 8.671603461912333e-1
        8.767899840528088e-1 8.863972461628704e-1 8.959779023632811e-1 9.055276338996926e-1
        9.150420332960483e-1 9.245166043812498e-1 9.339467625247803e-1 9.433278351427388e-1
        9.526550625380960e-1 9.619235991383235e-1 9.711285151892611e-1 9.802647989557379e-1
        9.893273594669454e-1 9.983110298282220e-1 1.007210571101631e0 1.016020676736842e0
        1.024735977513147e0 1.033351046934939e0 1.041860407008384e0 1.050258534317920e0
        1.058539866318235e0 1.066698807760681e0 1.074729737181850e0 1.082627013394927e0
        1.090384981939879e0 1.097997981464599e0 1.105460350024417e0 1.112766431300506e0
        1.119910580748081e0 1.126887171692410e0 1.133690601394717e0 1.140315297111358e0
        1.146755722168662e0 1.153006382073219e0 1.159061830673581e0 1.164916676384977e0
        1.170565588484004e0 1.176003303475708e0 1.181224631531240e0 1.186224462990462e0
        1.190997774920599e0 1.195539637719304e0 1.199845221748292e0 1.203909803982037e0
        1.207728774654817e0 1.211297643888597e0 1.214612048283848e0 1.217667757455281e0
        1.220460680494630e0 1.222986872343021e0 1.225242540055955e0 1.227224048944644e0
        1.228927928578151e0 1.230350878631648e0 1.231489774566929e0 1.232341673132212e0
        1.232903817669156e0 1.233173643215885e0 1.233148781395693e0 1.232827065081952e0
        1.232206532830585e0 1.231285433072266e0 1.230062228057317e0 1.228535597547024e0
        1.226704442245868e0 1.224567886969862e0 1.222125283546937e0 1.219376213445962e0
        1.216320490131711e0 1.212958161143687e0 1.209289509897370e0 1.205315057207072e0
        1.201035562530137e0 1.196452024932809e0 1.191565683778592e0 1.186378019140455e0
        1.180890751938663e0 1.175105843806472e0 1.169025496686299e0 1.162652152159315e0
        1.155988490511750e0 1.149037429541392e0 1.141802123108034e0 1.134285959431730e0
        1.126492559142846e0 1.118425773087940e0 1.110089679895479e0 1.101488583305366e0
        1.092627009266099e0 1.083509702803211e0 1.074141624662411e0 1.064527947730531e0
        1.054674053237030e0 1.044585526738397e0 1.034268153887296e0 1.023727915987807e0
        1.012970985337473e0 1.002003720356278e0 9.908326605019552e-1 9.794645209702992e-1
        9.679061871783919e-1 9.561647090278193e-1 9.442472949441457e-1 9.321613056880484e-1
        9.199142479326781e-1 9.075137675901303e-1 8.949676429338151e-1 8.822837774026800e-1
        8.694701921840249e-1 8.565350185143771e-1 8.434864896997148e-1 8.303329328462766e-1
        8.170827602935564e-1 8.037444607419285e-1 7.903265900687071e-1 7.768377618283929e-1
        7.632866374354876e-1 7.496819160316264e-1 7.360323240430063e-1 7.223466044391774e-1
        7.086335057102687e-1 6.949017705866281e-1 6.811601245326120e-1 6.674172640547632e-1
        6.536818448737050e-1 6.399624700185428e-1 6.262676779120903e-1 6.126059305244889e-1
        5.989856016813181e-1 5.854149656196107e-1 5.719021858906985e-1 5.584553047118655e-1
        5.450822328685882e-1 5.317907402648036e-1 5.185884472090781e-1 5.054828165084658e-1
        4.924811464177063e-1 4.795905644574564e-1 4.668180220694812e-1 4.541702900172766e-1
        4.416539543659045e-1 4.292754127846028e-1 4.170408708118046e-1 4.049563376101958e-1
        3.930276206304066e-1 3.812603185142249e-1 3.696598115284961e-1 3.582312488634125e-1
        3.469795322916889e-1 3.359092960015163e-1 3.250248829014426e-1 3.143303183299798e-1
        3.038292828172493e-1 2.935250862150207e-1 2.834206459670201e-1 2.735184723597852e-1
        2.638206631536570e-1 2.543289090325531e-1 2.450445099638002e-1 2.359684010895514e-1
        2.271011855043175e-1 2.184431704936688e-1 2.099944036692373e-1 2.017547059107529e-1
        1.937236989396553e-1 1.859008264436454e-1 1.782853686982846e-1 1.708764514160066e-1
        1.636730500209643e-1 1.566739907149503e-1 1.498779496356794e-1 1.432834512035648e-1
        1.368888664883648e-1 1.306924121625054e-1 1.246921503788172e-1 1.188859897317461e-1
        1.132716873337946e-1 1.078468519563442e-1 1.026089481364096e-1 9.755530112851057e-2
        9.268310257532564e-2 8.798941677558771e-2 8.347118743809240e-2 7.912524482354194e-2
        7.494831318923396e-2 7.093701846414586e-2 6.708789609314824e-2 6.339739899865384e-2
        5.986190561594871e-2 5.647772796485993e-2 5.324111972546675e-2 5.014828428945174e-2
        4.719538276162861e-2 4.437854188836074e-2 4.169386189118213e-2 3.913742418510122e-2
        3.670529896194241e-2 3.439355261976833e-2 3.219825502001659e-2 3.011548655454639e-2
        2.814134500537547e-2 2.627195218053275e-2 2.450346031018318e-2 2.283205818801182e-2
        2.125397704379277e-2 1.976549613411360e-2 1.836294803937455e-2 1.704272365642418e-2
        1.580127687751924e-2 1.463512894769300e-2 1.354087249406969e-2 1.251517522215779e-2
        1.155478327567759e-2 1.065652425801431e-2 9.817309914922156e-3 9.034138479625009e-3
        8.304096682951362e-3 7.624361432595173e-3 6.992201166996446e-3 6.404976890679127e-3
        5.860142899158101e-3 5.355247202721457e-3 4.887931659507027e-3 4.455931829314508e-3
        4.057076560518531e-3 3.689287323272869e-3 3.350577302917369e-3 3.039050268113946e-3
        2.752899228744313e-3 2.490404898999598e-3 2.249933981380284e-3 2.029937287505042e-3
        1.828947711700835e-3 1.645578073316876e-3 1.478518843575552e-3 1.326535772548910e-3
        1.188467431535683e-3 1.063222685717624e-3 9.497781115027554e-4 8.471753724253038e-4
        7.545185668756504e-4 6.709715602889375e-4 5.957553137357681e-4 5.281452201404893e-4
        4.674684586138910e-4 4.131013766328128e-4 3.644669090349505e-4 3.210320420317308e-4
        2.823053296799648e-4 2.478344694979138e-4 2.172039431673930e-4 1.900327275336923e-4
        1.659720804020065e-4 1.447034049350551e-4 1.259361957837765e-4 1.094060694334995e-4
        9.487288062389165e-5 8.211892610437671e-5 7.094723641972232e-5 6.117995588522872e-5
        5.265681040942217e-5 4.523366235624341e-5 3.878115121006193e-5 3.318341841677541e-5
        2.833691442374584e-5 2.414928563093901e-5 2.053833869548774e-5 1.743107940165422e-5
        1.476282311702729e-5 1.247637370252598e-5 1.052126762674819e-5 8.853079952389043e-6
        7.432788811505310e-6 6.226194964676631e-6 5.203393043708504e-6 4.338291105304894e-6
        3.608175170769228e-6 2.993315490722355e-6 2.476611350267584e-6 2.043271315020383e-6
        1.680525906887358e-6 1.377369790657951e-6 1.124330604060952e-6 9.132618641470145e-7
        7.371557805379353e-7 5.899825392531138e-7 4.665068363601769e-7 3.627125829067286e-7
        2.721666754646910e-7 0.000000000000000e0 0.000000000000000e0 0.000000000000000e0
        0.000000000000000e0 0.000000000000000e0 0.000000000000000e0 0.000000000000000e0
        0.000000000000000e0 0.000000000000000e0 0.000000000000000e0 0.000000000000000e0
        0.000000000000000e0 0.000000000000000e0 0.000000000000000e0 0.000000000000000e0
        0.000000000000000e0 0.000000000000000e0 0.000000000000000e0 0.000000000000000e0
        0.000000000000000e0 0.000000000000000e0 0.000000000000000e0 0.000000000000000e0
        0.000000000000000e0 0.000000000000000e0 0.000000000000000e0 0.000000000000000e0
        0.000000000000000e0 0.000000000000000e0 0.000000000000000e0 0.000000000000000e0
        0.000000000000000e0 0.000000000000000e0 0.000000000000000e0 0.000000000000000e0
        0.000000000000000e0 0.000000000000000e0 0.000000000000000e0 0.000000000000000e0
        0.000000000000000e0 0.000000000000000e0 0.000000000000000e0 0.000000000000000e0
        0.000000000000000e0 0.000000000000000e0 0.000000000000000e0 0.000000000000000e0
        0.000000000000000e0 0.000000000000000e0 0.000000000000000e0 0.000000000000000e0
        0.000000000000000e0 0.000000000000000e0 0.000000000000000e0 0.000000000000000e0
        0.000000000000000e0 0.000000000000000e0 0.000000000000000e0 0.000000000000000e0
        0.000000000000000e0 0.000000000000000e0 0.000000000000000e0 0.000000000000000e0
        0.000000000000000e0 0.000000000000000e0 0.000000000000000e0 0.000000000000000e0
        0.000000000000000e0 0.000000000000000e0 0.000000000000000e0 0.000000000000000e0
        0.000000000000000e0 0.000000000000000e0 0.000000000000000e0 0.000000000000000e0
        0.000000000000000e0 0.000000000000000e0 0.000000000000000e0 0.000000000000000e0
        0.000000000000000e0 0.000000000000000e0 0.000000000000000e0 0.000000000000000e0
        0.000000000000000e0 0.000000000000000e0 0.000000000000000e0 0.000000000000000e0
        0.000000000000000e0 0.000000000000000e0 0.000000000000000e0 0.000000000000000e0
        0.000000000000000e0 0.000000000000000e0 0.000000000000000e0 0.000000000000000e0
        0.000000000000000e0 0.000000000000000e0 0.000000000000000e0 0.000000000000000e0
        0.000000000000000e0 0.000000000000000e0 0.000000000000000e0 0.000000000000000e0
        0.000000000000000e0 0.000000000000000e0 0.000000000000000e0 0.000000000000000e0
        0.000000000000000e0 0.000000000000000e0 0.000000000000000e0 0.000000000000000e0
        0.000000000000000e0 0.000000000000000e0 0.000000000000000e0 0.000000000000000e0
        0.000000000000000e0 0.000000000000000e0 0.000000000000000e0 0.000000000000000e0
        0.000000000000000e0 0.000000000000000e0 0.000000000000000e0 0.000000000000000e0
        0.000000000000000e0 0.000000000000000e0 0.000000000000000e0 0.000000000000000e0
        0.000000000000000e0 0.000000000000000e0 0.000000000000000e0 0.000000000000000e0
        0.000000000000000e0 0.000000000000000e0 0.000000000000000e0 0.000000000000000e0
        0.000000000000000e0 0.000000000000000e0 0.000000000000000e0 0.000000000000000e0
        0.000000000000000e0 0.000000000000000e0 0.000000000000000e0 0.000000000000000e0
        0.000000000000000e0 0.000000000000000e0 0.000000000000000e0 0.000000000000000e0
        0.000000000000000e0 0.000000000000000e0 0.000000000000000e0 0.000000000000000e0
        0.000000000000000e0 0.000000000000000e0 0.000000000000000e0 0.000000000000000e0
        0.000000000000000e0 0.000000000000000e0 0.000000000000000e0 0.000000000000000e0
        0.000000000000000e0 0.000000000000000e0 0.000000000000000e0 0.000000000000000e0
        0.000000000000000e0 0.000000000000000e0 0.000000000000000e0 0.000000000000000e0
        0.000000000000000e0 0.000000000000000e0 0.000000000000000e0 0.000000000000000e0
        0.000000000000000e0 0.000000000000000e0 0.000000000000000e0 0.000000000000000e0
        0.000000000000000e0 0.000000000000000e0 0.000000000000000e0 0.000000000000000e0
        0.000000000000000e0 0.000000000000000e0 0.000000000000000e0 0.000000000000000e0
        0.000000000000000e0 0.000000000000000e0 0.000000000000000e0 0.000000000000000e0
        0.000000000000000e0 0.000000000000000e0 0.000000000000000e0 0.000000000000000e0
        0.000000000000000e0 0.000000000000000e0 0.000000000000000e0 0.000000000000000e0
        0.000000000000000e0 0.000000000000000e0 0.000000000000000e0 0.000000000000000e0
        0.000000000000000e0 0.000000000000000e0 0.000000000000000e0 0.000000000000000e0
        0.000000000000000e0 0.000000000000000e0 0.000000000000000e0
        </PP_GIPAW_CORE_ORBITAL.3>
    </PP_GIPAW_CORE_ORBITALS>
  </PP_GIPAW>
</UPF>
