Begin PSP_UPF
<UPF version="2.0.1">
  <PP_INFO>

 This pseudopotential file has been produced using the code
 ONCVPSP  (Optimized Norm-Conservinng Vanderbilt PSeudopotential)
 scalar-relativistic version 4.0.1 06/04/2019 by D. R. Hamann
 The code is available through a link at URL www.mat-simresearch.com.
 Documentation with the package provides a full discription of the
 input data below.


 While it is not required under the terms of the GNU GPL, it is
 suggested that you cite D. R. Hamann, Phys. Rev. B 88, 085117 (2013)
 in any publication using these pseudopotentials.

    <PP_INPUTFILE>
# ATOM AND REFERENCE CONFIGURATION
# atsym  z   nc   nv     iexc    psfile
  He  2.00    0    1 -116133      upf
#
#   n    l    f        energy (Ha)
    1    0    2.00
#
# PSEUDOPOTENTIAL AND OPTIMIZATION
# lmax
    0
#
#   l,   rc,      ep,       ncon, nbas, qcut
    0   1.99006  -0.57931    5    8   7.17231
#
# LOCAL POTENTIAL
# lloc, lpopt,  rc(5),   dvloc0
    4    5   0.89489      0.00000
#
# VANDERBILT-KLEINMAN-BYLANDER PROJECTORs
# l, nproj, debl
    0    2   1.34022
#
# MODEL CORE CHARGE
# icmod, fcfact, rcfact
    0   0.00000   0.00000
#
# LOG DERIVATIVE ANALYSIS
# epsh1, epsh2, depsh
   -5.00    3.00    0.02
#
# OUTPUT GRID
# rlmax, drl
    6.00    0.01
#
# TEST CONFIGURATIONS
# ncnf
    0
# nvcnf
#   n    l    f
    </PP_INPUTFILE>
  </PP_INFO>
  <!--                               -->
  <!-- END OF HUMAN READABLE SECTION -->
  <!--                               -->
    <PP_HEADER
       generated="Generated using ONCVPSP code by D. R. Hamann"
       author="anonymous"
       date="251029"
       comment=""
       element="He"
       pseudo_type="NC"
       relativistic="scalar"
       is_ultrasoft="F"
       is_paw="F"
       is_coulomb="F"
       has_so="F"
       has_wfc="F"
       has_gipaw="F"
       core_correction="F"
       functional="PBESOL"
       z_valence="    2.00"
       total_psenergy="  -5.52010998443E+00"
       rho_cutoff="   7.31000000000E+00"
       l_max="0"
       l_local="-1"
       mesh_size="   732"
       number_of_wfc="1"
       number_of_proj="2"/>
 <PP_MESH>
   <PP_R type="real"  size=" 732" columns="8">
    0.0000    0.0100    0.0200    0.0300    0.0400    0.0500    0.0600    0.0700
    0.0800    0.0900    0.1000    0.1100    0.1200    0.1300    0.1400    0.1500
    0.1600    0.1700    0.1800    0.1900    0.2000    0.2100    0.2200    0.2300
    0.2400    0.2500    0.2600    0.2700    0.2800    0.2900    0.3000    0.3100
    0.3200    0.3300    0.3400    0.3500    0.3600    0.3700    0.3800    0.3900
    0.4000    0.4100    0.4200    0.4300    0.4400    0.4500    0.4600    0.4700
    0.4800    0.4900    0.5000    0.5100    0.5200    0.5300    0.5400    0.5500
    0.5600    0.5700    0.5800    0.5900    0.6000    0.6100    0.6200    0.6300
    0.6400    0.6500    0.6600    0.6700    0.6800    0.6900    0.7000    0.7100
    0.7200    0.7300    0.7400    0.7500    0.7600    0.7700    0.7800    0.7900
    0.8000    0.8100    0.8200    0.8300    0.8400    0.8500    0.8600    0.8700
    0.8800    0.8900    0.9000    0.9100    0.9200    0.9300    0.9400    0.9500
    0.9600    0.9700    0.9800    0.9900    1.0000    1.0100    1.0200    1.0300
    1.0400    1.0500    1.0600    1.0700    1.0800    1.0900    1.1000    1.1100
    1.1200    1.1300    1.1400    1.1500    1.1600    1.1700    1.1800    1.1900
    1.2000    1.2100    1.2200    1.2300    1.2400    1.2500    1.2600    1.2700
    1.2800    1.2900    1.3000    1.3100    1.3200    1.3300    1.3400    1.3500
    1.3600    1.3700    1.3800    1.3900    1.4000    1.4100    1.4200    1.4300
    1.4400    1.4500    1.4600    1.4700    1.4800    1.4900    1.5000    1.5100
    1.5200    1.5300    1.5400    1.5500    1.5600    1.5700    1.5800    1.5900
    1.6000    1.6100    1.6200    1.6300    1.6400    1.6500    1.6600    1.6700
    1.6800    1.6900    1.7000    1.7100    1.7200    1.7300    1.7400    1.7500
    1.7600    1.7700    1.7800    1.7900    1.8000    1.8100    1.8200    1.8300
    1.8400    1.8500    1.8600    1.8700    1.8800    1.8900    1.9000    1.9100
    1.9200    1.9300    1.9400    1.9500    1.9600    1.9700    1.9800    1.9900
    2.0000    2.0100    2.0200    2.0300    2.0400    2.0500    2.0600    2.0700
    2.0800    2.0900    2.1000    2.1100    2.1200    2.1300    2.1400    2.1500
    2.1600    2.1700    2.1800    2.1900    2.2000    2.2100    2.2200    2.2300
    2.2400    2.2500    2.2600    2.2700    2.2800    2.2900    2.3000    2.3100
    2.3200    2.3300    2.3400    2.3500    2.3600    2.3700    2.3800    2.3900
    2.4000    2.4100    2.4200    2.4300    2.4400    2.4500    2.4600    2.4700
    2.4800    2.4900    2.5000    2.5100    2.5200    2.5300    2.5400    2.5500
    2.5600    2.5700    2.5800    2.5900    2.6000    2.6100    2.6200    2.6300
    2.6400    2.6500    2.6600    2.6700    2.6800    2.6900    2.7000    2.7100
    2.7200    2.7300    2.7400    2.7500    2.7600    2.7700    2.7800    2.7900
    2.8000    2.8100    2.8200    2.8300    2.8400    2.8500    2.8600    2.8700
    2.8800    2.8900    2.9000    2.9100    2.9200    2.9300    2.9400    2.9500
    2.9600    2.9700    2.9800    2.9900    3.0000    3.0100    3.0200    3.0300
    3.0400    3.0500    3.0600    3.0700    3.0800    3.0900    3.1000    3.1100
    3.1200    3.1300    3.1400    3.1500    3.1600    3.1700    3.1800    3.1900
    3.2000    3.2100    3.2200    3.2300    3.2400    3.2500    3.2600    3.2700
    3.2800    3.2900    3.3000    3.3100    3.3200    3.3300    3.3400    3.3500
    3.3600    3.3700    3.3800    3.3900    3.4000    3.4100    3.4200    3.4300
    3.4400    3.4500    3.4600    3.4700    3.4800    3.4900    3.5000    3.5100
    3.5200    3.5300    3.5400    3.5500    3.5600    3.5700    3.5800    3.5900
    3.6000    3.6100    3.6200    3.6300    3.6400    3.6500    3.6600    3.6700
    3.6800    3.6900    3.7000    3.7100    3.7200    3.7300    3.7400    3.7500
    3.7600    3.7700    3.7800    3.7900    3.8000    3.8100    3.8200    3.8300
    3.8400    3.8500    3.8600    3.8700    3.8800    3.8900    3.9000    3.9100
    3.9200    3.9300    3.9400    3.9500    3.9600    3.9700    3.9800    3.9900
    4.0000    4.0100    4.0200    4.0300    4.0400    4.0500    4.0600    4.0700
    4.0800    4.0900    4.1000    4.1100    4.1200    4.1300    4.1400    4.1500
    4.1600    4.1700    4.1800    4.1900    4.2000    4.2100    4.2200    4.2300
    4.2400    4.2500    4.2600    4.2700    4.2800    4.2900    4.3000    4.3100
    4.3200    4.3300    4.3400    4.3500    4.3600    4.3700    4.3800    4.3900
    4.4000    4.4100    4.4200    4.4300    4.4400    4.4500    4.4600    4.4700
    4.4800    4.4900    4.5000    4.5100    4.5200    4.5300    4.5400    4.5500
    4.5600    4.5700    4.5800    4.5900    4.6000    4.6100    4.6200    4.6300
    4.6400    4.6500    4.6600    4.6700    4.6800    4.6900    4.7000    4.7100
    4.7200    4.7300    4.7400    4.7500    4.7600    4.7700    4.7800    4.7900
    4.8000    4.8100    4.8200    4.8300    4.8400    4.8500    4.8600    4.8700
    4.8800    4.8900    4.9000    4.9100    4.9200    4.9300    4.9400    4.9500
    4.9600    4.9700    4.9800    4.9900    5.0000    5.0100    5.0200    5.0300
    5.0400    5.0500    5.0600    5.0700    5.0800    5.0900    5.1000    5.1100
    5.1200    5.1300    5.1400    5.1500    5.1600    5.1700    5.1800    5.1900
    5.2000    5.2100    5.2200    5.2300    5.2400    5.2500    5.2600    5.2700
    5.2800    5.2900    5.3000    5.3100    5.3200    5.3300    5.3400    5.3500
    5.3600    5.3700    5.3800    5.3900    5.4000    5.4100    5.4200    5.4300
    5.4400    5.4500    5.4600    5.4700    5.4800    5.4900    5.5000    5.5100
    5.5200    5.5300    5.5400    5.5500    5.5600    5.5700    5.5800    5.5900
    5.6000    5.6100    5.6200    5.6300    5.6400    5.6500    5.6600    5.6700
    5.6800    5.6900    5.7000    5.7100    5.7200    5.7300    5.7400    5.7500
    5.7600    5.7700    5.7800    5.7900    5.8000    5.8100    5.8200    5.8300
    5.8400    5.8500    5.8600    5.8700    5.8800    5.8900    5.9000    5.9100
    5.9200    5.9300    5.9400    5.9500    5.9600    5.9700    5.9800    5.9900
    6.0000    6.0100    6.0200    6.0300    6.0400    6.0500    6.0600    6.0700
    6.0800    6.0900    6.1000    6.1100    6.1200    6.1300    6.1400    6.1500
    6.1600    6.1700    6.1800    6.1900    6.2000    6.2100    6.2200    6.2300
    6.2400    6.2500    6.2600    6.2700    6.2800    6.2900    6.3000    6.3100
    6.3200    6.3300    6.3400    6.3500    6.3600    6.3700    6.3800    6.3900
    6.4000    6.4100    6.4200    6.4300    6.4400    6.4500    6.4600    6.4700
    6.4800    6.4900    6.5000    6.5100    6.5200    6.5300    6.5400    6.5500
    6.5600    6.5700    6.5800    6.5900    6.6000    6.6100    6.6200    6.6300
    6.6400    6.6500    6.6600    6.6700    6.6800    6.6900    6.7000    6.7100
    6.7200    6.7300    6.7400    6.7500    6.7600    6.7700    6.7800    6.7900
    6.8000    6.8100    6.8200    6.8300    6.8400    6.8500    6.8600    6.8700
    6.8800    6.8900    6.9000    6.9100    6.9200    6.9300    6.9400    6.9500
    6.9600    6.9700    6.9800    6.9900    7.0000    7.0100    7.0200    7.0300
    7.0400    7.0500    7.0600    7.0700    7.0800    7.0900    7.1000    7.1100
    7.1200    7.1300    7.1400    7.1500    7.1600    7.1700    7.1800    7.1900
    7.2000    7.2100    7.2200    7.2300    7.2400    7.2500    7.2600    7.2700
    7.2800    7.2900    7.3000    7.3100
   </PP_R>
   <PP_RAB type="real"  size=" 732" columns="8">
    0.0100    0.0100    0.0100    0.0100    0.0100    0.0100    0.0100    0.0100
    0.0100    0.0100    0.0100    0.0100    0.0100    0.0100    0.0100    0.0100
    0.0100    0.0100    0.0100    0.0100    0.0100    0.0100    0.0100    0.0100
    0.0100    0.0100    0.0100    0.0100    0.0100    0.0100    0.0100    0.0100
    0.0100    0.0100    0.0100    0.0100    0.0100    0.0100    0.0100    0.0100
    0.0100    0.0100    0.0100    0.0100    0.0100    0.0100    0.0100    0.0100
    0.0100    0.0100    0.0100    0.0100    0.0100    0.0100    0.0100    0.0100
    0.0100    0.0100    0.0100    0.0100    0.0100    0.0100    0.0100    0.0100
    0.0100    0.0100    0.0100    0.0100    0.0100    0.0100    0.0100    0.0100
    0.0100    0.0100    0.0100    0.0100    0.0100    0.0100    0.0100    0.0100
    0.0100    0.0100    0.0100    0.0100    0.0100    0.0100    0.0100    0.0100
    0.0100    0.0100    0.0100    0.0100    0.0100    0.0100    0.0100    0.0100
    0.0100    0.0100    0.0100    0.0100    0.0100    0.0100    0.0100    0.0100
    0.0100    0.0100    0.0100    0.0100    0.0100    0.0100    0.0100    0.0100
    0.0100    0.0100    0.0100    0.0100    0.0100    0.0100    0.0100    0.0100
    0.0100    0.0100    0.0100    0.0100    0.0100    0.0100    0.0100    0.0100
    0.0100    0.0100    0.0100    0.0100    0.0100    0.0100    0.0100    0.0100
    0.0100    0.0100    0.0100    0.0100    0.0100    0.0100    0.0100    0.0100
    0.0100    0.0100    0.0100    0.0100    0.0100    0.0100    0.0100    0.0100
    0.0100    0.0100    0.0100    0.0100    0.0100    0.0100    0.0100    0.0100
    0.0100    0.0100    0.0100    0.0100    0.0100    0.0100    0.0100    0.0100
    0.0100    0.0100    0.0100    0.0100    0.0100    0.0100    0.0100    0.0100
    0.0100    0.0100    0.0100    0.0100    0.0100    0.0100    0.0100    0.0100
    0.0100    0.0100    0.0100    0.0100    0.0100    0.0100    0.0100    0.0100
    0.0100    0.0100    0.0100    0.0100    0.0100    0.0100    0.0100    0.0100
    0.0100    0.0100    0.0100    0.0100    0.0100    0.0100    0.0100    0.0100
    0.0100    0.0100    0.0100    0.0100    0.0100    0.0100    0.0100    0.0100
    0.0100    0.0100    0.0100    0.0100    0.0100    0.0100    0.0100    0.0100
    0.0100    0.0100    0.0100    0.0100    0.0100    0.0100    0.0100    0.0100
    0.0100    0.0100    0.0100    0.0100    0.0100    0.0100    0.0100    0.0100
    0.0100    0.0100    0.0100    0.0100    0.0100    0.0100    0.0100    0.0100
    0.0100    0.0100    0.0100    0.0100    0.0100    0.0100    0.0100    0.0100
    0.0100    0.0100    0.0100    0.0100    0.0100    0.0100    0.0100    0.0100
    0.0100    0.0100    0.0100    0.0100    0.0100    0.0100    0.0100    0.0100
    0.0100    0.0100    0.0100    0.0100    0.0100    0.0100    0.0100    0.0100
    0.0100    0.0100    0.0100    0.0100    0.0100    0.0100    0.0100    0.0100
    0.0100    0.0100    0.0100    0.0100    0.0100    0.0100    0.0100    0.0100
    0.0100    0.0100    0.0100    0.0100    0.0100    0.0100    0.0100    0.0100
    0.0100    0.0100    0.0100    0.0100    0.0100    0.0100    0.0100    0.0100
    0.0100    0.0100    0.0100    0.0100    0.0100    0.0100    0.0100    0.0100
    0.0100    0.0100    0.0100    0.0100    0.0100    0.0100    0.0100    0.0100
    0.0100    0.0100    0.0100    0.0100    0.0100    0.0100    0.0100    0.0100
    0.0100    0.0100    0.0100    0.0100    0.0100    0.0100    0.0100    0.0100
    0.0100    0.0100    0.0100    0.0100    0.0100    0.0100    0.0100    0.0100
    0.0100    0.0100    0.0100    0.0100    0.0100    0.0100    0.0100    0.0100
    0.0100    0.0100    0.0100    0.0100    0.0100    0.0100    0.0100    0.0100
    0.0100    0.0100    0.0100    0.0100    0.0100    0.0100    0.0100    0.0100
    0.0100    0.0100    0.0100    0.0100    0.0100    0.0100    0.0100    0.0100
    0.0100    0.0100    0.0100    0.0100    0.0100    0.0100    0.0100    0.0100
    0.0100    0.0100    0.0100    0.0100    0.0100    0.0100    0.0100    0.0100
    0.0100    0.0100    0.0100    0.0100    0.0100    0.0100    0.0100    0.0100
    0.0100    0.0100    0.0100    0.0100    0.0100    0.0100    0.0100    0.0100
    0.0100    0.0100    0.0100    0.0100    0.0100    0.0100    0.0100    0.0100
    0.0100    0.0100    0.0100    0.0100    0.0100    0.0100    0.0100    0.0100
    0.0100    0.0100    0.0100    0.0100    0.0100    0.0100    0.0100    0.0100
    0.0100    0.0100    0.0100    0.0100    0.0100    0.0100    0.0100    0.0100
    0.0100    0.0100    0.0100    0.0100    0.0100    0.0100    0.0100    0.0100
    0.0100    0.0100    0.0100    0.0100    0.0100    0.0100    0.0100    0.0100
    0.0100    0.0100    0.0100    0.0100    0.0100    0.0100    0.0100    0.0100
    0.0100    0.0100    0.0100    0.0100    0.0100    0.0100    0.0100    0.0100
    0.0100    0.0100    0.0100    0.0100    0.0100    0.0100    0.0100    0.0100
    0.0100    0.0100    0.0100    0.0100    0.0100    0.0100    0.0100    0.0100
    0.0100    0.0100    0.0100    0.0100    0.0100    0.0100    0.0100    0.0100
    0.0100    0.0100    0.0100    0.0100    0.0100    0.0100    0.0100    0.0100
    0.0100    0.0100    0.0100    0.0100    0.0100    0.0100    0.0100    0.0100
    0.0100    0.0100    0.0100    0.0100    0.0100    0.0100    0.0100    0.0100
    0.0100    0.0100    0.0100    0.0100    0.0100    0.0100    0.0100    0.0100
    0.0100    0.0100    0.0100    0.0100    0.0100    0.0100    0.0100    0.0100
    0.0100    0.0100    0.0100    0.0100    0.0100    0.0100    0.0100    0.0100
    0.0100    0.0100    0.0100    0.0100    0.0100    0.0100    0.0100    0.0100
    0.0100    0.0100    0.0100    0.0100    0.0100    0.0100    0.0100    0.0100
    0.0100    0.0100    0.0100    0.0100    0.0100    0.0100    0.0100    0.0100
    0.0100    0.0100    0.0100    0.0100    0.0100    0.0100    0.0100    0.0100
    0.0100    0.0100    0.0100    0.0100    0.0100    0.0100    0.0100    0.0100
    0.0100    0.0100    0.0100    0.0100    0.0100    0.0100    0.0100    0.0100
    0.0100    0.0100    0.0100    0.0100    0.0100    0.0100    0.0100    0.0100
    0.0100    0.0100    0.0100    0.0100    0.0100    0.0100    0.0100    0.0100
    0.0100    0.0100    0.0100    0.0100    0.0100    0.0100    0.0100    0.0100
    0.0100    0.0100    0.0100    0.0100    0.0100    0.0100    0.0100    0.0100
    0.0100    0.0100    0.0100    0.0100    0.0100    0.0100    0.0100    0.0100
    0.0100    0.0100    0.0100    0.0100    0.0100    0.0100    0.0100    0.0100
    0.0100    0.0100    0.0100    0.0100    0.0100    0.0100    0.0100    0.0100
    0.0100    0.0100    0.0100    0.0100    0.0100    0.0100    0.0100    0.0100
    0.0100    0.0100    0.0100    0.0100    0.0100    0.0100    0.0100    0.0100
    0.0100    0.0100    0.0100    0.0100    0.0100    0.0100    0.0100    0.0100
    0.0100    0.0100    0.0100    0.0100    0.0100    0.0100    0.0100    0.0100
    0.0100    0.0100    0.0100    0.0100    0.0100    0.0100    0.0100    0.0100
    0.0100    0.0100    0.0100    0.0100    0.0100    0.0100    0.0100    0.0100
    0.0100    0.0100    0.0100    0.0100    0.0100    0.0100    0.0100    0.0100
    0.0100    0.0100    0.0100    0.0100    0.0100    0.0100    0.0100    0.0100
    0.0100    0.0100    0.0100    0.0100    0.0100    0.0100    0.0100    0.0100
    0.0100    0.0100    0.0100    0.0100
   </PP_RAB>
 </PP_MESH>
  <PP_LOCAL type="real"  size=" 732" columns="4">
   -9.6174268595E+00   -9.6762270112E+00   -9.6723011257E+00   -9.6657628762E+00
   -9.6566195948E+00   -9.6448815245E+00   -9.6305617979E+00   -9.6136764108E+00
   -9.5942441897E+00   -9.5722867536E+00   -9.5478284708E+00   -9.5208964107E+00
   -9.4915202913E+00   -9.4597324218E+00   -9.4255676417E+00   -9.3890632555E+00
   -9.3502589651E+00   -9.3091967977E+00   -9.2659210325E+00   -9.2204781234E+00
   -9.1729166213E+00   -9.1232870925E+00   -9.0716420379E+00   -9.0180358084E+00
   -8.9625245214E+00   -8.9051659750E+00   -8.8460195619E+00   -8.7851461832E+00
   -8.7226081608E+00   -8.6584691511E+00   -8.5927940568E+00   -8.5256489398E+00
   -8.4571009334E+00   -8.3872181554E+00   -8.3160696197E+00   -8.2437251499E+00
   -8.1702552907E+00   -8.0957312217E+00   -8.0202246690E+00   -7.9438078182E+00
   -7.8665532266E+00   -7.7885337356E+00   -7.7098223824E+00   -7.6304923122E+00
   -7.5506166891E+00   -7.4702686073E+00   -7.3895210016E+00   -7.3084465570E+00
   -7.2271176185E+00   -7.1456060990E+00   -7.0639833879E+00   -6.9823202572E+00
   -6.9006867684E+00   -6.8191521769E+00   -6.7377848368E+00   -6.6566521031E+00
   -6.5758202343E+00   -6.4953542927E+00   -6.4153180440E+00   -6.3357738556E+00
   -6.2567825931E+00   -6.1784035165E+00   -6.1006941741E+00   -6.0237102952E+00
   -5.9475056820E+00   -5.8721320996E+00   -5.7976391646E+00   -5.7240742328E+00
   -5.6514822853E+00   -5.5799058131E+00   -5.5093847012E+00   -5.4399561109E+00
   -5.3716543610E+00   -5.3045108087E+00   -5.2385537285E+00   -5.1738081915E+00
   -5.1102959427E+00   -5.0480352787E+00   -4.9870409242E+00   -4.9273239083E+00
   -4.8688914405E+00   -4.8117467861E+00   -4.7558891420E+00   -4.7013135114E+00
   -4.6480105788E+00   -4.5959665855E+00   -4.5451632035E+00   -4.4955774104E+00
   -4.4471813632E+00   -4.3999422725E+00   -4.3538222907E+00   -4.3087797383E+00
   -4.2647731540E+00   -4.2217626339E+00   -4.1797097907E+00   -4.1385777025E+00
   -4.0983308663E+00   -4.0589351556E+00   -4.0203577813E+00   -3.9825672563E+00
   -3.9455333617E+00   -3.9092271164E+00   -3.8736207468E+00   -3.8386876583E+00
   -3.8044024079E+00   -3.7707406765E+00   -3.7376792417E+00   -3.7051959506E+00
   -3.6732696921E+00   -3.6418803690E+00   -3.6110088694E+00   -3.5806370378E+00
   -3.5507476455E+00   -3.5213243604E+00   -3.4923517168E+00   -3.4638150839E+00
   -3.4357006353E+00   -3.4079953166E+00   -3.3806868149E+00   -3.3537635274E+00
   -3.3272145296E+00   -3.3010295447E+00   -3.2751989136E+00   -3.2497135646E+00
   -3.2245649847E+00   -3.1997451905E+00   -3.1752467011E+00   -3.1510625110E+00
   -3.1271860639E+00   -3.1036112277E+00   -3.0803322704E+00   -3.0573438357E+00
   -3.0346409212E+00   -3.0122188555E+00   -2.9900732772E+00   -2.9682001140E+00
   -2.9465955619E+00   -2.9252560655E+00   -2.9041782984E+00   -2.8833591438E+00
   -2.8627956752E+00   -2.8424851376E+00   -2.8224249285E+00   -2.8026125793E+00
   -2.7830457367E+00   -2.7637221443E+00   -2.7446396241E+00   -2.7257960587E+00
   -2.7071893733E+00   -2.6888175185E+00   -2.6706784536E+00   -2.6527701301E+00
   -2.6350904765E+00   -2.6176373836E+00   -2.6004086913E+00   -2.5834021760E+00
   -2.5666155401E+00   -2.5500464023E+00   -2.5336922899E+00   -2.5175506330E+00
   -2.5016187598E+00   -2.4858938946E+00   -2.4703731572E+00   -2.4550535645E+00
   -2.4399320337E+00   -2.4250053879E+00   -2.4102703625E+00   -2.3957236145E+00
   -2.3813617322E+00   -2.3671812467E+00   -2.3531786447E+00   -2.3393503817E+00
   -2.3256928962E+00   -2.3122026246E+00   -2.2988760152E+00   -2.2857095436E+00
   -2.2726997262E+00   -2.2598431349E+00   -2.2471364089E+00   -2.2345762674E+00
   -2.2221595198E+00   -2.2098830756E+00   -2.1977439515E+00   -2.1857392783E+00
   -2.1738663050E+00   -2.1621224022E+00   -2.1505050626E+00   -2.1390119012E+00
   -2.1276406526E+00   -2.1163891673E+00   -2.1052554071E+00   -2.0942374379E+00
   -2.0833334212E+00   -2.0725416053E+00   -2.0618603155E+00   -2.0512879439E+00
   -2.0408229387E+00   -2.0304637915E+00   -2.0202090263E+00   -2.0100571872E+00
   -2.0000068197E+00   -1.9900564549E+00   -1.9802046144E+00   -1.9704498355E+00
   -1.9607906905E+00   -1.9512257816E+00   -1.9417537368E+00   -1.9323732097E+00
   -1.9230828805E+00   -1.9138814546E+00   -1.9047676619E+00   -1.8957402565E+00
   -1.8867980160E+00   -1.8779397408E+00   -1.8691642540E+00   -1.8604704003E+00
   -1.8518570461E+00   -1.8433230784E+00   -1.8348674048E+00   -1.8264889528E+00
   -1.8181866694E+00   -1.8099595206E+00   -1.8018064912E+00   -1.7937265841E+00
   -1.7857188199E+00   -1.7777822368E+00   -1.7699158899E+00   -1.7621188510E+00
   -1.7543902081E+00   -1.7467290654E+00   -1.7391345422E+00   -1.7316057736E+00
   -1.7241419091E+00   -1.7167421132E+00   -1.7094055645E+00   -1.7021314555E+00
   -1.6949189926E+00   -1.6877673954E+00   -1.6806758967E+00   -1.6736437421E+00
   -1.6666701899E+00   -1.6597545106E+00   -1.6528959867E+00   -1.6460939126E+00
   -1.6393475942E+00   -1.6326563489E+00   -1.6260195050E+00   -1.6194364017E+00
   -1.6129063890E+00   -1.6064288272E+00   -1.6000030869E+00   -1.5936285487E+00
   -1.5873046031E+00   -1.5810306501E+00   -1.5748060993E+00   -1.5686303694E+00
   -1.5625028884E+00   -1.5564230929E+00   -1.5503904285E+00   -1.5444043493E+00
   -1.5384643178E+00   -1.5325698046E+00   -1.5267202885E+00   -1.5209152562E+00
   -1.5151542022E+00   -1.5094366287E+00   -1.5037620453E+00   -1.4981299688E+00
   -1.4925399235E+00   -1.4869914406E+00   -1.4814840582E+00   -1.4760173214E+00
   -1.4705907819E+00   -1.4652039979E+00   -1.4598565341E+00   -1.4545479615E+00
   -1.4492778575E+00   -1.4440458053E+00   -1.4388513943E+00   -1.4336942197E+00
   -1.4285738826E+00   -1.4234899897E+00   -1.4184421533E+00   -1.4134299910E+00
   -1.4084531262E+00   -1.4035111871E+00   -1.3986038074E+00   -1.3937306258E+00
   -1.3888912862E+00   -1.3840854372E+00   -1.3793127323E+00   -1.3745728297E+00
   -1.3698653926E+00   -1.3651900885E+00   -1.3605465894E+00   -1.3559345719E+00
   -1.3513537169E+00   -1.3468037096E+00   -1.3422842395E+00   -1.3377950002E+00
   -1.3333356894E+00   -1.3289060086E+00   -1.3245056637E+00   -1.3201343641E+00
   -1.3157918231E+00   -1.3114777580E+00   -1.3071918894E+00   -1.3029339419E+00
   -1.2987036436E+00   -1.2945007258E+00   -1.2903249237E+00   -1.2861759757E+00
   -1.2820536236E+00   -1.2779576124E+00   -1.2738876905E+00   -1.2698436093E+00
   -1.2658251236E+00   -1.2618319912E+00   -1.2578639727E+00   -1.2539208321E+00
   -1.2500023361E+00   -1.2461082544E+00   -1.2422383595E+00   -1.2383924267E+00
   -1.2345702342E+00   -1.2307715628E+00   -1.2269961961E+00   -1.2232439202E+00
   -1.2195145240E+00   -1.2158077988E+00   -1.2121235386E+00   -1.2084615396E+00
   -1.2048216008E+00   -1.2012035234E+00   -1.1976071110E+00   -1.1940321696E+00
   -1.1904785075E+00   -1.1869459354E+00   -1.1834342658E+00   -1.1799433140E+00
   -1.1764728971E+00   -1.1730228344E+00   -1.1695929474E+00   -1.1661830596E+00
   -1.1627929966E+00   -1.1594225860E+00   -1.1560716574E+00   -1.1527400424E+00
   -1.1494275745E+00   -1.1461340891E+00   -1.1428594234E+00   -1.1396034167E+00
   -1.1363659099E+00   -1.1331467458E+00   -1.1299457689E+00   -1.1267628255E+00
   -1.1235977637E+00   -1.1204504332E+00   -1.1173206854E+00   -1.1142083734E+00
   -1.1111133519E+00   -1.1080354772E+00   -1.1049746072E+00   -1.1019306013E+00
   -1.0989033206E+00   -1.0958926276E+00   -1.0928983864E+00   -1.0899204624E+00
   -1.0869587227E+00   -1.0840130356E+00   -1.0810832710E+00   -1.0781693002E+00
   -1.0752709958E+00   -1.0723882317E+00   -1.0695208834E+00   -1.0666688274E+00
   -1.0638319419E+00   -1.0610101060E+00   -1.0582032004E+00   -1.0554111068E+00
   -1.0526337083E+00   -1.0498708892E+00   -1.0471225350E+00   -1.0443885324E+00
   -1.0416687693E+00   -1.0389631348E+00   -1.0362715190E+00   -1.0335938132E+00
   -1.0309299099E+00   -1.0282797027E+00   -1.0256430862E+00   -1.0230199561E+00
   -1.0204102092E+00   -1.0178137434E+00   -1.0152304575E+00   -1.0126602514E+00
   -1.0101030261E+00   -1.0075586835E+00   -1.0050271264E+00   -1.0025082587E+00
   -1.0000019853E+00   -9.9750821192E-01   -9.9502684528E-01   -9.9255779303E-01
   -9.9010096373E-01   -9.8765626684E-01   -9.8522361272E-01   -9.8280291260E-01
   -9.8039407857E-01   -9.7799702362E-01   -9.7561166155E-01   -9.7323790700E-01
   -9.7087567547E-01   -9.6852488325E-01   -9.6618544745E-01   -9.6385728597E-01
   -9.6154031751E-01   -9.5923446156E-01   -9.5693963834E-01   -9.5465576888E-01
   -9.5238277493E-01   -9.5012057899E-01   -9.4786910431E-01   -9.4562827484E-01
   -9.4339801527E-01   -9.4117825099E-01   -9.3896890809E-01   -9.3676991336E-01
   -9.3458119425E-01   -9.3240267891E-01   -9.3023429616E-01   -9.2807597547E-01
   -9.2592764696E-01   -9.2378924140E-01   -9.2166069021E-01   -9.1954192542E-01
   -9.1743287970E-01   -9.1533348632E-01   -9.1324367918E-01   -9.1116339277E-01
   -9.0909256217E-01   -9.0703112306E-01   -9.0497901170E-01   -9.0293616491E-01
   -9.0090252011E-01   -8.9887801526E-01   -8.9686258888E-01   -8.9485618004E-01
   -8.9285872836E-01   -8.9087017398E-01   -8.8889045760E-01   -8.8691952043E-01
   -8.8495730420E-01   -8.8300375115E-01   -8.8105880404E-01   -8.7912240613E-01
   -8.7719450117E-01   -8.7527503342E-01   -8.7336394760E-01   -8.7146118894E-01
   -8.6956670312E-01   -8.6768043632E-01   -8.6580233516E-01   -8.6393234673E-01
   -8.6207041858E-01   -8.6021649872E-01   -8.5837053558E-01   -8.5653247805E-01
   -8.5470227546E-01   -8.5287987756E-01   -8.5106523453E-01   -8.4925829699E-01
   -8.4745901595E-01   -8.4566734286E-01   -8.4388322956E-01   -8.4210662831E-01
   -8.4033749177E-01   -8.3857577298E-01   -8.3682142540E-01   -8.3507440285E-01
   -8.3333465956E-01   -8.3160215013E-01   -8.2987682952E-01   -8.2815865310E-01
   -8.2644757658E-01   -8.2474355605E-01   -8.2304654794E-01   -8.2135650906E-01
   -8.1967339657E-01   -8.1799716798E-01   -8.1632778113E-01   -8.1466519423E-01
   -8.1300936582E-01   -8.1136025476E-01   -8.0971782027E-01   -8.0808202187E-01
   -8.0645281944E-01   -8.0483017316E-01   -8.0321404354E-01   -8.0160439139E-01
   -8.0000117785E-01   -7.9840436437E-01   -7.9681391270E-01   -7.9522978489E-01
   -7.9365194332E-01   -7.9208035062E-01   -7.9051496976E-01   -7.8895576398E-01
   -7.8740269680E-01   -7.8585573206E-01   -7.8431483385E-01   -7.8277996656E-01
   -7.8125109485E-01   -7.7972818367E-01   -7.7821119821E-01   -7.7670010396E-01
   -7.7519486668E-01   -7.7369545237E-01   -7.7220182732E-01   -7.7071395805E-01
   -7.6923181136E-01   -7.6775535431E-01   -7.6628455418E-01   -7.6481937854E-01
   -7.6335979518E-01   -7.6190577215E-01   -7.6045727773E-01   -7.5901428045E-01
   -7.5757674908E-01   -7.5614465262E-01   -7.5471796031E-01   -7.5329664161E-01
   -7.5188066622E-01   -7.5047000408E-01   -7.4906462532E-01   -7.4766450032E-01
   -7.4626959968E-01   -7.4487989421E-01   -7.4349535494E-01   -7.4211595312E-01
   -7.4074166021E-01   -7.3937244787E-01   -7.3800828798E-01   -7.3664915264E-01
   -7.3529501413E-01   -7.3394584494E-01   -7.3260161778E-01   -7.3126230553E-01
   -7.2992788130E-01   -7.2859831837E-01   -7.2727359022E-01   -7.2595367054E-01
   -7.2463853318E-01   -7.2332815221E-01   -7.2202250187E-01   -7.2072155658E-01
   -7.1942529097E-01   -7.1813367982E-01   -7.1684669811E-01   -7.1556432100E-01
   -7.1428652382E-01   -7.1301328208E-01   -7.1174457146E-01   -7.1048036782E-01
   -7.0922064718E-01   -7.0796538574E-01   -7.0671455986E-01   -7.0546814608E-01
   -7.0422612109E-01   -7.0298846176E-01   -7.0175514510E-01   -7.0052614830E-01
   -6.9930144871E-01   -6.9808102382E-01   -6.9686485129E-01   -6.9565290894E-01
   -6.9444517473E-01   -6.9324162679E-01   -6.9204224339E-01   -6.9084700295E-01
   -6.8965588404E-01   -6.8846886538E-01   -6.8728592583E-01   -6.8610704440E-01
   -6.8493220025E-01   -6.8376137268E-01   -6.8259454111E-01   -6.8143168514E-01
   -6.8027278446E-01   -6.7911781895E-01   -6.7796676858E-01   -6.7681961349E-01
   -6.7567633394E-01   -6.7453691031E-01   -6.7340132314E-01   -6.7226955308E-01
   -6.7114158092E-01   -6.7001738757E-01   -6.6889695408E-01   -6.6778026161E-01
   -6.6666729146E-01   -6.6555802506E-01   -6.6445244393E-01   -6.6335052975E-01
   -6.6225226430E-01   -6.6115762950E-01   -6.6006660736E-01   -6.5897918004E-01
   -6.5789532979E-01   -6.5681503899E-01   -6.5573829015E-01   -6.5466506586E-01
   -6.5359534885E-01   -6.5252912195E-01   -6.5146636812E-01   -6.5040707041E-01
   -6.4935121199E-01   -6.4829877614E-01   -6.4724974624E-01   -6.4620410579E-01
   -6.4516183838E-01   -6.4412292771E-01   -6.4308735761E-01   -6.4205511199E-01
   -6.4102617485E-01   -6.4000053032E-01   -6.3897816263E-01   -6.3795905608E-01
   -6.3694319511E-01   -6.3593056423E-01   -6.3492114806E-01   -6.3391493133E-01
   -6.3291189883E-01   -6.3191203548E-01   -6.3091532629E-01   -6.2992175634E-01
   -6.2893131085E-01   -6.2794397508E-01   -6.2695973442E-01   -6.2597857433E-01
   -6.2500048038E-01   -6.2402543822E-01   -6.2305343358E-01   -6.2208445229E-01
   -6.2111848027E-01   -6.2015550353E-01   -6.1919550814E-01   -6.1823848030E-01
   -6.1728440625E-01   -6.1633327235E-01   -6.1538506503E-01   -6.1443977079E-01
   -6.1349737625E-01   -6.1255786806E-01   -6.1162123300E-01   -6.1068745790E-01
   -6.0975652969E-01   -6.0882843536E-01   -6.0790316200E-01   -6.0698069676E-01
   -6.0606102688E-01   -6.0514413967E-01   -6.0423002252E-01   -6.0331866290E-01
   -6.0241004835E-01   -6.0150416649E-01   -6.0060100500E-01   -5.9970055164E-01
   -5.9880279427E-01   -5.9790772078E-01   -5.9701531917E-01   -5.9612557748E-01
   -5.9523848383E-01   -5.9435402644E-01   -5.9347219355E-01   -5.9259297352E-01
   -5.9171635473E-01   -5.9084232567E-01   -5.8997087488E-01   -5.8910199095E-01
   -5.8823566258E-01   -5.8737187850E-01   -5.8651062752E-01   -5.8565189852E-01
   -5.8479568042E-01   -5.8394196224E-01   -5.8309073305E-01   -5.8224198197E-01
   -5.8139569819E-01   -5.8055187098E-01   -5.7971048966E-01   -5.7887154360E-01
   -5.7803502225E-01   -5.7720091511E-01   -5.7636921174E-01   -5.7553990178E-01
   -5.7471297490E-01   -5.7388842084E-01   -5.7306622941E-01   -5.7224639046E-01
   -5.7142889393E-01   -5.7061372977E-01   -5.6980088802E-01   -5.6899035878E-01
   -5.6818213219E-01   -5.6737619844E-01   -5.6657254780E-01   -5.6577117058E-01
   -5.6497205714E-01   -5.6417519791E-01   -5.6338058336E-01   -5.6258820402E-01
   -5.6179805048E-01   -5.6101011336E-01   -5.6022438335E-01   -5.5944085120E-01
   -5.5865950770E-01   -5.5788034368E-01   -5.5710335004E-01   -5.5632851772E-01
   -5.5555583773E-01   -5.5478530110E-01   -5.5401689892E-01   -5.5325062235E-01
   -5.5248646257E-01   -5.5172441082E-01   -5.5096445840E-01   -5.5020659664E-01
   -5.4945081692E-01   -5.4869711068E-01   -5.4794546939E-01   -5.4719588459E-01
  </PP_LOCAL>
 <PP_NONLOCAL>
   <PP_BETA.1
       type="real"
       size=" 732"
       columns="4"
       index="1"
       angular_momentum="0"
       cutoff_radius_index=" 204"
       cutoff_radius="    2.0300000000E+00" >
   -5.2265414219E-11    5.7882002639E-02    1.1567490131E-01    1.7328976968E-01
    2.3063803555E-01    2.8763165544E-01    3.4418328589E-01    4.0020645084E-01
    4.5561570399E-01    5.1032678530E-01    5.6425677098E-01    6.1732421607E-01
    6.6944928921E-01    7.2055389903E-01    7.7056181169E-01    8.1939875948E-01
    8.6699254016E-01    9.1327310711E-01    9.5817265031E-01    1.0016256684E+00
    1.0435690324E+00    1.0839420404E+00    1.1226864662E+00    1.1597465992E+00
    1.1950692796E+00    1.2286039272E+00    1.2603025665E+00    1.2901198473E+00
    1.3180130640E+00    1.3439421725E+00    1.3678698068E+00    1.3897612970E+00
    1.4095846877E+00    1.4273107603E+00    1.4429130578E+00    1.4563679154E+00
    1.4676544950E+00    1.4767548273E+00    1.4836538587E+00    1.4883395071E+00
    1.4908027244E+00    1.4910375661E+00    1.4890412696E+00    1.4848143394E+00
    1.4783606398E+00    1.4696874944E+00    1.4588057913E+00    1.4457300941E+00
    1.4304787566E+00    1.4130740410E+00    1.3935422376E+00    1.3719137840E+00
    1.3482233840E+00    1.3225101217E+00    1.2948175716E+00    1.2651939004E+00
    1.2336919597E+00    1.2003693668E+00    1.1652885722E+00    1.1285169097E+00
    1.0901266292E+00    1.0501949081E+00    1.0088038403E+00    9.6604039925E-01
    9.2199637490E-01    8.7676828126E-01    8.3045723322E-01    7.8316879111E-01
    7.3501277163E-01    6.8610302382E-01    6.3655716931E-01    5.8649630599E-01
    5.3604467479E-01    4.8532928933E-01    4.3447952861E-01    3.8362669312E-01
    3.3290352507E-01    2.8244369382E-01    2.3238124771E-01    1.8285003384E-01
    1.3398308780E-01    8.5911995307E-02    3.8766228183E-02   -7.3275427339E-03
   -5.2246154958E-02   -9.5870679020E-02   -1.3808715727E-01   -1.7878735354E-01
   -2.1786951034E-01   -2.5523910996E-01   -2.9080963386E-01   -3.2450308290E-01
   -3.5624982161E-01   -3.8598857266E-01   -4.1366656063E-01   -4.3923963008E-01
   -4.6267233368E-01   -4.8393798865E-01   -5.0301869989E-01   -5.1990534862E-01
   -5.3459754505E-01   -5.4710354441E-01   -5.5744012545E-01   -5.6563243110E-01
   -5.7171377100E-01   -5.7572538609E-01   -5.7771617564E-01   -5.7774238747E-01
   -5.7586727227E-01   -5.7216070347E-01   -5.6669876413E-01   -5.5956330289E-01
   -5.5084146104E-01   -5.4062517324E-01   -5.2901064460E-01   -5.1609780704E-01
   -5.0198975784E-01   -4.8679218480E-01   -4.7061277942E-01   -4.5356064378E-01
   -4.3574569454E-01   -4.1727806646E-01   -3.9826752094E-01   -3.7882286273E-01
   -3.5905136866E-01   -3.3905823241E-01   -3.1894602886E-01   -2.9881420165E-01
   -2.7875857745E-01   -2.5887091000E-01   -2.3923845715E-01   -2.1994359353E-01
   -2.0106346131E-01   -1.8266966148E-01   -1.6482798724E-01   -1.4759820129E-01
   -1.3103385803E-01   -1.1518217171E-01   -1.0008393077E-01   -8.5773458682E-02
   -7.2278620818E-02   -5.9620876804E-02   -4.7815377277E-02   -3.6871103656E-02
   -2.6791049196E-02   -1.7572439224E-02   -9.2069881886E-03   -1.6811908310E-03
    5.0233554796E-03    1.0929600431E-02    1.6064665874E-02    2.0459449945E-02
    2.4148213917E-02    2.7168155625E-02    2.9558973384E-02    3.1362424348E-02
    3.2621881262E-02    3.3381891536E-02    3.3687742487E-02    3.3585036478E-02
    3.3119279584E-02    3.2335487177E-02    3.1277809669E-02    2.9989181401E-02
    2.8510995378E-02    2.6882806310E-02    2.5142064069E-02    2.3323879366E-02
    2.1460823109E-02    1.9582760554E-02    1.7716720973E-02    1.5886803242E-02
    1.4114117348E-02    1.2416761468E-02    1.0809833906E-02    9.3054788493E-03
    7.9129645347E-03    6.6387921393E-03    5.4868333830E-03    4.4584945740E-03
    3.5529045743E-03    2.7671239419E-03    2.0963723210E-03    1.5342709900E-03
    1.0730973550E-03    7.0404808716E-04    4.1750603833E-04    2.0332107466E-04
    5.1050519286E-05   -4.9742604123E-05   -1.0870479699E-04   -1.3288077257E-04
   -1.3145816019E-04   -1.1382282743E-04   -8.7840221538E-05   -5.9971593541E-05
   -3.5078264783E-05   -1.6292988633E-05   -4.9066923226E-06   -4.6897557590E-07
    1.1780426782E-07   -2.9882842662E-08    1.9499873949E-09    2.7143738943E-09
 0. 0. 0. 0.
 0. 0. 0. 0.
 0. 0. 0. 0.
 0. 0. 0. 0.
 0. 0. 0. 0.
 0. 0. 0. 0.
 0. 0. 0. 0.
 0. 0. 0. 0.
 0. 0. 0. 0.
 0. 0. 0. 0.
 0. 0. 0. 0.
 0. 0. 0. 0.
 0. 0. 0. 0.
 0. 0. 0. 0.
 0. 0. 0. 0.
 0. 0. 0. 0.
 0. 0. 0. 0.
 0. 0. 0. 0.
 0. 0. 0. 0.
 0. 0. 0. 0.
 0. 0. 0. 0.
 0. 0. 0. 0.
 0. 0. 0. 0.
 0. 0. 0. 0.
 0. 0. 0. 0.
 0. 0. 0. 0.
 0. 0. 0. 0.
 0. 0. 0. 0.
 0. 0. 0. 0.
 0. 0. 0. 0.
 0. 0. 0. 0.
 0. 0. 0. 0.
 0. 0. 0. 0.
 0. 0. 0. 0.
 0. 0. 0. 0.
 0. 0. 0. 0.
 0. 0. 0. 0.
 0. 0. 0. 0.
 0. 0. 0. 0.
 0. 0. 0. 0.
 0. 0. 0. 0.
 0. 0. 0. 0.
 0. 0. 0. 0.
 0. 0. 0. 0.
 0. 0. 0. 0.
 0. 0. 0. 0.
 0. 0. 0. 0.
 0. 0. 0. 0.
 0. 0. 0. 0.
 0. 0. 0. 0.
 0. 0. 0. 0.
 0. 0. 0. 0.
 0. 0. 0. 0.
 0. 0. 0. 0.
 0. 0. 0. 0.
 0. 0. 0. 0.
 0. 0. 0. 0.
 0. 0. 0. 0.
 0. 0. 0. 0.
 0. 0. 0. 0.
 0. 0. 0. 0.
 0. 0. 0. 0.
 0. 0. 0. 0.
 0. 0. 0. 0.
 0. 0. 0. 0.
 0. 0. 0. 0.
 0. 0. 0. 0.
 0. 0. 0. 0.
 0. 0. 0. 0.
 0. 0. 0. 0.
 0. 0. 0. 0.
 0. 0. 0. 0.
 0. 0. 0. 0.
 0. 0. 0. 0.
 0. 0. 0. 0.
 0. 0. 0. 0.
 0. 0. 0. 0.
 0. 0. 0. 0.
 0. 0. 0. 0.
 0. 0. 0. 0.
 0. 0. 0. 0.
 0. 0. 0. 0.
 0. 0. 0. 0.
 0. 0. 0. 0.
 0. 0. 0. 0.
 0. 0. 0. 0.
 0. 0. 0. 0.
 0. 0. 0. 0.
 0. 0. 0. 0.
 0. 0. 0. 0.
 0. 0. 0. 0.
 0. 0. 0. 0.
 0. 0. 0. 0.
 0. 0. 0. 0.
 0. 0. 0. 0.
 0. 0. 0. 0.
 0. 0. 0. 0.
 0. 0. 0. 0.
 0. 0. 0. 0.
 0. 0. 0. 0.
 0. 0. 0. 0.
 0. 0. 0. 0.
 0. 0. 0. 0.
 0. 0. 0. 0.
 0. 0. 0. 0.
 0. 0. 0. 0.
 0. 0. 0. 0.
 0. 0. 0. 0.
 0. 0. 0. 0.
 0. 0. 0. 0.
 0. 0. 0. 0.
 0. 0. 0. 0.
 0. 0. 0. 0.
 0. 0. 0. 0.
 0. 0. 0. 0.
 0. 0. 0. 0.
 0. 0. 0. 0.
 0. 0. 0. 0.
 0. 0. 0. 0.
 0. 0. 0. 0.
 0. 0. 0. 0.
 0. 0. 0. 0.
 0. 0. 0. 0.
 0. 0. 0. 0.
 0. 0. 0. 0.
 0. 0. 0. 0.
 0. 0. 0. 0.
 0. 0. 0. 0.
 0. 0. 0. 0.
 0. 0. 0. 0.
 0. 0. 0. 0.
 0. 0. 0. 0.
   </PP_BETA.1>
   <PP_BETA.2
       type="real"
       size=" 732"
       columns="4"
       index="2"
       angular_momentum="0"
       cutoff_radius_index=" 204"
       cutoff_radius="    2.0300000000E+00" >
    1.4823151040E-10   -2.2285389375E-02   -4.4451257362E-02   -6.6378623045E-02
   -8.7949582594E-02   -1.0904783820E-01   -1.2955921556E-01   -1.4937216636E-01
   -1.6837825214E-01   -1.8647260636E-01   -2.0355437152E-01   -2.1952710848E-01
   -2.3429917546E-01   -2.4778407442E-01   -2.5990076279E-01   -2.7057392912E-01
   -2.7973423114E-01   -2.8731849556E-01   -2.9326987887E-01   -2.9753798913E-01
   -3.0007896893E-01   -3.0085553996E-01   -2.9983701036E-01   -2.9699924595E-01
   -2.9232460700E-01   -2.8580185255E-01   -2.7742601432E-01   -2.6719824285E-01
   -2.5512562849E-01   -2.4122100009E-01   -2.2550270459E-01   -2.0799437053E-01
   -1.8872465892E-01   -1.6772700465E-01   -1.4503935190E-01   -1.2070388674E-01
   -9.4766770265E-02   -6.7277875274E-02   -3.8290529552E-02   -7.8612684759E-03
    2.3950400468E-02    5.7082218971E-02    9.1469382976E-02    1.2704472984E-01
    1.6373890625E-01    2.0148051583E-01    2.4019624597E-01    2.7981097341E-01
    3.2024784902E-01    3.6142836211E-01    4.0327238534E-01    4.4569820167E-01
    4.8862251484E-01    5.3196044583E-01    5.7562551737E-01    6.1952962968E-01
    6.6358303010E-01    7.0769428030E-01    7.5177022437E-01    7.9571596167E-01
    8.3943482829E-01    8.8282839108E-01    9.2579645832E-01    9.6823711116E-01
    1.0100467596E+00    1.0511202273E+00    1.0913508687E+00    1.1306307220E+00
    1.1688507020E+00    1.2059008350E+00    1.2416705390E+00    1.2760489523E+00
    1.3089253111E+00    1.3401893788E+00    1.3697319286E+00    1.3974452783E+00
    1.4232238803E+00    1.4469649639E+00    1.4685692306E+00    1.4879416019E+00
    1.5049920158E+00    1.5196362719E+00    1.5317969216E+00    1.5414042002E+00
    1.5483969979E+00    1.5527238664E+00    1.5543440551E+00    1.5532285753E+00
    1.5493612853E+00    1.5427399925E+00    1.5333775447E+00    1.5213008716E+00
    1.5065454351E+00    1.4891533899E+00    1.4691737480E+00    1.4466625391E+00
    1.4216829392E+00    1.3943053633E+00    1.3646075181E+00    1.3326744120E+00
    1.2985983196E+00    1.2624786977E+00    1.2244220510E+00    1.1845417463E+00
    1.1429577739E+00    1.0997964550E+00    1.0551900963E+00    1.0092765912E+00
    9.6219896892E-01    9.1410489408E-01    8.6514611722E-01    8.1547788048E-01
    7.6525828096E-01    7.1464759550E-01    6.6380757135E-01    6.1290068722E-01
    5.6208938902E-01    5.1153530914E-01    4.6139846791E-01    4.1183647035E-01
    3.6300370305E-01    3.1505053248E-01    2.6812251729E-01    2.2235963761E-01
    1.7789554886E-01    1.3485686607E-01    9.3362484960E-02    5.3522945664E-02
    1.5439844704E-02   -2.0794699481E-02   -5.5098522556E-02   -8.7399827459E-02
   -1.1763753077E-01   -1.4576153884E-01   -1.7173295095E-01   -1.9552418724E-01
   -2.1711903981E-01   -2.3651264621E-01   -2.5371138494E-01   -2.6873269353E-01
   -2.8160481033E-01   -2.9236644172E-01   -3.0106635741E-01   -3.0776291677E-01
   -3.1252353015E-01   -3.1542405933E-01   -3.1654816221E-01   -3.1598658701E-01
   -3.1383642196E-01   -3.1020030669E-01   -3.0518561204E-01   -2.9890359520E-01
   -2.9146853730E-01   -2.8299687083E-01   -2.7360630433E-01   -2.6341495167E-01
   -2.5254047343E-01   -2.4109923759E-01   -2.2920550664E-01   -2.1697065788E-01
   -2.0450244345E-01   -1.9190429628E-01   -1.7927468746E-01   -1.6670654044E-01
   -1.5428670641E-01   -1.4209550525E-01   -1.3020633513E-01   -1.1868535372E-01
   -1.0759123300E-01   -9.6974989000E-02   -8.6879887158E-02   -7.7341423152E-02
   -6.8387378406E-02   -6.0037948722E-02   -5.2305943817E-02   -4.5197054839E-02
   -3.8710186301E-02   -3.2837848271E-02   -2.7566604064E-02   -2.2877568185E-02
   -1.8746948792E-02   -1.5146628517E-02   -1.2044777199E-02   -9.4064897110E-03
   -7.1944419201E-03   -5.3695576439E-03   -3.8916765124E-03   -2.7202412683E-03
   -1.8149004144E-03   -1.1362121138E-03   -6.4726611099E-04   -3.1726321518E-04
   -1.1257830639E-04   -5.4587520403E-07    4.7184284702E-05    5.4791671672E-05
    4.1849912241E-05    2.3031503101E-05    7.8484282458E-06    8.5299204437E-07
   -2.3906802362E-07    5.6970316791E-08   -3.3263958940E-09   -4.6205286451E-09
 0. 0. 0. 0.
 0. 0. 0. 0.
 0. 0. 0. 0.
 0. 0. 0. 0.
 0. 0. 0. 0.
 0. 0. 0. 0.
 0. 0. 0. 0.
 0. 0. 0. 0.
 0. 0. 0. 0.
 0. 0. 0. 0.
 0. 0. 0. 0.
 0. 0. 0. 0.
 0. 0. 0. 0.
 0. 0. 0. 0.
 0. 0. 0. 0.
 0. 0. 0. 0.
 0. 0. 0. 0.
 0. 0. 0. 0.
 0. 0. 0. 0.
 0. 0. 0. 0.
 0. 0. 0. 0.
 0. 0. 0. 0.
 0. 0. 0. 0.
 0. 0. 0. 0.
 0. 0. 0. 0.
 0. 0. 0. 0.
 0. 0. 0. 0.
 0. 0. 0. 0.
 0. 0. 0. 0.
 0. 0. 0. 0.
 0. 0. 0. 0.
 0. 0. 0. 0.
 0. 0. 0. 0.
 0. 0. 0. 0.
 0. 0. 0. 0.
 0. 0. 0. 0.
 0. 0. 0. 0.
 0. 0. 0. 0.
 0. 0. 0. 0.
 0. 0. 0. 0.
 0. 0. 0. 0.
 0. 0. 0. 0.
 0. 0. 0. 0.
 0. 0. 0. 0.
 0. 0. 0. 0.
 0. 0. 0. 0.
 0. 0. 0. 0.
 0. 0. 0. 0.
 0. 0. 0. 0.
 0. 0. 0. 0.
 0. 0. 0. 0.
 0. 0. 0. 0.
 0. 0. 0. 0.
 0. 0. 0. 0.
 0. 0. 0. 0.
 0. 0. 0. 0.
 0. 0. 0. 0.
 0. 0. 0. 0.
 0. 0. 0. 0.
 0. 0. 0. 0.
 0. 0. 0. 0.
 0. 0. 0. 0.
 0. 0. 0. 0.
 0. 0. 0. 0.
 0. 0. 0. 0.
 0. 0. 0. 0.
 0. 0. 0. 0.
 0. 0. 0. 0.
 0. 0. 0. 0.
 0. 0. 0. 0.
 0. 0. 0. 0.
 0. 0. 0. 0.
 0. 0. 0. 0.
 0. 0. 0. 0.
 0. 0. 0. 0.
 0. 0. 0. 0.
 0. 0. 0. 0.
 0. 0. 0. 0.
 0. 0. 0. 0.
 0. 0. 0. 0.
 0. 0. 0. 0.
 0. 0. 0. 0.
 0. 0. 0. 0.
 0. 0. 0. 0.
 0. 0. 0. 0.
 0. 0. 0. 0.
 0. 0. 0. 0.
 0. 0. 0. 0.
 0. 0. 0. 0.
 0. 0. 0. 0.
 0. 0. 0. 0.
 0. 0. 0. 0.
 0. 0. 0. 0.
 0. 0. 0. 0.
 0. 0. 0. 0.
 0. 0. 0. 0.
 0. 0. 0. 0.
 0. 0. 0. 0.
 0. 0. 0. 0.
 0. 0. 0. 0.
 0. 0. 0. 0.
 0. 0. 0. 0.
 0. 0. 0. 0.
 0. 0. 0. 0.
 0. 0. 0. 0.
 0. 0. 0. 0.
 0. 0. 0. 0.
 0. 0. 0. 0.
 0. 0. 0. 0.
 0. 0. 0. 0.
 0. 0. 0. 0.
 0. 0. 0. 0.
 0. 0. 0. 0.
 0. 0. 0. 0.
 0. 0. 0. 0.
 0. 0. 0. 0.
 0. 0. 0. 0.
 0. 0. 0. 0.
 0. 0. 0. 0.
 0. 0. 0. 0.
 0. 0. 0. 0.
 0. 0. 0. 0.
 0. 0. 0. 0.
 0. 0. 0. 0.
 0. 0. 0. 0.
 0. 0. 0. 0.
 0. 0. 0. 0.
 0. 0. 0. 0.
 0. 0. 0. 0.
 0. 0. 0. 0.
 0. 0. 0. 0.
 0. 0. 0. 0.
   </PP_BETA.2>
   <PP_DIJ type="real"  size="   4" columns="4">
   -3.4441148334E+00    0.0000000000E+00    0.0000000000E+00   -1.1728112394E+00
   </PP_DIJ>
 </PP_NONLOCAL>
 <PP_PSWFC>
   <PP_CHI.1
       type="real"
       size=" 732"
       columns="4"
       index="1"
       occupation=" 2.000"
       pseudo_energy="   -0.1139162571E+01"
       label="1S"
       l="0" >
   -1.5474288517E-12    2.4498079370E-02    4.8977692359E-02    7.3420400193E-02
    9.7807819261E-02    1.2212164855E-01    1.4634369688E-01    1.7045590996E-01
    1.9444039707E-01    2.1827945747E-01    2.4195560634E-01    2.6545160030E-01
    2.8875046239E-01    3.1183550651E-01    3.3469036118E-01    3.5729899272E-01
    3.7964572764E-01    4.0171527433E-01    4.2349274387E-01    4.4496367008E-01
    4.6611402863E-01    4.8693025525E-01    5.0739926301E-01    5.2750845852E-01
    5.4724575728E-01    5.6659959781E-01    5.8555895484E-01    6.0411335137E-01
    6.2225286964E-01    6.3996816095E-01    6.5725045440E-01    6.7409156442E-01
    6.9048389727E-01    7.0642045625E-01    7.2189484584E-01    7.3690127469E-01
    7.5143455746E-01    7.6549011547E-01    7.7906397630E-01    7.9215277226E-01
    8.0475373766E-01    8.1686470517E-01    8.2848410099E-01    8.3961093900E-01
    8.5024481393E-01    8.6038589354E-01    8.7003490981E-01    8.7919314924E-01
    8.8786244219E-01    8.9604515147E-01    9.0374416000E-01    9.1096285773E-01
    9.1770512785E-01    9.2397533217E-01    9.2977829603E-01    9.3511929237E-01
    9.4000402541E-01    9.4443861365E-01    9.4842957250E-01    9.5198379636E-01
    9.5510854038E-01    9.5781140185E-01    9.6010030123E-01    9.6198346300E-01
    9.6346939625E-01    9.6456687508E-01    9.6528491897E-01    9.6563277295E-01
    9.6561988782E-01    9.6525590036E-01    9.6455061359E-01    9.6351397712E-01
    9.6215606766E-01    9.6048706966E-01    9.5851725625E-01    9.5625697030E-01
    9.5371660595E-01    9.5090659028E-01    9.4783736549E-01    9.4451937137E-01
    9.4096302825E-01    9.3717872036E-01    9.3317677973E-01    9.2896747052E-01
    9.2456097390E-01    9.1996737357E-01    9.1519664168E-01    9.1025862549E-01
    9.0516303459E-01    8.9991942869E-01    8.9453720615E-01    8.8902559302E-01
    8.8339363289E-01    8.7765017728E-01    8.7180387676E-01    8.6586317274E-01
    8.5983628992E-01    8.5373122941E-01    8.4755576259E-01    8.4131742555E-01
    8.3502351425E-01    8.2868108040E-01    8.2229692786E-01    8.1587760982E-01
    8.0942942653E-01    8.0295842374E-01    7.9647039163E-01    7.8997086450E-01
    7.8346512087E-01    7.7695818430E-01    7.7045482467E-01    7.6395956000E-01
    7.5747665880E-01    7.5101014291E-01    7.4456379083E-01    7.3814114139E-01
    7.3174549802E-01    7.2537993324E-01    7.1904729367E-01    7.1275020530E-01
    7.0649107912E-01    7.0027211708E-01    6.9409531826E-01    6.8796248536E-01
    6.8187523135E-01    6.7583498640E-01    6.6984300493E-01    6.6390037279E-01
    6.5800801463E-01    6.5216670131E-01    6.4637705743E-01    6.4063956888E-01
    6.3495459044E-01    6.2932235334E-01    6.2374297287E-01    6.1821645590E-01
    6.1274270835E-01    6.0732154257E-01    6.0195268463E-01    5.9663578153E-01
    5.9137040816E-01    5.8615607421E-01    5.8099223088E-01    5.7587827739E-01
    5.7081356728E-01    5.6579741452E-01    5.6082909939E-01    5.5590787413E-01
    5.5103296833E-01    5.4620359404E-01    5.4141895071E-01    5.3667822976E-01
    5.3198061893E-01    5.2732530635E-01    5.2271148432E-01    5.1813835282E-01
    5.1360512273E-01    5.0911101877E-01    5.0465528216E-01    5.0023717301E-01
    4.9585597244E-01    4.9151098443E-01    4.8720153738E-01    4.8292698546E-01
    4.7868670968E-01    4.7448011872E-01    4.7030664956E-01    4.6616576786E-01
    4.6205696810E-01    4.5797977360E-01    4.5393373628E-01    4.4991843628E-01
    4.4593348140E-01    4.4197850638E-01    4.3805317207E-01    4.3415716448E-01
    4.3029019364E-01    4.2645199248E-01    4.2264231553E-01    4.1886093760E-01
    4.1510765241E-01    4.1138227112E-01    4.0768462089E-01    4.0401454339E-01
    4.0037189335E-01    3.9675653704E-01    3.9316835086E-01    3.8960721987E-01
    3.8607303648E-01    3.8256569907E-01    3.7908511073E-01    3.7563117812E-01
    3.7220381030E-01    3.6880291774E-01    3.6542841141E-01    3.6208020191E-01
    3.5875819880E-01    3.5546230996E-01    3.5219244112E-01    3.4894849543E-01
    3.4573037326E-01    3.4253797202E-01    3.3937118620E-01    3.3622990745E-01
    3.3311402474E-01    3.3002342450E-01    3.2695799068E-01    3.2391760490E-01
    3.2090214657E-01    3.1791149296E-01    3.1494551938E-01    3.1200409918E-01
    3.0908710394E-01    3.0619440353E-01    3.0332586620E-01    3.0048135870E-01
    2.9766074633E-01    2.9486389307E-01    2.9209066163E-01    2.8934091357E-01
    2.8661450933E-01    2.8391130836E-01    2.8123116915E-01    2.7857394934E-01
    2.7593950578E-01    2.7332769458E-01    2.7073837120E-01    2.6817139050E-01
    2.6562660682E-01    2.6310387401E-01    2.6060304553E-01    2.5812397446E-01
    2.5566651360E-01    2.5323051550E-01    2.5081583249E-01    2.4842231678E-01
    2.4604982045E-01    2.4369819556E-01    2.4136729413E-01    2.3905696823E-01
    2.3676706998E-01    2.3449745164E-01    2.3224796561E-01    2.3001846445E-01
    2.2780880098E-01    2.2561882825E-01    2.2344839961E-01    2.2129736872E-01
    2.1916558959E-01    2.1705291660E-01    2.1495920453E-01    2.1288430861E-01
    2.1082808449E-01    2.0879038833E-01    2.0677107675E-01    2.0477000694E-01
    2.0278703658E-01    2.0082202394E-01    1.9887482787E-01    1.9694530779E-01
    1.9503332377E-01    1.9313873647E-01    1.9126140722E-01    1.8940119799E-01
    1.8755797144E-01    1.8573159089E-01    1.8392192036E-01    1.8212882458E-01
    1.8035216900E-01    1.7859181979E-01    1.7684764383E-01    1.7511950879E-01
    1.7340728305E-01    1.7171083576E-01    1.7003003683E-01    1.6836475695E-01
    1.6671486757E-01    1.6508024093E-01    1.6346075004E-01    1.6185626871E-01
    1.6026667155E-01    1.5869183395E-01    1.5713163209E-01    1.5558594297E-01
    1.5405464439E-01    1.5253761494E-01    1.5103473402E-01    1.4954588184E-01
    1.4807093941E-01    1.4660978856E-01    1.4516231191E-01    1.4372839289E-01
    1.4230791576E-01    1.4090076555E-01    1.3950682812E-01    1.3812599012E-01
    1.3675813901E-01    1.3540316305E-01    1.3406095130E-01    1.3273139360E-01
    1.3141438062E-01    1.3010980378E-01    1.2881755534E-01    1.2753752830E-01
    1.2626961647E-01    1.2501371445E-01    1.2376971760E-01    1.2253752206E-01
    1.2131702476E-01    1.2010812338E-01    1.1891071638E-01    1.1772470299E-01
    1.1654998317E-01    1.1538645767E-01    1.1423402798E-01    1.1309259633E-01
    1.1196206572E-01    1.1084233986E-01    1.0973332323E-01    1.0863492103E-01
    1.0754703917E-01    1.0646958433E-01    1.0540246388E-01    1.0434558591E-01
    1.0329885924E-01    1.0226219339E-01    1.0123549859E-01    1.0021868577E-01
    9.9211666563E-02    9.8214353285E-02    9.7226658953E-02    9.6248497264E-02
    9.5279782601E-02    9.4320430020E-02    9.3370355253E-02    9.2429474701E-02
    9.1497705428E-02    9.0574965163E-02    8.9661172288E-02    8.8756245838E-02
    8.7860105499E-02    8.6972671600E-02    8.6093865110E-02    8.5223607633E-02
    8.4361821408E-02    8.3508429301E-02    8.2663354799E-02    8.1826522013E-02
    8.0997855668E-02    8.0177281100E-02    7.9364724255E-02    7.8560111680E-02
    7.7763370524E-02    7.6974428531E-02    7.6193214036E-02    7.5419655963E-02
    7.4653683820E-02    7.3895227694E-02    7.3144218249E-02    7.2400586722E-02
    7.1664264917E-02    7.0935185202E-02    7.0213280509E-02    6.9498484322E-02
    6.8790730684E-02    6.8089954182E-02    6.7396089953E-02    6.6709073672E-02
    6.6028841554E-02    6.5355330351E-02    6.4688477340E-02    6.4028220331E-02
    6.3374497653E-02    6.2727248158E-02    6.2086411213E-02    6.1451926696E-02
    6.0823734998E-02    6.0201777012E-02    5.9585994134E-02    5.8976328258E-02
    5.8372721775E-02    5.7775117566E-02    5.7183458998E-02    5.6597689927E-02
    5.6017754686E-02    5.5443598087E-02    5.4875165417E-02    5.4312402434E-02
    5.3755255362E-02    5.3203670890E-02    5.2657596169E-02    5.2116978805E-02
    5.1581766860E-02    5.1051908847E-02    5.0527353725E-02    5.0008050900E-02
    4.9493950217E-02    4.8985001959E-02    4.8481156844E-02    4.7982366024E-02
    4.7488581076E-02    4.6999754003E-02    4.6515837231E-02    4.6036783605E-02
    4.5562546384E-02    4.5093079243E-02    4.4628336264E-02    4.4168271936E-02
    4.3712841153E-02    4.3261999207E-02    4.2815701791E-02    4.2373904989E-02
    4.1936565280E-02    4.1503639528E-02    4.1075084985E-02    4.0650859286E-02
    4.0230920444E-02    3.9815226850E-02    3.9403737269E-02    3.8996410836E-02
    3.8593207057E-02    3.8194085800E-02    3.7799007297E-02    3.7407932142E-02
    3.7020821281E-02    3.6637636020E-02    3.6258338011E-02    3.5882889259E-02
    3.5511252112E-02    3.5143389263E-02    3.4779263744E-02    3.4418838927E-02
    3.4062078516E-02    3.3708946551E-02    3.3359407399E-02    3.3013425756E-02
    3.2670966641E-02    3.2331995396E-02    3.1996477682E-02    3.1664379478E-02
    3.1335667075E-02    3.1010307078E-02    3.0688266400E-02    3.0369512261E-02
    3.0054012183E-02    2.9741733995E-02    2.9432645819E-02    2.9126716078E-02
    2.8823913488E-02    2.8524207057E-02    2.8227566082E-02    2.7933960148E-02
    2.7643359124E-02    2.7355733162E-02    2.7071052693E-02    2.6789288426E-02
    2.6510411346E-02    2.6234392712E-02    2.5961204050E-02    2.5690817159E-02
    2.5423204102E-02    2.5158337204E-02    2.4896189057E-02    2.4636732506E-02
    2.4379940659E-02    2.4125786877E-02    2.3874244772E-02    2.3625288209E-02
    2.3378891302E-02    2.3135028410E-02    2.2893674137E-02    2.2654803329E-02
    2.2418391074E-02    2.2184412695E-02    2.1952843753E-02    2.1723660043E-02
    2.1496837591E-02    2.1272352655E-02    2.1050181718E-02    2.0830301491E-02
    2.0612688908E-02    2.0397321127E-02    2.0184175523E-02    1.9973229691E-02
    1.9764461442E-02    1.9557848801E-02    1.9353370005E-02    1.9151003504E-02
    1.8950727952E-02    1.8752522215E-02    1.8556365360E-02    1.8362236659E-02
    1.8170115585E-02    1.7979981810E-02    1.7791815204E-02    1.7605595834E-02
    1.7421303959E-02    1.7238920034E-02    1.7058424700E-02    1.6879798790E-02
    1.6703023325E-02    1.6528079509E-02    1.6354948731E-02    1.6183612564E-02
    1.6014052759E-02    1.5846251246E-02    1.5680190135E-02    1.5515851708E-02
    1.5353218425E-02    1.5192272915E-02    1.5032997980E-02    1.4875376591E-02
    1.4719391886E-02    1.4565027170E-02    1.4412265911E-02    1.4261091744E-02
    1.4111488461E-02    1.3963440018E-02    1.3816930527E-02    1.3671944258E-02
    1.3528465639E-02    1.3386479249E-02    1.3245969821E-02    1.3106922241E-02
    1.2969321542E-02    1.2833152909E-02    1.2698401672E-02    1.2565053306E-02
    1.2433093434E-02    1.2302507820E-02    1.2173282369E-02    1.2045403127E-02
    1.1918856280E-02    1.1793628152E-02    1.1669705201E-02    1.1547074024E-02
    1.1425721350E-02    1.1305634039E-02    1.1186799085E-02    1.1069203611E-02
    1.0952834870E-02    1.0837680242E-02    1.0723727232E-02    1.0610963473E-02
    1.0499376721E-02    1.0388954854E-02    1.0279685873E-02    1.0171557898E-02
    1.0064559171E-02    9.9586780505E-03    9.8539030118E-03    9.7502226471E-03
    9.6476256633E-03    9.5461008811E-03    9.4456372337E-03    9.3462237660E-03
    9.2478496337E-03    9.1505041017E-03    9.0541765434E-03    8.9588564395E-03
    8.8645333770E-03    8.7711970485E-03    8.6788372504E-03    8.5874438829E-03
    8.4970069479E-03    8.4075165491E-03    8.3189628900E-03    8.2313362738E-03
    8.1446271018E-03    8.0588258728E-03    7.9739231821E-03    7.8899097201E-03
    7.8067762723E-03    7.7245137175E-03    7.6431130273E-03    7.5625652650E-03
    7.4828615850E-03    7.4039932316E-03    7.3259515382E-03    7.2487279266E-03
    7.1723139058E-03    7.0967010715E-03    7.0218811050E-03    6.9478457725E-03
    6.8745869240E-03    6.8020964930E-03    6.7303664950E-03    6.6593890273E-03
    6.5891562678E-03    6.5196604744E-03    6.4508939840E-03    6.3828492122E-03
    6.3155186517E-03    6.2488948724E-03    6.1829705201E-03    6.1177383158E-03
    6.0531910554E-03    5.9893216081E-03    5.9261229166E-03    5.8635879958E-03
    5.8017099322E-03    5.7404818832E-03    5.6798970764E-03    5.6199488090E-03
    5.5606304470E-03    5.5019354245E-03    5.4438572429E-03    5.3863894706E-03
    5.3295257419E-03    5.2732597569E-03    5.2175852800E-03    5.1624961401E-03
    5.1079862294E-03    5.0540495032E-03    5.0006799786E-03    4.9478717349E-03
    4.8956189118E-03    4.8439157097E-03    4.7927563888E-03    4.7421352683E-03
    4.6920467260E-03    4.6424851978E-03    4.5934451769E-03    4.5449212133E-03
    4.4969079133E-03    4.4493999390E-03    4.4023920073E-03    4.3558788899E-03
    4.3098554126E-03    4.2643164543E-03    4.2192569473E-03    4.1746718759E-03
    4.1305562763E-03    4.0869052364E-03    4.0437138945E-03    4.0009774394E-03
    3.9586911095E-03    3.9168501929E-03    3.8754500261E-03    3.8344859939E-03
    3.7939535293E-03    3.7538481120E-03    3.7141652692E-03    3.6749005739E-03
    3.6360496453E-03    3.5976081480E-03    3.5595717914E-03    3.5219363297E-03
    3.4846975608E-03    3.4478513264E-03    3.4113935113E-03    3.3753200431E-03
    3.3396268917E-03    3.3043100686E-03    3.2693656270E-03    3.2347896611E-03
    3.2005783054E-03    3.1667277348E-03    3.1332341641E-03    3.1000938470E-03
    3.0673030766E-03    3.0348581844E-03    3.0027555399E-03    2.9709915505E-03
    2.9395626611E-03    2.9084653534E-03    2.8776961459E-03    2.8472515930E-03
    2.8171282854E-03    2.7873228491E-03    2.7578319453E-03    2.7286522698E-03
    2.6997805531E-03    2.6712135595E-03    2.6429480873E-03    2.6149809679E-03
    2.5873090660E-03    2.5599292787E-03    2.5328385357E-03    2.5060337986E-03
    2.4795120608E-03    2.4532703469E-03    2.4273057127E-03    2.4016152446E-03
    2.3761960595E-03    2.3510453045E-03    2.3261601562E-03    2.3015378209E-03
    2.2771755340E-03    2.2530705598E-03    2.2292201911E-03    2.2056217492E-03
    2.1822725832E-03    2.1591700699E-03    2.1363116135E-03    2.1136946455E-03
    2.0913166241E-03    2.0691750341E-03    2.0472673867E-03    2.0255912190E-03
    2.0041440939E-03    1.9829235999E-03    1.9619273505E-03    1.9411529844E-03
    1.9205981649E-03    1.9002605798E-03    1.8801379410E-03    1.8602279845E-03
    1.8405284700E-03    1.8210371805E-03    1.8017519222E-03    1.7826705246E-03
    1.7637908396E-03    1.7451107418E-03    1.7266281279E-03    1.7083409168E-03
    1.6902470491E-03    1.6723444870E-03    1.6546312141E-03    1.6371052351E-03
    1.6197645757E-03    1.6026072822E-03    1.5856314214E-03    1.5688350803E-03
    1.5522163662E-03    1.5357734061E-03    1.5195043466E-03    1.5034073538E-03
    1.4874806130E-03    1.4717223287E-03    1.4561307240E-03    1.4407040408E-03
   </PP_CHI.1>
 </PP_PSWFC>
 <PP_RHOATOM type="real"  size=" 732" columns="4">
    0.0000000000E+00    1.2003117856E-03    4.7976286976E-03    1.0781110329E-02
    1.9132739017E-02    2.9827394087E-02    4.2832955232E-02    5.8110434477E-02
    7.5614136023E-02    9.5291843103E-02    1.1708503087E-01    1.4092910420E-01
    1.6675365906E-01    1.9448276623E-01    2.2403527573E-01    2.5532514039E-01
    2.8826175703E-01    3.2275032326E-01    3.5869220822E-01    3.9598533538E-01
    4.3452457537E-01    4.7420214696E-01    5.1490802420E-01    5.5653034763E-01
    5.9895583772E-01    6.4207020847E-01    6.8575857918E-01    7.2990588261E-01
    7.7439726756E-01    8.1911849407E-01    8.6395631961E-01    9.0879887446E-01
    9.5353602479E-01    9.9805972201E-01    1.0422643369E+00    1.0860469773E+00
    1.1293077883E+00    1.1719502338E+00    1.2138813584E+00    1.2550120292E+00
    1.2952571566E+00    1.3345358931E+00    1.3727718112E+00    1.4098930578E+00
    1.4458324872E+00    1.4805277716E+00    1.5139214886E+00    1.5459611873E+00
    1.5765994325E+00    1.6057938269E+00    1.6335070135E+00    1.6597066563E+00
    1.6843654033E+00    1.7074608289E+00    1.7289753595E+00    1.7488961819E+00
    1.7672151356E+00    1.7839285899E+00    1.7990373080E+00    1.8125462970E+00
    1.8244646478E+00    1.8348053630E+00    1.8435851768E+00    1.8508243662E+00
    1.8565465550E+00    1.8607785130E+00    1.8635499496E+00    1.8648933044E+00
    1.8648435355E+00    1.8634379063E+00    1.8607157723E+00    1.8567183682E+00
    1.8514885971E+00    1.8450708220E+00    1.8375106610E+00    1.8288547865E+00
    1.8191507289E+00    1.8084466869E+00    1.7967913429E+00    1.7842336858E+00
    1.7708228411E+00    1.7566079078E+00    1.7416378045E+00    1.7259611226E+00
    1.7096259889E+00    1.6926799369E+00    1.6751697859E+00    1.6571415306E+00
    1.6386402384E+00    1.6197099563E+00    1.6003936264E+00    1.5807330101E+00
    1.5607686213E+00    1.5405396674E+00    1.5200839991E+00    1.4994380678E+00
    1.4786368909E+00    1.4577140242E+00    1.4367015414E+00    1.4156300211E+00
    1.3945285387E+00    1.3734246660E+00    1.3523444751E+00    1.3313125484E+00
    1.3103519931E+00    1.2894844605E+00    1.2687301695E+00    1.2481079335E+00
    1.2276351912E+00    1.2073280403E+00    1.1872012737E+00    1.1672684186E+00
    1.1475417772E+00    1.1280324695E+00    1.1087504772E+00    1.0897046892E+00
    1.0709029477E+00    1.0523520951E+00    1.0340580211E+00    1.0160257103E+00
    9.9825928975E-01    9.8076207592E-01    9.6353662167E-01    9.4658476251E-01
    9.2990766225E-01    9.1350585770E-01    8.9737930252E-01    8.8152740999E-01
    8.6594909463E-01    8.5064281259E-01    8.3560660074E-01    8.2083811443E-01
    8.0633466383E-01    7.9209324882E-01    7.7811059241E-01    7.6438317270E-01
    7.5090725327E-01    7.3767891213E-01    7.2469406907E-01    7.1194851160E-01
    6.9943791929E-01    6.8715788666E-01    6.7510394470E-01    6.6327158075E-01
    6.5165625719E-01    6.4025342855E-01    6.2905855745E-01    6.1806712905E-01
    6.0727466436E-01    5.9667673228E-01    5.8626896037E-01    5.7604704459E-01
    5.6600675783E-01    5.5614395743E-01    5.4645459168E-01    5.3693470534E-01
    5.2758044420E-01    5.1838805887E-01    5.0935390762E-01    5.0047445851E-01
    4.9174629081E-01    4.8316609563E-01    4.7473067605E-01    4.6643694657E-01
    4.5828193204E-01    4.5026276612E-01    4.4237668925E-01    4.3462104625E-01
    4.2699328354E-01    4.1949094605E-01    4.1211167387E-01    4.0485319861E-01
    3.9771333966E-01    3.9069000020E-01    3.8378116313E-01    3.7698488693E-01
    3.7029930148E-01    3.6372260377E-01    3.5725305375E-01    3.5088897010E-01
    3.4462872619E-01    3.3847074599E-01    3.3241350022E-01    3.2645550255E-01
    3.2059530597E-01    3.1483149937E-01    3.0916270423E-01    3.0358757156E-01
    2.9810477900E-01    2.9271302820E-01    2.8741104235E-01    2.8219756395E-01
    2.7707135280E-01    2.7203118427E-01    2.6707584773E-01    2.6220414523E-01
    2.5741489042E-01    2.5270690761E-01    2.4807903116E-01    2.4353010492E-01
    2.3905898198E-01    2.3466452455E-01    2.3034560404E-01    2.2610110132E-01
    2.2192990696E-01    2.1783092144E-01    2.1380305534E-01    2.0984522953E-01
    2.0595637534E-01    2.0213543472E-01    1.9838136035E-01    1.9469311581E-01
    1.9106967564E-01    1.8751002550E-01    1.8401316221E-01    1.8057809385E-01
    1.7720383981E-01    1.7388943087E-01    1.7063390923E-01    1.6743632853E-01
    1.6429575392E-01    1.6121126203E-01    1.5818194100E-01    1.5520689051E-01
    1.5228522170E-01    1.4941605725E-01    1.4659853128E-01    1.4383178937E-01
    1.4111498850E-01    1.3844729704E-01    1.3582789468E-01    1.3325597238E-01
    1.3073073236E-01    1.2825138796E-01    1.2581716366E-01    1.2342729494E-01
    1.2108102829E-01    1.1877762104E-01    1.1651634135E-01    1.1429646812E-01
    1.1211729086E-01    1.0997810966E-01    1.0787823506E-01    1.0581698798E-01
    1.0379369961E-01    1.0180771133E-01    9.9858374581E-02    9.7945050809E-02
    9.6067111322E-02    9.4223937208E-02    9.2414919227E-02    9.0639457703E-02
    8.8896962421E-02    8.7186852514E-02    8.5508556363E-02    8.3861511481E-02
    8.2245164407E-02    8.0658970598E-02    7.9102394317E-02    7.7574908522E-02
    7.6075994759E-02    7.4605143050E-02    7.3161851783E-02    7.1745627603E-02
    7.0355985302E-02    6.8992447707E-02    6.7654545577E-02    6.6341817488E-02
    6.5053809728E-02    6.3790076189E-02    6.2550178260E-02    6.1333684719E-02
    6.0140171630E-02    5.8969222235E-02    5.7820426851E-02    5.6693382767E-02
    5.5587694138E-02    5.4502971888E-02    5.3438833606E-02    5.2394903443E-02
    5.1370812020E-02    5.0366196323E-02    4.9380699607E-02    4.8413971302E-02
    4.7465666917E-02    4.6535447942E-02    4.5622981760E-02    4.4727941549E-02
    4.3850006195E-02    4.2988860201E-02    4.2144193596E-02    4.1315701848E-02
    4.0503085776E-02    3.9706051466E-02    3.8924310184E-02    3.8157578294E-02
    3.7405577172E-02    3.6668033128E-02    3.5944677325E-02    3.5235245695E-02
    3.4539478866E-02    3.3857122082E-02    3.3187925127E-02    3.2531642249E-02
    3.1888032089E-02    3.1256857601E-02    3.0637885988E-02    3.0030888625E-02
    2.9435640992E-02    2.8851922604E-02    2.8279516942E-02    2.7718211386E-02
    2.7167797154E-02    2.6628069227E-02    2.6098826296E-02    2.5579870690E-02
    2.5071008320E-02    2.4572048613E-02    2.4082804456E-02    2.3603092133E-02
    2.3132731270E-02    2.2671544775E-02    2.2219358782E-02    2.1776002597E-02
    2.1341308640E-02    2.0915112394E-02    2.0497252350E-02    2.0087569956E-02
    1.9685909564E-02    1.9292118382E-02    1.8906046422E-02    1.8527546451E-02
    1.8156473945E-02    1.7792687038E-02    1.7436046480E-02    1.7086415587E-02
    1.6743660197E-02    1.6407648629E-02    1.6078251632E-02    1.5755342351E-02
    1.5438796277E-02    1.5128491211E-02    1.4824307219E-02    1.4526126596E-02
    1.4233833823E-02    1.3947315528E-02    1.3666460453E-02    1.3391159410E-02
    1.3121305246E-02    1.2856792809E-02    1.2597518912E-02    1.2343382294E-02
    1.2094283591E-02    1.1850125295E-02    1.1610811730E-02    1.1376249011E-02
    1.1146345016E-02    1.0921009352E-02    1.0700153327E-02    1.0483689915E-02
    1.0271533732E-02    1.0063600999E-02    9.8598095195E-03    9.6600786462E-03
    9.4643292561E-03    9.2724837211E-03    9.0844658818E-03    8.9002010203E-03
    8.7196158341E-03    8.5426384104E-03    8.3691982012E-03    8.1992259974E-03
    8.0326539056E-03    7.8694153230E-03    7.7094449145E-03    7.5526785894E-03
    7.3990534782E-03    7.2485079107E-03    7.1009813938E-03    6.9564145897E-03
    6.8147492949E-03    6.6759284195E-03    6.5398959661E-03    6.4065970101E-03
    6.2759776800E-03    6.1479851376E-03    6.0225675591E-03    5.8996741163E-03
    5.7792549581E-03    5.6612611924E-03    5.5456448686E-03    5.4323589595E-03
    5.3213573448E-03    5.2125947938E-03    5.1060269490E-03    5.0016103096E-03
    4.8993022161E-03    4.7990608338E-03    4.7008451379E-03    4.6046148985E-03
    4.5103306651E-03    4.4179537526E-03    4.3274462266E-03    4.2387708893E-03
    4.1518912661E-03    4.0667715913E-03    3.9833767954E-03    3.9016724917E-03
    3.8216249633E-03    3.7432011508E-03    3.6663686397E-03    3.5910956481E-03
    3.5173510149E-03    3.4451041881E-03    3.3743252131E-03    3.3049847214E-03
    3.2370539195E-03    3.1705045782E-03    3.1053090215E-03    3.0414401162E-03
    2.9788712619E-03    2.9175763802E-03    2.8575299053E-03    2.7987067742E-03
    2.7410824167E-03    2.6846327462E-03    2.6293341507E-03    2.5751634831E-03
    2.5220980531E-03    2.4701156178E-03    2.4191943732E-03    2.3693129461E-03
    2.3204503857E-03    2.2725861552E-03    2.2257001240E-03    2.1797725603E-03
    2.1347841225E-03    2.0907158525E-03    2.0475491681E-03    2.0052658555E-03
    1.9638480621E-03    1.9232782902E-03    1.8835393893E-03    1.8446145499E-03
    1.8064872966E-03    1.7691414820E-03    1.7325612798E-03    1.6967311790E-03
    1.6616359776E-03    1.6272607765E-03    1.5935909739E-03    1.5606122591E-03
    1.5283106073E-03    1.4966722736E-03    1.4656837878E-03    1.4353319487E-03
    1.4056038195E-03    1.3764867219E-03    1.3479682315E-03    1.3200361726E-03
    1.2926786136E-03    1.2658838618E-03    1.2396404591E-03    1.2139371772E-03
    1.1887630131E-03    1.1641071848E-03    1.1399591268E-03    1.1163084859E-03
    1.0931451170E-03    1.0704590791E-03    1.0482406310E-03    1.0264802278E-03
    1.0051685167E-03    9.8429633323E-04    9.6385469769E-04    9.4383481133E-04
    9.2422805287E-04    9.0502597495E-04    8.8622030072E-04    8.6780292041E-04
    8.4976588808E-04    8.3210141831E-04    8.1480188307E-04    7.9785980856E-04
    7.8126787216E-04    7.6501889942E-04    7.4910586113E-04    7.3352187039E-04
    7.1826017985E-04    7.0331417884E-04    6.8867739074E-04    6.7434347022E-04
    6.6030620071E-04    6.4655949174E-04    6.3309737650E-04    6.1991400933E-04
    6.0700366330E-04    5.9436072785E-04    5.8197970648E-04    5.6985521440E-04
    5.5798197638E-04    5.4635482450E-04    5.3496869601E-04    5.2381863124E-04
    5.1289977150E-04    5.0220735710E-04    4.9173672531E-04    4.8148330847E-04
    4.7144263201E-04    4.6161031267E-04    4.5198205656E-04    4.4255365746E-04
    4.3332099499E-04    4.2428003290E-04    4.1542681739E-04    4.0675747544E-04
    3.9826821316E-04    3.8995531425E-04    3.8181513835E-04    3.7384411961E-04
    3.6603876510E-04    3.5839565337E-04    3.5091143302E-04    3.4358282126E-04
    3.3640660254E-04    3.2937962718E-04    3.2249881003E-04    3.1576112919E-04
    3.0916362470E-04    3.0270339732E-04    2.9637760725E-04    2.9018347297E-04
    2.8411827005E-04    2.7817932996E-04    2.7236403897E-04    2.6666983705E-04
    2.6109421671E-04    2.5563472203E-04    2.5028894752E-04    2.4505453717E-04
    2.3992918338E-04    2.3491062604E-04    2.2999665149E-04    2.2518509166E-04
    2.2047382305E-04    2.1586076591E-04    2.1134388328E-04    2.0692118015E-04
    2.0259070262E-04    1.9835053703E-04    1.9419880913E-04    1.9013368334E-04
    1.8615336188E-04    1.8225608406E-04    1.7844012550E-04    1.7470379737E-04
    1.7104544570E-04    1.6746345063E-04    1.6395622576E-04    1.6052221741E-04
    1.5715990398E-04    1.5386779533E-04    1.5064443204E-04    1.4748838488E-04
    1.4439825415E-04    1.4137266905E-04    1.3841028713E-04    1.3550979370E-04
    1.3266990126E-04    1.2988934890E-04    1.2716690183E-04    1.2450135078E-04
    1.2189151153E-04    1.1933622434E-04    1.1683435349E-04    1.1438478677E-04
    1.1198643500E-04    1.0963823155E-04    1.0733913188E-04    1.0508811311E-04
    1.0288417353E-04    1.0072633220E-04    9.8613628506E-05    9.6545121756E-05
    9.4519890751E-05    9.2537033399E-05    9.0595666314E-05    8.8694924433E-05
    8.6833960642E-05    8.5011945402E-05    8.3228066386E-05    8.1481528130E-05
    7.9771551679E-05    7.8097374252E-05    7.6458248903E-05    7.4853444202E-05
    7.3282243905E-05    7.1743946651E-05    7.0237865646E-05    6.8763328370E-05
    6.7319676275E-05    6.5906264502E-05    6.4522461597E-05    6.3167649233E-05
    6.1841221937E-05    6.0542586830E-05    5.9271163361E-05    5.8026383057E-05
    5.6807689268E-05    5.5614536927E-05    5.4446392308E-05    5.3302732793E-05
    5.2183046640E-05    5.1086832760E-05    5.0013600497E-05    4.8962869409E-05
    4.7934169058E-05    4.6927038805E-05    4.5941027604E-05    4.4975693805E-05
    4.4030604957E-05    4.3105337623E-05    4.2199477186E-05    4.1312617670E-05
    4.0444361562E-05    3.9594319634E-05    3.8762110771E-05    3.7947361807E-05
    3.7149707354E-05    3.6368789646E-05    3.5604258374E-05    3.4855770542E-05
    3.4122990304E-05    3.3405588823E-05    3.2703244121E-05    3.2015640940E-05
    3.1342470601E-05    3.0683430867E-05    3.0038225809E-05    2.9406565675E-05
    2.8788166764E-05    2.8182751296E-05    2.7590047293E-05    2.7009788456E-05
    2.6441714046E-05    2.5885568773E-05    2.5341102677E-05    2.4808071020E-05
    2.4286234180E-05    2.3775357537E-05    2.3275211378E-05    2.2785570787E-05
    2.2306215551E-05    2.1836930059E-05    2.1377503206E-05    2.0927728302E-05
    2.0487402978E-05    2.0056329093E-05    1.9634312653E-05    1.9221163721E-05
    1.8816696328E-05    1.8420728399E-05    1.8033081664E-05    1.7653581587E-05
    1.7282057278E-05    1.6918341424E-05    1.6562270216E-05    1.6213683268E-05
    1.5872423553E-05    1.5538337331E-05    1.5211274077E-05    1.4891086419E-05
    1.4577630069E-05    1.4270763761E-05    1.3970349184E-05    1.3676250925E-05
    1.3388336406E-05    1.3106475824E-05    1.2830542096E-05    1.2560410799E-05
    1.2295960119E-05    1.2037070790E-05    1.1783626045E-05    1.1535511566E-05
    1.1292615427E-05    1.1054828047E-05    1.0822042144E-05    1.0594152682E-05
    1.0371056825E-05    1.0152653895E-05    9.9388453211E-06    9.7295346013E-06
    9.5246272547E-06    9.3240307811E-06    9.1276546197E-06    8.9354101085E-06
    8.7472104442E-06    8.5629706435E-06    8.3826075051E-06    8.2060395728E-06
    8.0331870983E-06    7.8639720058E-06    7.6983178571E-06    7.5361498175E-06
    7.3773946220E-06    7.2219805422E-06    7.0698373545E-06    6.9208963089E-06
    6.7750900976E-06    6.6323528252E-06    6.4926199785E-06    6.3558283986E-06
    6.2219162519E-06    6.0908230023E-06    5.9624893842E-06    5.8368573759E-06
    5.7138701738E-06    5.5934721663E-06    5.4756089094E-06    5.3602271018E-06
    5.2472745615E-06    5.1367002018E-06    5.0284540088E-06    4.9224870185E-06
    4.8187512952E-06    4.7171999097E-06    4.6177869186E-06    4.5204673427E-06
    4.4251971481E-06    4.3319332253E-06    4.2406333706E-06    4.1512562665E-06
 </PP_RHOATOM>
</UPF>

END_PSP
